%%MatrixMarket matrix coordinate integer general
% Binary matrix over GF(2).
% Coordinate indices are 1-based; omitted entries are zero.
96 256 816
1 2 1
1 33 1
1 65 1
1 97 1
1 129 1
1 161 1
1 193 1
1 225 1
2 1 1
2 2 1
2 34 1
2 66 1
2 98 1
2 130 1
2 162 1
2 194 1
2 226 1
3 4 1
3 35 1
3 67 1
3 99 1
3 131 1
3 163 1
3 195 1
3 227 1
4 3 1
4 4 1
4 36 1
4 68 1
4 100 1
4 132 1
4 164 1
4 196 1
4 228 1
5 6 1
5 37 1
5 69 1
5 101 1
5 133 1
5 165 1
5 197 1
5 229 1
6 5 1
6 6 1
6 38 1
6 70 1
6 102 1
6 134 1
6 166 1
6 198 1
6 230 1
7 8 1
7 39 1
7 71 1
7 103 1
7 135 1
7 167 1
7 199 1
7 231 1
8 7 1
8 8 1
8 40 1
8 72 1
8 104 1
8 136 1
8 168 1
8 200 1
8 232 1
9 10 1
9 41 1
9 73 1
9 105 1
9 137 1
9 169 1
9 201 1
9 233 1
10 9 1
10 10 1
10 42 1
10 74 1
10 106 1
10 138 1
10 170 1
10 202 1
10 234 1
11 12 1
11 43 1
11 75 1
11 107 1
11 139 1
11 171 1
11 203 1
11 235 1
12 11 1
12 12 1
12 44 1
12 76 1
12 108 1
12 140 1
12 172 1
12 204 1
12 236 1
13 14 1
13 45 1
13 77 1
13 109 1
13 141 1
13 173 1
13 205 1
13 237 1
14 13 1
14 14 1
14 46 1
14 78 1
14 110 1
14 142 1
14 174 1
14 206 1
14 238 1
15 16 1
15 47 1
15 79 1
15 111 1
15 143 1
15 175 1
15 207 1
15 239 1
16 15 1
16 16 1
16 48 1
16 80 1
16 112 1
16 144 1
16 176 1
16 208 1
16 240 1
17 18 1
17 49 1
17 81 1
17 113 1
17 145 1
17 177 1
17 209 1
17 241 1
18 17 1
18 18 1
18 50 1
18 82 1
18 114 1
18 146 1
18 178 1
18 210 1
18 242 1
19 20 1
19 51 1
19 83 1
19 115 1
19 147 1
19 179 1
19 211 1
19 243 1
20 19 1
20 20 1
20 52 1
20 84 1
20 116 1
20 148 1
20 180 1
20 212 1
20 244 1
21 22 1
21 53 1
21 85 1
21 117 1
21 149 1
21 181 1
21 213 1
21 245 1
22 21 1
22 22 1
22 54 1
22 86 1
22 118 1
22 150 1
22 182 1
22 214 1
22 246 1
23 24 1
23 55 1
23 87 1
23 119 1
23 151 1
23 183 1
23 215 1
23 247 1
24 23 1
24 24 1
24 56 1
24 88 1
24 120 1
24 152 1
24 184 1
24 216 1
24 248 1
25 26 1
25 57 1
25 89 1
25 121 1
25 153 1
25 185 1
25 217 1
25 249 1
26 25 1
26 26 1
26 58 1
26 90 1
26 122 1
26 154 1
26 186 1
26 218 1
26 250 1
27 28 1
27 59 1
27 91 1
27 123 1
27 155 1
27 187 1
27 219 1
27 251 1
28 27 1
28 28 1
28 60 1
28 92 1
28 124 1
28 156 1
28 188 1
28 220 1
28 252 1
29 30 1
29 61 1
29 93 1
29 125 1
29 157 1
29 189 1
29 221 1
29 253 1
30 29 1
30 30 1
30 62 1
30 94 1
30 126 1
30 158 1
30 190 1
30 222 1
30 254 1
31 32 1
31 63 1
31 95 1
31 127 1
31 159 1
31 191 1
31 223 1
31 255 1
32 31 1
32 32 1
32 64 1
32 96 1
32 128 1
32 160 1
32 192 1
32 224 1
32 256 1
33 1 1
33 64 1
33 67 1
33 115 1
33 157 1
33 185 1
33 203 1
33 229 1
34 2 1
34 63 1
34 64 1
34 68 1
34 116 1
34 158 1
34 186 1
34 204 1
34 230 1
35 3 1
35 34 1
35 69 1
35 117 1
35 159 1
35 187 1
35 205 1
35 231 1
36 4 1
36 33 1
36 34 1
36 70 1
36 118 1
36 160 1
36 188 1
36 206 1
36 232 1
37 5 1
37 36 1
37 71 1
37 119 1
37 129 1
37 189 1
37 207 1
37 233 1
38 6 1
38 35 1
38 36 1
38 72 1
38 120 1
38 130 1
38 190 1
38 208 1
38 234 1
39 7 1
39 38 1
39 73 1
39 121 1
39 131 1
39 191 1
39 209 1
39 235 1
40 8 1
40 37 1
40 38 1
40 74 1
40 122 1
40 132 1
40 192 1
40 210 1
40 236 1
41 9 1
41 40 1
41 75 1
41 123 1
41 133 1
41 161 1
41 211 1
41 237 1
42 10 1
42 39 1
42 40 1
42 76 1
42 124 1
42 134 1
42 162 1
42 212 1
42 238 1
43 11 1
43 42 1
43 77 1
43 125 1
43 135 1
43 163 1
43 213 1
43 239 1
44 12 1
44 41 1
44 42 1
44 78 1
44 126 1
44 136 1
44 164 1
44 214 1
44 240 1
45 13 1
45 44 1
45 79 1
45 127 1
45 137 1
45 165 1
45 215 1
45 241 1
46 14 1
46 43 1
46 44 1
46 80 1
46 128 1
46 138 1
46 166 1
46 216 1
46 242 1
47 15 1
47 46 1
47 81 1
47 97 1
47 139 1
47 167 1
47 217 1
47 243 1
48 16 1
48 45 1
48 46 1
48 82 1
48 98 1
48 140 1
48 168 1
48 218 1
48 244 1
49 17 1
49 48 1
49 83 1
49 99 1
49 141 1
49 169 1
49 219 1
49 245 1
50 18 1
50 47 1
50 48 1
50 84 1
50 100 1
50 142 1
50 170 1
50 220 1
50 246 1
51 19 1
51 50 1
51 85 1
51 101 1
51 143 1
51 171 1
51 221 1
51 247 1
52 20 1
52 49 1
52 50 1
52 86 1
52 102 1
52 144 1
52 172 1
52 222 1
52 248 1
53 21 1
53 52 1
53 87 1
53 103 1
53 145 1
53 173 1
53 223 1
53 249 1
54 22 1
54 51 1
54 52 1
54 88 1
54 104 1
54 146 1
54 174 1
54 224 1
54 250 1
55 23 1
55 54 1
55 89 1
55 105 1
55 147 1
55 175 1
55 193 1
55 251 1
56 24 1
56 53 1
56 54 1
56 90 1
56 106 1
56 148 1
56 176 1
56 194 1
56 252 1
57 25 1
57 56 1
57 91 1
57 107 1
57 149 1
57 177 1
57 195 1
57 253 1
58 26 1
58 55 1
58 56 1
58 92 1
58 108 1
58 150 1
58 178 1
58 196 1
58 254 1
59 27 1
59 58 1
59 93 1
59 109 1
59 151 1
59 179 1
59 197 1
59 255 1
60 28 1
60 57 1
60 58 1
60 94 1
60 110 1
60 152 1
60 180 1
60 198 1
60 256 1
61 29 1
61 60 1
61 95 1
61 111 1
61 153 1
61 181 1
61 199 1
61 225 1
62 30 1
62 59 1
62 60 1
62 96 1
62 112 1
62 154 1
62 182 1
62 200 1
62 226 1
63 31 1
63 62 1
63 65 1
63 113 1
63 155 1
63 183 1
63 201 1
63 227 1
64 32 1
64 61 1
64 62 1
64 66 1
64 114 1
64 156 1
64 184 1
64 202 1
64 228 1
65 1 1
65 53 1
65 78 1
65 121 1
65 139 1
65 183 1
65 221 1
65 233 1
66 2 1
66 54 1
66 77 1
66 78 1
66 122 1
66 140 1
66 184 1
66 222 1
66 234 1
67 3 1
67 55 1
67 80 1
67 123 1
67 141 1
67 185 1
67 223 1
67 235 1
68 4 1
68 56 1
68 79 1
68 80 1
68 124 1
68 142 1
68 186 1
68 224 1
68 236 1
69 5 1
69 57 1
69 82 1
69 125 1
69 143 1
69 187 1
69 193 1
69 237 1
70 6 1
70 58 1
70 81 1
70 82 1
70 126 1
70 144 1
70 188 1
70 194 1
70 238 1
71 7 1
71 59 1
71 84 1
71 127 1
71 145 1
71 189 1
71 195 1
71 239 1
72 8 1
72 60 1
72 83 1
72 84 1
72 128 1
72 146 1
72 190 1
72 196 1
72 240 1
73 9 1
73 61 1
73 86 1
73 97 1
73 147 1
73 191 1
73 197 1
73 241 1
74 10 1
74 62 1
74 85 1
74 86 1
74 98 1
74 148 1
74 192 1
74 198 1
74 242 1
75 11 1
75 63 1
75 88 1
75 99 1
75 149 1
75 161 1
75 199 1
75 243 1
76 12 1
76 64 1
76 87 1
76 88 1
76 100 1
76 150 1
76 162 1
76 200 1
76 244 1
77 13 1
77 33 1
77 90 1
77 101 1
77 151 1
77 163 1
77 201 1
77 245 1
78 14 1
78 34 1
78 89 1
78 90 1
78 102 1
78 152 1
78 164 1
78 202 1
78 246 1
79 15 1
79 35 1
79 92 1
79 103 1
79 153 1
79 165 1
79 203 1
79 247 1
80 16 1
80 36 1
80 91 1
80 92 1
80 104 1
80 154 1
80 166 1
80 204 1
80 248 1
81 17 1
81 37 1
81 94 1
81 105 1
81 155 1
81 167 1
81 205 1
81 249 1
82 18 1
82 38 1
82 93 1
82 94 1
82 106 1
82 156 1
82 168 1
82 206 1
82 250 1
83 19 1
83 39 1
83 96 1
83 107 1
83 157 1
83 169 1
83 207 1
83 251 1
84 20 1
84 40 1
84 95 1
84 96 1
84 108 1
84 158 1
84 170 1
84 208 1
84 252 1
85 21 1
85 41 1
85 66 1
85 109 1
85 159 1
85 171 1
85 209 1
85 253 1
86 22 1
86 42 1
86 65 1
86 66 1
86 110 1
86 160 1
86 172 1
86 210 1
86 254 1
87 23 1
87 43 1
87 68 1
87 111 1
87 129 1
87 173 1
87 211 1
87 255 1
88 24 1
88 44 1
88 67 1
88 68 1
88 112 1
88 130 1
88 174 1
88 212 1
88 256 1
89 25 1
89 45 1
89 70 1
89 113 1
89 131 1
89 175 1
89 213 1
89 225 1
90 26 1
90 46 1
90 69 1
90 70 1
90 114 1
90 132 1
90 176 1
90 214 1
90 226 1
91 27 1
91 47 1
91 72 1
91 115 1
91 133 1
91 177 1
91 215 1
91 227 1
92 28 1
92 48 1
92 71 1
92 72 1
92 116 1
92 134 1
92 178 1
92 216 1
92 228 1
93 29 1
93 49 1
93 74 1
93 117 1
93 135 1
93 179 1
93 217 1
93 229 1
94 30 1
94 50 1
94 73 1
94 74 1
94 118 1
94 136 1
94 180 1
94 218 1
94 230 1
95 31 1
95 51 1
95 76 1
95 119 1
95 137 1
95 181 1
95 219 1
95 231 1
96 32 1
96 52 1
96 75 1
96 76 1
96 120 1
96 138 1
96 182 1
96 220 1
96 232 1
