%%MatrixMarket matrix coordinate integer general
% GF(4) labels 0,1,2=omega,3=omega+1; arithmetic is NOT integer arithmetic.
% Coordinate indices are 1-based; omitted entries are zero.
48 128 384
1 1 2
1 17 1
1 33 1
1 49 1
1 65 1
1 81 1
1 97 1
1 113 1
2 2 2
2 18 1
2 34 1
2 50 1
2 66 1
2 82 1
2 98 1
2 114 1
3 3 2
3 19 1
3 35 1
3 51 1
3 67 1
3 83 1
3 99 1
3 115 1
4 4 2
4 20 1
4 36 1
4 52 1
4 68 1
4 84 1
4 100 1
4 116 1
5 5 2
5 21 1
5 37 1
5 53 1
5 69 1
5 85 1
5 101 1
5 117 1
6 6 2
6 22 1
6 38 1
6 54 1
6 70 1
6 86 1
6 102 1
6 118 1
7 7 2
7 23 1
7 39 1
7 55 1
7 71 1
7 87 1
7 103 1
7 119 1
8 8 2
8 24 1
8 40 1
8 56 1
8 72 1
8 88 1
8 104 1
8 120 1
9 9 2
9 25 1
9 41 1
9 57 1
9 73 1
9 89 1
9 105 1
9 121 1
10 10 2
10 26 1
10 42 1
10 58 1
10 74 1
10 90 1
10 106 1
10 122 1
11 11 2
11 27 1
11 43 1
11 59 1
11 75 1
11 91 1
11 107 1
11 123 1
12 12 2
12 28 1
12 44 1
12 60 1
12 76 1
12 92 1
12 108 1
12 124 1
13 13 2
13 29 1
13 45 1
13 61 1
13 77 1
13 93 1
13 109 1
13 125 1
14 14 2
14 30 1
14 46 1
14 62 1
14 78 1
14 94 1
14 110 1
14 126 1
15 15 2
15 31 1
15 47 1
15 63 1
15 79 1
15 95 1
15 111 1
15 127 1
16 16 2
16 32 1
16 48 1
16 64 1
16 80 1
16 96 1
16 112 1
16 128 1
17 1 1
17 32 2
17 34 1
17 58 1
17 79 1
17 93 1
17 102 1
17 115 1
18 2 1
18 17 2
18 35 1
18 59 1
18 80 1
18 94 1
18 103 1
18 116 1
19 3 1
19 18 2
19 36 1
19 60 1
19 65 1
19 95 1
19 104 1
19 117 1
20 4 1
20 19 2
20 37 1
20 61 1
20 66 1
20 96 1
20 105 1
20 118 1
21 5 1
21 20 2
21 38 1
21 62 1
21 67 1
21 81 1
21 106 1
21 119 1
22 6 1
22 21 2
22 39 1
22 63 1
22 68 1
22 82 1
22 107 1
22 120 1
23 7 1
23 22 2
23 40 1
23 64 1
23 69 1
23 83 1
23 108 1
23 121 1
24 8 1
24 23 2
24 41 1
24 49 1
24 70 1
24 84 1
24 109 1
24 122 1
25 9 1
25 24 2
25 42 1
25 50 1
25 71 1
25 85 1
25 110 1
25 123 1
26 10 1
26 25 2
26 43 1
26 51 1
26 72 1
26 86 1
26 111 1
26 124 1
27 11 1
27 26 2
27 44 1
27 52 1
27 73 1
27 87 1
27 112 1
27 125 1
28 12 1
28 27 2
28 45 1
28 53 1
28 74 1
28 88 1
28 97 1
28 126 1
29 13 1
29 28 2
29 46 1
29 54 1
29 75 1
29 89 1
29 98 1
29 127 1
30 14 1
30 29 2
30 47 1
30 55 1
30 76 1
30 90 1
30 99 1
30 128 1
31 15 1
31 30 2
31 48 1
31 56 1
31 77 1
31 91 1
31 100 1
31 113 1
32 16 1
32 31 2
32 33 1
32 57 1
32 78 1
32 92 1
32 101 1
32 114 1
33 1 1
33 27 1
33 39 2
33 61 1
33 70 1
33 92 1
33 111 1
33 117 1
34 2 1
34 28 1
34 40 2
34 62 1
34 71 1
34 93 1
34 112 1
34 118 1
35 3 1
35 29 1
35 41 2
35 63 1
35 72 1
35 94 1
35 97 1
35 119 1
36 4 1
36 30 1
36 42 2
36 64 1
36 73 1
36 95 1
36 98 1
36 120 1
37 5 1
37 31 1
37 43 2
37 49 1
37 74 1
37 96 1
37 99 1
37 121 1
38 6 1
38 32 1
38 44 2
38 50 1
38 75 1
38 81 1
38 100 1
38 122 1
39 7 1
39 17 1
39 45 2
39 51 1
39 76 1
39 82 1
39 101 1
39 123 1
40 8 1
40 18 1
40 46 2
40 52 1
40 77 1
40 83 1
40 102 1
40 124 1
41 9 1
41 19 1
41 47 2
41 53 1
41 78 1
41 84 1
41 103 1
41 125 1
42 10 1
42 20 1
42 48 2
42 54 1
42 79 1
42 85 1
42 104 1
42 126 1
43 11 1
43 21 1
43 33 2
43 55 1
43 80 1
43 86 1
43 105 1
43 127 1
44 12 1
44 22 1
44 34 2
44 56 1
44 65 1
44 87 1
44 106 1
44 128 1
45 13 1
45 23 1
45 35 2
45 57 1
45 66 1
45 88 1
45 107 1
45 113 1
46 14 1
46 24 1
46 36 2
46 58 1
46 67 1
46 89 1
46 108 1
46 114 1
47 15 1
47 25 1
47 37 2
47 59 1
47 68 1
47 90 1
47 109 1
47 115 1
48 16 1
48 26 1
48 38 2
48 60 1
48 69 1
48 91 1
48 110 1
48 116 1
