%%MatrixMarket matrix coordinate integer general
% Binary matrix over GF(2).
% Coordinate indices are 1-based; omitted entries are zero.
96 256 816
1 1 1
1 35 1
1 67 1
1 121 1
1 130 1
1 185 1
1 203 1
1 235 1
2 2 1
2 36 1
2 68 1
2 122 1
2 129 1
2 130 1
2 186 1
2 204 1
2 236 1
3 3 1
3 37 1
3 69 1
3 123 1
3 132 1
3 187 1
3 205 1
3 237 1
4 4 1
4 38 1
4 70 1
4 124 1
4 131 1
4 132 1
4 188 1
4 206 1
4 238 1
5 5 1
5 39 1
5 71 1
5 125 1
5 134 1
5 189 1
5 207 1
5 239 1
6 6 1
6 40 1
6 72 1
6 126 1
6 133 1
6 134 1
6 190 1
6 208 1
6 240 1
7 7 1
7 41 1
7 73 1
7 127 1
7 136 1
7 191 1
7 209 1
7 241 1
8 8 1
8 42 1
8 74 1
8 128 1
8 135 1
8 136 1
8 192 1
8 210 1
8 242 1
9 9 1
9 43 1
9 75 1
9 97 1
9 138 1
9 161 1
9 211 1
9 243 1
10 10 1
10 44 1
10 76 1
10 98 1
10 137 1
10 138 1
10 162 1
10 212 1
10 244 1
11 11 1
11 45 1
11 77 1
11 99 1
11 140 1
11 163 1
11 213 1
11 245 1
12 12 1
12 46 1
12 78 1
12 100 1
12 139 1
12 140 1
12 164 1
12 214 1
12 246 1
13 13 1
13 47 1
13 79 1
13 101 1
13 142 1
13 165 1
13 215 1
13 247 1
14 14 1
14 48 1
14 80 1
14 102 1
14 141 1
14 142 1
14 166 1
14 216 1
14 248 1
15 15 1
15 49 1
15 81 1
15 103 1
15 144 1
15 167 1
15 217 1
15 249 1
16 16 1
16 50 1
16 82 1
16 104 1
16 143 1
16 144 1
16 168 1
16 218 1
16 250 1
17 17 1
17 51 1
17 83 1
17 105 1
17 146 1
17 169 1
17 219 1
17 251 1
18 18 1
18 52 1
18 84 1
18 106 1
18 145 1
18 146 1
18 170 1
18 220 1
18 252 1
19 19 1
19 53 1
19 85 1
19 107 1
19 148 1
19 171 1
19 221 1
19 253 1
20 20 1
20 54 1
20 86 1
20 108 1
20 147 1
20 148 1
20 172 1
20 222 1
20 254 1
21 21 1
21 55 1
21 87 1
21 109 1
21 150 1
21 173 1
21 223 1
21 255 1
22 22 1
22 56 1
22 88 1
22 110 1
22 149 1
22 150 1
22 174 1
22 224 1
22 256 1
23 23 1
23 57 1
23 89 1
23 111 1
23 152 1
23 175 1
23 193 1
23 225 1
24 24 1
24 58 1
24 90 1
24 112 1
24 151 1
24 152 1
24 176 1
24 194 1
24 226 1
25 25 1
25 59 1
25 91 1
25 113 1
25 154 1
25 177 1
25 195 1
25 227 1
26 26 1
26 60 1
26 92 1
26 114 1
26 153 1
26 154 1
26 178 1
26 196 1
26 228 1
27 27 1
27 61 1
27 93 1
27 115 1
27 156 1
27 179 1
27 197 1
27 229 1
28 28 1
28 62 1
28 94 1
28 116 1
28 155 1
28 156 1
28 180 1
28 198 1
28 230 1
29 29 1
29 63 1
29 95 1
29 117 1
29 158 1
29 181 1
29 199 1
29 231 1
30 30 1
30 64 1
30 96 1
30 118 1
30 157 1
30 158 1
30 182 1
30 200 1
30 232 1
31 31 1
31 33 1
31 65 1
31 119 1
31 160 1
31 183 1
31 201 1
31 233 1
32 32 1
32 34 1
32 66 1
32 120 1
32 159 1
32 160 1
32 184 1
32 202 1
32 234 1
33 1 1
33 39 1
33 87 1
33 103 1
33 157 1
33 162 1
33 221 1
33 247 1
34 2 1
34 40 1
34 88 1
34 104 1
34 158 1
34 161 1
34 162 1
34 222 1
34 248 1
35 3 1
35 41 1
35 89 1
35 105 1
35 159 1
35 164 1
35 223 1
35 249 1
36 4 1
36 42 1
36 90 1
36 106 1
36 160 1
36 163 1
36 164 1
36 224 1
36 250 1
37 5 1
37 43 1
37 91 1
37 107 1
37 129 1
37 166 1
37 193 1
37 251 1
38 6 1
38 44 1
38 92 1
38 108 1
38 130 1
38 165 1
38 166 1
38 194 1
38 252 1
39 7 1
39 45 1
39 93 1
39 109 1
39 131 1
39 168 1
39 195 1
39 253 1
40 8 1
40 46 1
40 94 1
40 110 1
40 132 1
40 167 1
40 168 1
40 196 1
40 254 1
41 9 1
41 47 1
41 95 1
41 111 1
41 133 1
41 170 1
41 197 1
41 255 1
42 10 1
42 48 1
42 96 1
42 112 1
42 134 1
42 169 1
42 170 1
42 198 1
42 256 1
43 11 1
43 49 1
43 65 1
43 113 1
43 135 1
43 172 1
43 199 1
43 225 1
44 12 1
44 50 1
44 66 1
44 114 1
44 136 1
44 171 1
44 172 1
44 200 1
44 226 1
45 13 1
45 51 1
45 67 1
45 115 1
45 137 1
45 174 1
45 201 1
45 227 1
46 14 1
46 52 1
46 68 1
46 116 1
46 138 1
46 173 1
46 174 1
46 202 1
46 228 1
47 15 1
47 53 1
47 69 1
47 117 1
47 139 1
47 176 1
47 203 1
47 229 1
48 16 1
48 54 1
48 70 1
48 118 1
48 140 1
48 175 1
48 176 1
48 204 1
48 230 1
49 17 1
49 55 1
49 71 1
49 119 1
49 141 1
49 178 1
49 205 1
49 231 1
50 18 1
50 56 1
50 72 1
50 120 1
50 142 1
50 177 1
50 178 1
50 206 1
50 232 1
51 19 1
51 57 1
51 73 1
51 121 1
51 143 1
51 180 1
51 207 1
51 233 1
52 20 1
52 58 1
52 74 1
52 122 1
52 144 1
52 179 1
52 180 1
52 208 1
52 234 1
53 21 1
53 59 1
53 75 1
53 123 1
53 145 1
53 182 1
53 209 1
53 235 1
54 22 1
54 60 1
54 76 1
54 124 1
54 146 1
54 181 1
54 182 1
54 210 1
54 236 1
55 23 1
55 61 1
55 77 1
55 125 1
55 147 1
55 184 1
55 211 1
55 237 1
56 24 1
56 62 1
56 78 1
56 126 1
56 148 1
56 183 1
56 184 1
56 212 1
56 238 1
57 25 1
57 63 1
57 79 1
57 127 1
57 149 1
57 186 1
57 213 1
57 239 1
58 26 1
58 64 1
58 80 1
58 128 1
58 150 1
58 185 1
58 186 1
58 214 1
58 240 1
59 27 1
59 33 1
59 81 1
59 97 1
59 151 1
59 188 1
59 215 1
59 241 1
60 28 1
60 34 1
60 82 1
60 98 1
60 152 1
60 187 1
60 188 1
60 216 1
60 242 1
61 29 1
61 35 1
61 83 1
61 99 1
61 153 1
61 190 1
61 217 1
61 243 1
62 30 1
62 36 1
62 84 1
62 100 1
62 154 1
62 189 1
62 190 1
62 218 1
62 244 1
63 31 1
63 37 1
63 85 1
63 101 1
63 155 1
63 192 1
63 219 1
63 245 1
64 32 1
64 38 1
64 86 1
64 102 1
64 156 1
64 191 1
64 192 1
64 220 1
64 246 1
65 1 1
65 53 1
65 81 1
65 115 1
65 149 1
65 177 1
65 194 1
65 243 1
66 2 1
66 54 1
66 82 1
66 116 1
66 150 1
66 178 1
66 193 1
66 194 1
66 244 1
67 3 1
67 55 1
67 83 1
67 117 1
67 151 1
67 179 1
67 196 1
67 245 1
68 4 1
68 56 1
68 84 1
68 118 1
68 152 1
68 180 1
68 195 1
68 196 1
68 246 1
69 5 1
69 57 1
69 85 1
69 119 1
69 153 1
69 181 1
69 198 1
69 247 1
70 6 1
70 58 1
70 86 1
70 120 1
70 154 1
70 182 1
70 197 1
70 198 1
70 248 1
71 7 1
71 59 1
71 87 1
71 121 1
71 155 1
71 183 1
71 200 1
71 249 1
72 8 1
72 60 1
72 88 1
72 122 1
72 156 1
72 184 1
72 199 1
72 200 1
72 250 1
73 9 1
73 61 1
73 89 1
73 123 1
73 157 1
73 185 1
73 202 1
73 251 1
74 10 1
74 62 1
74 90 1
74 124 1
74 158 1
74 186 1
74 201 1
74 202 1
74 252 1
75 11 1
75 63 1
75 91 1
75 125 1
75 159 1
75 187 1
75 204 1
75 253 1
76 12 1
76 64 1
76 92 1
76 126 1
76 160 1
76 188 1
76 203 1
76 204 1
76 254 1
77 13 1
77 33 1
77 93 1
77 127 1
77 129 1
77 189 1
77 206 1
77 255 1
78 14 1
78 34 1
78 94 1
78 128 1
78 130 1
78 190 1
78 205 1
78 206 1
78 256 1
79 15 1
79 35 1
79 95 1
79 97 1
79 131 1
79 191 1
79 208 1
79 225 1
80 16 1
80 36 1
80 96 1
80 98 1
80 132 1
80 192 1
80 207 1
80 208 1
80 226 1
81 17 1
81 37 1
81 65 1
81 99 1
81 133 1
81 161 1
81 210 1
81 227 1
82 18 1
82 38 1
82 66 1
82 100 1
82 134 1
82 162 1
82 209 1
82 210 1
82 228 1
83 19 1
83 39 1
83 67 1
83 101 1
83 135 1
83 163 1
83 212 1
83 229 1
84 20 1
84 40 1
84 68 1
84 102 1
84 136 1
84 164 1
84 211 1
84 212 1
84 230 1
85 21 1
85 41 1
85 69 1
85 103 1
85 137 1
85 165 1
85 214 1
85 231 1
86 22 1
86 42 1
86 70 1
86 104 1
86 138 1
86 166 1
86 213 1
86 214 1
86 232 1
87 23 1
87 43 1
87 71 1
87 105 1
87 139 1
87 167 1
87 216 1
87 233 1
88 24 1
88 44 1
88 72 1
88 106 1
88 140 1
88 168 1
88 215 1
88 216 1
88 234 1
89 25 1
89 45 1
89 73 1
89 107 1
89 141 1
89 169 1
89 218 1
89 235 1
90 26 1
90 46 1
90 74 1
90 108 1
90 142 1
90 170 1
90 217 1
90 218 1
90 236 1
91 27 1
91 47 1
91 75 1
91 109 1
91 143 1
91 171 1
91 220 1
91 237 1
92 28 1
92 48 1
92 76 1
92 110 1
92 144 1
92 172 1
92 219 1
92 220 1
92 238 1
93 29 1
93 49 1
93 77 1
93 111 1
93 145 1
93 173 1
93 222 1
93 239 1
94 30 1
94 50 1
94 78 1
94 112 1
94 146 1
94 174 1
94 221 1
94 222 1
94 240 1
95 31 1
95 51 1
95 79 1
95 113 1
95 147 1
95 175 1
95 224 1
95 241 1
96 32 1
96 52 1
96 80 1
96 114 1
96 148 1
96 176 1
96 223 1
96 224 1
96 242 1
