%%MatrixMarket matrix coordinate integer general
% GF(4) labels 0,1,2=omega,3=omega+1; arithmetic is NOT integer arithmetic.
% Coordinate indices are 1-based; omitted entries are zero.
48 128 384
1 1 1
1 18 1
1 34 1
1 61 1
1 65 2
1 93 1
1 102 1
1 118 1
2 2 1
2 19 1
2 35 1
2 62 1
2 66 2
2 94 1
2 103 1
2 119 1
3 3 1
3 20 1
3 36 1
3 63 1
3 67 2
3 95 1
3 104 1
3 120 1
4 4 1
4 21 1
4 37 1
4 64 1
4 68 2
4 96 1
4 105 1
4 121 1
5 5 1
5 22 1
5 38 1
5 49 1
5 69 2
5 81 1
5 106 1
5 122 1
6 6 1
6 23 1
6 39 1
6 50 1
6 70 2
6 82 1
6 107 1
6 123 1
7 7 1
7 24 1
7 40 1
7 51 1
7 71 2
7 83 1
7 108 1
7 124 1
8 8 1
8 25 1
8 41 1
8 52 1
8 72 2
8 84 1
8 109 1
8 125 1
9 9 1
9 26 1
9 42 1
9 53 1
9 73 2
9 85 1
9 110 1
9 126 1
10 10 1
10 27 1
10 43 1
10 54 1
10 74 2
10 86 1
10 111 1
10 127 1
11 11 1
11 28 1
11 44 1
11 55 1
11 75 2
11 87 1
11 112 1
11 128 1
12 12 1
12 29 1
12 45 1
12 56 1
12 76 2
12 88 1
12 97 1
12 113 1
13 13 1
13 30 1
13 46 1
13 57 1
13 77 2
13 89 1
13 98 1
13 114 1
14 14 1
14 31 1
14 47 1
14 58 1
14 78 2
14 90 1
14 99 1
14 115 1
15 15 1
15 32 1
15 48 1
15 59 1
15 79 2
15 91 1
15 100 1
15 116 1
16 16 1
16 17 1
16 33 1
16 60 1
16 80 2
16 92 1
16 101 1
16 117 1
17 1 1
17 20 1
17 44 1
17 52 1
17 79 1
17 81 2
17 111 1
17 124 1
18 2 1
18 21 1
18 45 1
18 53 1
18 80 1
18 82 2
18 112 1
18 125 1
19 3 1
19 22 1
19 46 1
19 54 1
19 65 1
19 83 2
19 97 1
19 126 1
20 4 1
20 23 1
20 47 1
20 55 1
20 66 1
20 84 2
20 98 1
20 127 1
21 5 1
21 24 1
21 48 1
21 56 1
21 67 1
21 85 2
21 99 1
21 128 1
22 6 1
22 25 1
22 33 1
22 57 1
22 68 1
22 86 2
22 100 1
22 113 1
23 7 1
23 26 1
23 34 1
23 58 1
23 69 1
23 87 2
23 101 1
23 114 1
24 8 1
24 27 1
24 35 1
24 59 1
24 70 1
24 88 2
24 102 1
24 115 1
25 9 1
25 28 1
25 36 1
25 60 1
25 71 1
25 89 2
25 103 1
25 116 1
26 10 1
26 29 1
26 37 1
26 61 1
26 72 1
26 90 2
26 104 1
26 117 1
27 11 1
27 30 1
27 38 1
27 62 1
27 73 1
27 91 2
27 105 1
27 118 1
28 12 1
28 31 1
28 39 1
28 63 1
28 74 1
28 92 2
28 106 1
28 119 1
29 13 1
29 32 1
29 40 1
29 64 1
29 75 1
29 93 2
29 107 1
29 120 1
30 14 1
30 17 1
30 41 1
30 49 1
30 76 1
30 94 2
30 108 1
30 121 1
31 15 1
31 18 1
31 42 1
31 50 1
31 77 1
31 95 2
31 109 1
31 122 1
32 16 1
32 19 1
32 43 1
32 51 1
32 78 1
32 96 2
32 110 1
32 123 1
33 1 1
33 27 1
33 41 1
33 58 1
33 75 1
33 89 1
33 97 2
33 122 1
34 2 1
34 28 1
34 42 1
34 59 1
34 76 1
34 90 1
34 98 2
34 123 1
35 3 1
35 29 1
35 43 1
35 60 1
35 77 1
35 91 1
35 99 2
35 124 1
36 4 1
36 30 1
36 44 1
36 61 1
36 78 1
36 92 1
36 100 2
36 125 1
37 5 1
37 31 1
37 45 1
37 62 1
37 79 1
37 93 1
37 101 2
37 126 1
38 6 1
38 32 1
38 46 1
38 63 1
38 80 1
38 94 1
38 102 2
38 127 1
39 7 1
39 17 1
39 47 1
39 64 1
39 65 1
39 95 1
39 103 2
39 128 1
40 8 1
40 18 1
40 48 1
40 49 1
40 66 1
40 96 1
40 104 2
40 113 1
41 9 1
41 19 1
41 33 1
41 50 1
41 67 1
41 81 1
41 105 2
41 114 1
42 10 1
42 20 1
42 34 1
42 51 1
42 68 1
42 82 1
42 106 2
42 115 1
43 11 1
43 21 1
43 35 1
43 52 1
43 69 1
43 83 1
43 107 2
43 116 1
44 12 1
44 22 1
44 36 1
44 53 1
44 70 1
44 84 1
44 108 2
44 117 1
45 13 1
45 23 1
45 37 1
45 54 1
45 71 1
45 85 1
45 109 2
45 118 1
46 14 1
46 24 1
46 38 1
46 55 1
46 72 1
46 86 1
46 110 2
46 119 1
47 15 1
47 25 1
47 39 1
47 56 1
47 73 1
47 87 1
47 111 2
47 120 1
48 16 1
48 26 1
48 40 1
48 57 1
48 74 1
48 88 1
48 112 2
48 121 1
