%%MatrixMarket matrix coordinate integer general
% Binary matrix over GF(2).
% Coordinate indices are 1-based; omitted entries are zero.
64 256 1664
1 12 1
1 16 1
1 22 1
1 27 1
1 29 1
1 97 1
1 98 1
1 109 1
1 110 1
1 114 1
1 131 1
1 138 1
1 139 1
1 144 1
1 151 1
1 153 1
1 167 1
1 173 1
1 176 1
1 179 1
1 181 1
1 188 1
2 14 1
2 18 1
2 24 1
2 29 1
2 31 1
2 99 1
2 100 1
2 111 1
2 112 1
2 116 1
2 133 1
2 140 1
2 141 1
2 146 1
2 153 1
2 155 1
2 169 1
2 175 1
2 178 1
2 181 1
2 183 1
2 190 1
3 1 1
3 16 1
3 20 1
3 26 1
3 31 1
3 101 1
3 102 1
3 113 1
3 114 1
3 118 1
3 135 1
3 142 1
3 143 1
3 148 1
3 155 1
3 157 1
3 171 1
3 177 1
3 180 1
3 183 1
3 185 1
3 192 1
4 1 1
4 3 1
4 18 1
4 22 1
4 28 1
4 103 1
4 104 1
4 115 1
4 116 1
4 120 1
4 137 1
4 144 1
4 145 1
4 150 1
4 157 1
4 159 1
4 162 1
4 173 1
4 179 1
4 182 1
4 185 1
4 187 1
5 3 1
5 5 1
5 20 1
5 24 1
5 30 1
5 105 1
5 106 1
5 117 1
5 118 1
5 122 1
5 129 1
5 139 1
5 146 1
5 147 1
5 152 1
5 159 1
5 164 1
5 175 1
5 181 1
5 184 1
5 187 1
5 189 1
6 5 1
6 7 1
6 22 1
6 26 1
6 32 1
6 107 1
6 108 1
6 119 1
6 120 1
6 124 1
6 129 1
6 131 1
6 141 1
6 148 1
6 149 1
6 154 1
6 166 1
6 177 1
6 183 1
6 186 1
6 189 1
6 191 1
7 2 1
7 7 1
7 9 1
7 24 1
7 28 1
7 109 1
7 110 1
7 121 1
7 122 1
7 126 1
7 131 1
7 133 1
7 143 1
7 150 1
7 151 1
7 156 1
7 161 1
7 168 1
7 179 1
7 185 1
7 188 1
7 191 1
8 4 1
8 9 1
8 11 1
8 26 1
8 30 1
8 111 1
8 112 1
8 123 1
8 124 1
8 128 1
8 133 1
8 135 1
8 145 1
8 152 1
8 153 1
8 158 1
8 161 1
8 163 1
8 170 1
8 181 1
8 187 1
8 190 1
9 6 1
9 11 1
9 13 1
9 28 1
9 32 1
9 98 1
9 113 1
9 114 1
9 125 1
9 126 1
9 135 1
9 137 1
9 147 1
9 154 1
9 155 1
9 160 1
9 163 1
9 165 1
9 172 1
9 183 1
9 189 1
9 192 1
10 2 1
10 8 1
10 13 1
10 15 1
10 30 1
10 100 1
10 115 1
10 116 1
10 127 1
10 128 1
10 130 1
10 137 1
10 139 1
10 149 1
10 156 1
10 157 1
10 162 1
10 165 1
10 167 1
10 174 1
10 185 1
10 191 1
11 4 1
11 10 1
11 15 1
11 17 1
11 32 1
11 97 1
11 98 1
11 102 1
11 117 1
11 118 1
11 132 1
11 139 1
11 141 1
11 151 1
11 158 1
11 159 1
11 161 1
11 164 1
11 167 1
11 169 1
11 176 1
11 187 1
12 2 1
12 6 1
12 12 1
12 17 1
12 19 1
12 99 1
12 100 1
12 104 1
12 119 1
12 120 1
12 129 1
12 134 1
12 141 1
12 143 1
12 153 1
12 160 1
12 163 1
12 166 1
12 169 1
12 171 1
12 178 1
12 189 1
13 4 1
13 8 1
13 14 1
13 19 1
13 21 1
13 101 1
13 102 1
13 106 1
13 121 1
13 122 1
13 130 1
13 131 1
13 136 1
13 143 1
13 145 1
13 155 1
13 165 1
13 168 1
13 171 1
13 173 1
13 180 1
13 191 1
14 6 1
14 10 1
14 16 1
14 21 1
14 23 1
14 103 1
14 104 1
14 108 1
14 123 1
14 124 1
14 132 1
14 133 1
14 138 1
14 145 1
14 147 1
14 157 1
14 161 1
14 167 1
14 170 1
14 173 1
14 175 1
14 182 1
15 8 1
15 12 1
15 18 1
15 23 1
15 25 1
15 105 1
15 106 1
15 110 1
15 125 1
15 126 1
15 134 1
15 135 1
15 140 1
15 147 1
15 149 1
15 159 1
15 163 1
15 169 1
15 172 1
15 175 1
15 177 1
15 184 1
16 10 1
16 14 1
16 20 1
16 25 1
16 27 1
16 107 1
16 108 1
16 112 1
16 127 1
16 128 1
16 129 1
16 136 1
16 137 1
16 142 1
16 149 1
16 151 1
16 165 1
16 171 1
16 174 1
16 177 1
16 179 1
16 186 1
17 11 1
17 12 1
17 15 1
17 16 1
17 21 1
17 22 1
17 28 1
17 30 1
17 97 1
17 109 1
17 113 1
17 114 1
17 132 1
17 137 1
17 138 1
17 140 1
17 143 1
17 144 1
17 152 1
17 154 1
17 168 1
17 174 1
17 175 1
17 176 1
17 180 1
17 182 1
17 187 1
17 188 1
18 13 1
18 14 1
18 17 1
18 18 1
18 23 1
18 24 1
18 30 1
18 32 1
18 99 1
18 111 1
18 115 1
18 116 1
18 134 1
18 139 1
18 140 1
18 142 1
18 145 1
18 146 1
18 154 1
18 156 1
18 170 1
18 176 1
18 177 1
18 178 1
18 182 1
18 184 1
18 189 1
18 190 1
19 2 1
19 15 1
19 16 1
19 19 1
19 20 1
19 25 1
19 26 1
19 32 1
19 101 1
19 113 1
19 117 1
19 118 1
19 136 1
19 141 1
19 142 1
19 144 1
19 147 1
19 148 1
19 156 1
19 158 1
19 172 1
19 178 1
19 179 1
19 180 1
19 184 1
19 186 1
19 191 1
19 192 1
20 2 1
20 4 1
20 17 1
20 18 1
20 21 1
20 22 1
20 27 1
20 28 1
20 103 1
20 115 1
20 119 1
20 120 1
20 138 1
20 143 1
20 144 1
20 146 1
20 149 1
20 150 1
20 158 1
20 160 1
20 161 1
20 162 1
20 174 1
20 180 1
20 181 1
20 182 1
20 186 1
20 188 1
21 4 1
21 6 1
21 19 1
21 20 1
21 23 1
21 24 1
21 29 1
21 30 1
21 105 1
21 117 1
21 121 1
21 122 1
21 130 1
21 140 1
21 145 1
21 146 1
21 148 1
21 151 1
21 152 1
21 160 1
21 163 1
21 164 1
21 176 1
21 182 1
21 183 1
21 184 1
21 188 1
21 190 1
22 6 1
22 8 1
22 21 1
22 22 1
22 25 1
22 26 1
22 31 1
22 32 1
22 107 1
22 119 1
22 123 1
22 124 1
22 130 1
22 132 1
22 142 1
22 147 1
22 148 1
22 150 1
22 153 1
22 154 1
22 165 1
22 166 1
22 178 1
22 184 1
22 185 1
22 186 1
22 190 1
22 192 1
23 1 1
23 2 1
23 8 1
23 10 1
23 23 1
23 24 1
23 27 1
23 28 1
23 109 1
23 121 1
23 125 1
23 126 1
23 132 1
23 134 1
23 144 1
23 149 1
23 150 1
23 152 1
23 155 1
23 156 1
23 162 1
23 167 1
23 168 1
23 180 1
23 186 1
23 187 1
23 188 1
23 192 1
24 3 1
24 4 1
24 10 1
24 12 1
24 25 1
24 26 1
24 29 1
24 30 1
24 111 1
24 123 1
24 127 1
24 128 1
24 134 1
24 136 1
24 146 1
24 151 1
24 152 1
24 154 1
24 157 1
24 158 1
24 162 1
24 164 1
24 169 1
24 170 1
24 182 1
24 188 1
24 189 1
24 190 1
25 5 1
25 6 1
25 12 1
25 14 1
25 27 1
25 28 1
25 31 1
25 32 1
25 97 1
25 98 1
25 113 1
25 125 1
25 136 1
25 138 1
25 148 1
25 153 1
25 154 1
25 156 1
25 159 1
25 160 1
25 164 1
25 166 1
25 171 1
25 172 1
25 184 1
25 190 1
25 191 1
25 192 1
26 1 1
26 2 1
26 7 1
26 8 1
26 14 1
26 16 1
26 29 1
26 30 1
26 99 1
26 100 1
26 115 1
26 127 1
26 129 1
26 130 1
26 138 1
26 140 1
26 150 1
26 155 1
26 156 1
26 158 1
26 161 1
26 162 1
26 166 1
26 168 1
26 173 1
26 174 1
26 186 1
26 192 1
27 3 1
27 4 1
27 9 1
27 10 1
27 16 1
27 18 1
27 31 1
27 32 1
27 97 1
27 101 1
27 102 1
27 117 1
27 131 1
27 132 1
27 140 1
27 142 1
27 152 1
27 157 1
27 158 1
27 160 1
27 162 1
27 163 1
27 164 1
27 168 1
27 170 1
27 175 1
27 176 1
27 188 1
28 1 1
28 2 1
28 5 1
28 6 1
28 11 1
28 12 1
28 18 1
28 20 1
28 99 1
28 103 1
28 104 1
28 119 1
28 130 1
28 133 1
28 134 1
28 142 1
28 144 1
28 154 1
28 159 1
28 160 1
28 164 1
28 165 1
28 166 1
28 170 1
28 172 1
28 177 1
28 178 1
28 190 1
29 3 1
29 4 1
29 7 1
29 8 1
29 13 1
29 14 1
29 20 1
29 22 1
29 101 1
29 105 1
29 106 1
29 121 1
29 129 1
29 130 1
29 132 1
29 135 1
29 136 1
29 144 1
29 146 1
29 156 1
29 166 1
29 167 1
29 168 1
29 172 1
29 174 1
29 179 1
29 180 1
29 192 1
30 5 1
30 6 1
30 9 1
30 10 1
30 15 1
30 16 1
30 22 1
30 24 1
30 103 1
30 107 1
30 108 1
30 123 1
30 131 1
30 132 1
30 134 1
30 137 1
30 138 1
30 146 1
30 148 1
30 158 1
30 162 1
30 168 1
30 169 1
30 170 1
30 174 1
30 176 1
30 181 1
30 182 1
31 7 1
31 8 1
31 11 1
31 12 1
31 17 1
31 18 1
31 24 1
31 26 1
31 105 1
31 109 1
31 110 1
31 125 1
31 133 1
31 134 1
31 136 1
31 139 1
31 140 1
31 148 1
31 150 1
31 160 1
31 164 1
31 170 1
31 171 1
31 172 1
31 176 1
31 178 1
31 183 1
31 184 1
32 9 1
32 10 1
32 13 1
32 14 1
32 19 1
32 20 1
32 26 1
32 28 1
32 107 1
32 111 1
32 112 1
32 127 1
32 130 1
32 135 1
32 136 1
32 138 1
32 141 1
32 142 1
32 150 1
32 152 1
32 166 1
32 172 1
32 173 1
32 174 1
32 178 1
32 180 1
32 185 1
32 186 1
33 2 1
33 10 1
33 14 1
33 17 1
33 21 1
33 25 1
33 130 1
33 133 1
33 134 1
33 137 1
33 141 1
33 142 1
33 153 1
33 154 1
33 161 1
33 162 1
33 169 1
33 170 1
33 173 1
33 177 1
33 227 1
33 235 1
33 239 1
33 243 1
33 244 1
33 247 1
33 248 1
33 252 1
34 4 1
34 12 1
34 16 1
34 19 1
34 23 1
34 27 1
34 132 1
34 135 1
34 136 1
34 139 1
34 143 1
34 144 1
34 155 1
34 156 1
34 163 1
34 164 1
34 171 1
34 172 1
34 175 1
34 179 1
34 229 1
34 237 1
34 241 1
34 245 1
34 246 1
34 249 1
34 250 1
34 254 1
35 6 1
35 14 1
35 18 1
35 21 1
35 25 1
35 29 1
35 134 1
35 137 1
35 138 1
35 141 1
35 145 1
35 146 1
35 157 1
35 158 1
35 165 1
35 166 1
35 173 1
35 174 1
35 177 1
35 181 1
35 231 1
35 239 1
35 243 1
35 247 1
35 248 1
35 251 1
35 252 1
35 256 1
36 8 1
36 16 1
36 20 1
36 23 1
36 27 1
36 31 1
36 136 1
36 139 1
36 140 1
36 143 1
36 147 1
36 148 1
36 159 1
36 160 1
36 167 1
36 168 1
36 175 1
36 176 1
36 179 1
36 183 1
36 226 1
36 233 1
36 241 1
36 245 1
36 249 1
36 250 1
36 253 1
36 254 1
37 1 1
37 10 1
37 18 1
37 22 1
37 25 1
37 29 1
37 129 1
37 130 1
37 138 1
37 141 1
37 142 1
37 145 1
37 149 1
37 150 1
37 169 1
37 170 1
37 177 1
37 178 1
37 181 1
37 185 1
37 228 1
37 235 1
37 243 1
37 247 1
37 251 1
37 252 1
37 255 1
37 256 1
38 3 1
38 12 1
38 20 1
38 24 1
38 27 1
38 31 1
38 131 1
38 132 1
38 140 1
38 143 1
38 144 1
38 147 1
38 151 1
38 152 1
38 171 1
38 172 1
38 179 1
38 180 1
38 183 1
38 187 1
38 225 1
38 226 1
38 230 1
38 237 1
38 245 1
38 249 1
38 253 1
38 254 1
39 1 1
39 5 1
39 14 1
39 22 1
39 26 1
39 29 1
39 133 1
39 134 1
39 142 1
39 145 1
39 146 1
39 149 1
39 153 1
39 154 1
39 173 1
39 174 1
39 181 1
39 182 1
39 185 1
39 189 1
39 227 1
39 228 1
39 232 1
39 239 1
39 247 1
39 251 1
39 255 1
39 256 1
40 3 1
40 7 1
40 16 1
40 24 1
40 28 1
40 31 1
40 135 1
40 136 1
40 144 1
40 147 1
40 148 1
40 151 1
40 155 1
40 156 1
40 175 1
40 176 1
40 183 1
40 184 1
40 187 1
40 191 1
40 225 1
40 226 1
40 229 1
40 230 1
40 234 1
40 241 1
40 249 1
40 253 1
41 1 1
41 5 1
41 9 1
41 18 1
41 26 1
41 30 1
41 137 1
41 138 1
41 146 1
41 149 1
41 150 1
41 153 1
41 157 1
41 158 1
41 161 1
41 177 1
41 178 1
41 185 1
41 186 1
41 189 1
41 227 1
41 228 1
41 231 1
41 232 1
41 236 1
41 243 1
41 251 1
41 255 1
42 3 1
42 7 1
42 11 1
42 20 1
42 28 1
42 32 1
42 139 1
42 140 1
42 148 1
42 151 1
42 152 1
42 155 1
42 159 1
42 160 1
42 163 1
42 179 1
42 180 1
42 187 1
42 188 1
42 191 1
42 225 1
42 229 1
42 230 1
42 233 1
42 234 1
42 238 1
42 245 1
42 253 1
43 2 1
43 5 1
43 9 1
43 13 1
43 22 1
43 30 1
43 129 1
43 130 1
43 141 1
43 142 1
43 150 1
43 153 1
43 154 1
43 157 1
43 161 1
43 165 1
43 181 1
43 182 1
43 189 1
43 190 1
43 227 1
43 231 1
43 232 1
43 235 1
43 236 1
43 240 1
43 247 1
43 255 1
44 4 1
44 7 1
44 11 1
44 15 1
44 24 1
44 32 1
44 131 1
44 132 1
44 143 1
44 144 1
44 152 1
44 155 1
44 156 1
44 159 1
44 163 1
44 167 1
44 183 1
44 184 1
44 191 1
44 192 1
44 225 1
44 229 1
44 233 1
44 234 1
44 237 1
44 238 1
44 242 1
44 249 1
45 2 1
45 6 1
45 9 1
45 13 1
45 17 1
45 26 1
45 129 1
45 133 1
45 134 1
45 145 1
45 146 1
45 154 1
45 157 1
45 158 1
45 161 1
45 162 1
45 165 1
45 169 1
45 185 1
45 186 1
45 227 1
45 231 1
45 235 1
45 236 1
45 239 1
45 240 1
45 244 1
45 251 1
46 4 1
46 8 1
46 11 1
46 15 1
46 19 1
46 28 1
46 131 1
46 135 1
46 136 1
46 147 1
46 148 1
46 156 1
46 159 1
46 160 1
46 163 1
46 164 1
46 167 1
46 171 1
46 187 1
46 188 1
46 229 1
46 233 1
46 237 1
46 238 1
46 241 1
46 242 1
46 246 1
46 253 1
47 6 1
47 10 1
47 13 1
47 17 1
47 21 1
47 30 1
47 129 1
47 130 1
47 133 1
47 137 1
47 138 1
47 149 1
47 150 1
47 158 1
47 165 1
47 166 1
47 169 1
47 173 1
47 189 1
47 190 1
47 231 1
47 235 1
47 239 1
47 240 1
47 243 1
47 244 1
47 248 1
47 255 1
48 8 1
48 12 1
48 15 1
48 19 1
48 23 1
48 32 1
48 131 1
48 132 1
48 135 1
48 139 1
48 140 1
48 151 1
48 152 1
48 160 1
48 167 1
48 168 1
48 171 1
48 175 1
48 191 1
48 192 1
48 225 1
48 233 1
48 237 1
48 241 1
48 242 1
48 245 1
48 246 1
48 250 1
49 1 1
49 2 1
49 9 1
49 10 1
49 13 1
49 14 1
49 18 1
49 22 1
49 26 1
49 129 1
49 130 1
49 133 1
49 138 1
49 141 1
49 153 1
49 161 1
49 169 1
49 174 1
49 178 1
49 228 1
49 236 1
49 240 1
49 243 1
49 247 1
49 251 1
49 252 1
50 3 1
50 4 1
50 11 1
50 12 1
50 15 1
50 16 1
50 20 1
50 24 1
50 28 1
50 131 1
50 132 1
50 135 1
50 140 1
50 143 1
50 155 1
50 163 1
50 171 1
50 176 1
50 180 1
50 230 1
50 238 1
50 242 1
50 245 1
50 249 1
50 253 1
50 254 1
51 5 1
51 6 1
51 13 1
51 14 1
51 17 1
51 18 1
51 22 1
51 26 1
51 30 1
51 133 1
51 134 1
51 137 1
51 142 1
51 145 1
51 157 1
51 165 1
51 173 1
51 178 1
51 182 1
51 232 1
51 240 1
51 244 1
51 247 1
51 251 1
51 255 1
51 256 1
52 7 1
52 8 1
52 15 1
52 16 1
52 19 1
52 20 1
52 24 1
52 28 1
52 32 1
52 135 1
52 136 1
52 139 1
52 144 1
52 147 1
52 159 1
52 167 1
52 175 1
52 180 1
52 184 1
52 225 1
52 226 1
52 234 1
52 242 1
52 246 1
52 249 1
52 253 1
53 2 1
53 9 1
53 10 1
53 17 1
53 18 1
53 21 1
53 22 1
53 26 1
53 30 1
53 129 1
53 137 1
53 138 1
53 141 1
53 146 1
53 149 1
53 169 1
53 177 1
53 182 1
53 186 1
53 227 1
53 228 1
53 236 1
53 244 1
53 248 1
53 251 1
53 255 1
54 4 1
54 11 1
54 12 1
54 19 1
54 20 1
54 23 1
54 24 1
54 28 1
54 32 1
54 131 1
54 139 1
54 140 1
54 143 1
54 148 1
54 151 1
54 171 1
54 179 1
54 184 1
54 188 1
54 225 1
54 229 1
54 230 1
54 238 1
54 246 1
54 250 1
54 253 1
55 2 1
55 6 1
55 13 1
55 14 1
55 21 1
55 22 1
55 25 1
55 26 1
55 30 1
55 133 1
55 141 1
55 142 1
55 145 1
55 150 1
55 153 1
55 173 1
55 181 1
55 186 1
55 190 1
55 227 1
55 231 1
55 232 1
55 240 1
55 248 1
55 252 1
55 255 1
56 4 1
56 8 1
56 15 1
56 16 1
56 23 1
56 24 1
56 27 1
56 28 1
56 32 1
56 135 1
56 143 1
56 144 1
56 147 1
56 152 1
56 155 1
56 175 1
56 183 1
56 188 1
56 192 1
56 225 1
56 229 1
56 233 1
56 234 1
56 242 1
56 250 1
56 254 1
57 2 1
57 6 1
57 10 1
57 17 1
57 18 1
57 25 1
57 26 1
57 29 1
57 30 1
57 137 1
57 145 1
57 146 1
57 149 1
57 154 1
57 157 1
57 162 1
57 177 1
57 185 1
57 190 1
57 227 1
57 231 1
57 235 1
57 236 1
57 244 1
57 252 1
57 256 1
58 4 1
58 8 1
58 12 1
58 19 1
58 20 1
58 27 1
58 28 1
58 31 1
58 32 1
58 139 1
58 147 1
58 148 1
58 151 1
58 156 1
58 159 1
58 164 1
58 179 1
58 187 1
58 192 1
58 226 1
58 229 1
58 233 1
58 237 1
58 238 1
58 246 1
58 254 1
59 1 1
59 2 1
59 6 1
59 10 1
59 14 1
59 21 1
59 22 1
59 29 1
59 30 1
59 129 1
59 141 1
59 149 1
59 150 1
59 153 1
59 158 1
59 162 1
59 166 1
59 181 1
59 189 1
59 228 1
59 231 1
59 235 1
59 239 1
59 240 1
59 248 1
59 256 1
60 3 1
60 4 1
60 8 1
60 12 1
60 16 1
60 23 1
60 24 1
60 31 1
60 32 1
60 131 1
60 143 1
60 151 1
60 152 1
60 155 1
60 160 1
60 164 1
60 168 1
60 183 1
60 191 1
60 226 1
60 230 1
60 233 1
60 237 1
60 241 1
60 242 1
60 250 1
61 1 1
61 2 1
61 5 1
61 6 1
61 10 1
61 14 1
61 18 1
61 25 1
61 26 1
61 130 1
61 133 1
61 145 1
61 153 1
61 154 1
61 157 1
61 161 1
61 166 1
61 170 1
61 185 1
61 228 1
61 232 1
61 235 1
61 239 1
61 243 1
61 244 1
61 252 1
62 3 1
62 4 1
62 7 1
62 8 1
62 12 1
62 16 1
62 20 1
62 27 1
62 28 1
62 132 1
62 135 1
62 147 1
62 155 1
62 156 1
62 159 1
62 163 1
62 168 1
62 172 1
62 187 1
62 230 1
62 234 1
62 237 1
62 241 1
62 245 1
62 246 1
62 254 1
63 5 1
63 6 1
63 9 1
63 10 1
63 14 1
63 18 1
63 22 1
63 29 1
63 30 1
63 129 1
63 134 1
63 137 1
63 149 1
63 157 1
63 158 1
63 165 1
63 170 1
63 174 1
63 189 1
63 232 1
63 236 1
63 239 1
63 243 1
63 247 1
63 248 1
63 256 1
64 7 1
64 8 1
64 11 1
64 12 1
64 16 1
64 20 1
64 24 1
64 31 1
64 32 1
64 131 1
64 136 1
64 139 1
64 151 1
64 159 1
64 160 1
64 167 1
64 172 1
64 176 1
64 191 1
64 226 1
64 234 1
64 238 1
64 241 1
64 245 1
64 249 1
64 250 1
