%%MatrixMarket matrix coordinate integer general
% GF(4) labels 0,1,2=omega,3=omega+1; arithmetic is NOT integer arithmetic.
% Coordinate indices are 1-based; omitted entries are zero.
32 128 656
1 6 2
1 8 2
1 11 2
1 14 1
1 15 1
1 49 3
1 55 3
1 57 2
1 66 1
1 69 2
1 70 1
1 72 2
1 76 1
1 77 1
1 84 1
1 87 1
1 88 2
1 90 1
1 91 1
1 94 2
2 7 2
2 9 2
2 12 2
2 15 1
2 16 1
2 50 3
2 56 3
2 58 2
2 67 1
2 70 2
2 71 1
2 73 2
2 77 1
2 78 1
2 85 1
2 88 1
2 89 2
2 91 1
2 92 1
2 95 2
3 1 1
3 8 2
3 10 2
3 13 2
3 16 1
3 51 3
3 57 3
3 59 2
3 68 1
3 71 2
3 72 1
3 74 2
3 78 1
3 79 1
3 86 1
3 89 1
3 90 2
3 92 1
3 93 1
3 96 2
4 1 1
4 2 1
4 9 2
4 11 2
4 14 2
4 52 3
4 58 3
4 60 2
4 69 1
4 72 2
4 73 1
4 75 2
4 79 1
4 80 1
4 81 2
4 87 1
4 90 1
4 91 2
4 93 1
4 94 1
5 2 1
5 3 1
5 10 2
5 12 2
5 15 2
5 53 3
5 59 3
5 61 2
5 65 1
5 70 1
5 73 2
5 74 1
5 76 2
5 80 1
5 82 2
5 88 1
5 91 1
5 92 2
5 94 1
5 95 1
6 3 1
6 4 1
6 11 2
6 13 2
6 16 2
6 54 3
6 60 3
6 62 2
6 65 1
6 66 1
6 71 1
6 74 2
6 75 1
6 77 2
6 83 2
6 89 1
6 92 1
6 93 2
6 95 1
6 96 1
7 1 2
7 4 1
7 5 1
7 12 2
7 14 2
7 55 3
7 61 3
7 63 2
7 66 1
7 67 1
7 72 1
7 75 2
7 76 1
7 78 2
7 81 1
7 84 2
7 90 1
7 93 1
7 94 2
7 96 1
8 2 2
8 5 1
8 6 1
8 13 2
8 15 2
8 56 3
8 62 3
8 64 2
8 67 1
8 68 1
8 73 1
8 76 2
8 77 1
8 79 2
8 81 1
8 82 1
8 85 2
8 91 1
8 94 1
8 95 2
9 3 2
9 6 1
9 7 1
9 14 2
9 16 2
9 49 2
9 57 3
9 63 3
9 68 1
9 69 1
9 74 1
9 77 2
9 78 1
9 80 2
9 82 1
9 83 1
9 86 2
9 92 1
9 95 1
9 96 2
10 1 2
10 4 2
10 7 1
10 8 1
10 15 2
10 50 2
10 58 3
10 64 3
10 65 2
10 69 1
10 70 1
10 75 1
10 78 2
10 79 1
10 81 2
10 83 1
10 84 1
10 87 2
10 93 1
10 96 1
11 2 2
11 5 2
11 8 1
11 9 1
11 16 2
11 49 3
11 51 2
11 59 3
11 66 2
11 70 1
11 71 1
11 76 1
11 79 2
11 80 1
11 81 1
11 82 2
11 84 1
11 85 1
11 88 2
11 94 1
12 1 2
12 3 2
12 6 2
12 9 1
12 10 1
12 50 3
12 52 2
12 60 3
12 65 1
12 67 2
12 71 1
12 72 1
12 77 1
12 80 2
12 82 1
12 83 2
12 85 1
12 86 1
12 89 2
12 95 1
13 2 2
13 4 2
13 7 2
13 10 1
13 11 1
13 51 3
13 53 2
13 61 3
13 65 2
13 66 1
13 68 2
13 72 1
13 73 1
13 78 1
13 83 1
13 84 2
13 86 1
13 87 1
13 90 2
13 96 1
14 3 2
14 5 2
14 8 2
14 11 1
14 12 1
14 52 3
14 54 2
14 62 3
14 66 2
14 67 1
14 69 2
14 73 1
14 74 1
14 79 1
14 81 1
14 84 1
14 85 2
14 87 1
14 88 1
14 91 2
15 4 2
15 6 2
15 9 2
15 12 1
15 13 1
15 53 3
15 55 2
15 63 3
15 67 2
15 68 1
15 70 2
15 74 1
15 75 1
15 80 1
15 82 1
15 85 1
15 86 2
15 88 1
15 89 1
15 92 2
16 5 2
16 7 2
16 10 2
16 13 1
16 14 1
16 54 3
16 56 2
16 64 3
16 65 1
16 68 2
16 69 1
16 71 2
16 75 1
16 76 1
16 83 1
16 86 1
16 87 2
16 89 1
16 90 1
16 93 2
17 1 2
17 5 2
17 7 2
17 9 1
17 11 1
17 13 1
17 65 2
17 67 3
17 69 1
17 71 3
17 77 3
17 81 3
17 85 3
17 87 1
17 89 1
17 114 1
17 118 1
17 120 1
17 122 3
17 124 3
17 126 2
18 2 2
18 6 2
18 8 2
18 10 1
18 12 1
18 14 1
18 66 2
18 68 3
18 70 1
18 72 3
18 78 3
18 82 3
18 86 3
18 88 1
18 90 1
18 115 1
18 119 1
18 121 1
18 123 3
18 125 3
18 127 2
19 3 2
19 7 2
19 9 2
19 11 1
19 13 1
19 15 1
19 67 2
19 69 3
19 71 1
19 73 3
19 79 3
19 83 3
19 87 3
19 89 1
19 91 1
19 116 1
19 120 1
19 122 1
19 124 3
19 126 3
19 128 2
20 4 2
20 8 2
20 10 2
20 12 1
20 14 1
20 16 1
20 68 2
20 70 3
20 72 1
20 74 3
20 80 3
20 84 3
20 88 3
20 90 1
20 92 1
20 113 2
20 117 1
20 121 1
20 123 1
20 125 3
20 127 3
21 1 1
21 5 2
21 9 2
21 11 2
21 13 1
21 15 1
21 65 3
21 69 2
21 71 3
21 73 1
21 75 3
21 85 3
21 89 3
21 91 1
21 93 1
21 114 2
21 118 1
21 122 1
21 124 1
21 126 3
21 128 3
22 2 1
22 6 2
22 10 2
22 12 2
22 14 1
22 16 1
22 66 3
22 70 2
22 72 3
22 74 1
22 76 3
22 86 3
22 90 3
22 92 1
22 94 1
22 113 3
22 115 2
22 119 1
22 123 1
22 125 1
22 127 3
23 1 1
23 3 1
23 7 2
23 11 2
23 13 2
23 15 1
23 67 3
23 71 2
23 73 3
23 75 1
23 77 3
23 87 3
23 91 3
23 93 1
23 95 1
23 114 3
23 116 2
23 120 1
23 124 1
23 126 1
23 128 3
24 2 1
24 4 1
24 8 2
24 12 2
24 14 2
24 16 1
24 68 3
24 72 2
24 74 3
24 76 1
24 78 3
24 88 3
24 92 3
24 94 1
24 96 1
24 113 3
24 115 3
24 117 2
24 121 1
24 125 1
24 127 1
25 1 1
25 3 1
25 5 1
25 9 2
25 13 2
25 15 2
25 69 3
25 73 2
25 75 3
25 77 1
25 79 3
25 81 1
25 89 3
25 93 3
25 95 1
25 114 3
25 116 3
25 118 2
25 122 1
25 126 1
25 128 1
26 2 1
26 4 1
26 6 1
26 10 2
26 14 2
26 16 2
26 70 3
26 74 2
26 76 3
26 78 1
26 80 3
26 82 1
26 90 3
26 94 3
26 96 1
26 113 1
26 115 3
26 117 3
26 119 2
26 123 1
26 127 1
27 1 2
27 3 1
27 5 1
27 7 1
27 11 2
27 15 2
27 65 3
27 71 3
27 75 2
27 77 3
27 79 1
27 81 1
27 83 1
27 91 3
27 95 3
27 114 1
27 116 3
27 118 3
27 120 2
27 124 1
27 128 1
28 2 2
28 4 1
28 6 1
28 8 1
28 12 2
28 16 2
28 66 3
28 72 3
28 76 2
28 78 3
28 80 1
28 82 1
28 84 1
28 92 3
28 96 3
28 113 1
28 115 1
28 117 3
28 119 3
28 121 2
28 125 1
29 1 2
29 3 2
29 5 1
29 7 1
29 9 1
29 13 2
29 65 1
29 67 3
29 73 3
29 77 2
29 79 3
29 81 3
29 83 1
29 85 1
29 93 3
29 114 1
29 116 1
29 118 3
29 120 3
29 122 2
29 126 1
30 2 2
30 4 2
30 6 1
30 8 1
30 10 1
30 14 2
30 66 1
30 68 3
30 74 3
30 78 2
30 80 3
30 82 3
30 84 1
30 86 1
30 94 3
30 115 1
30 117 1
30 119 3
30 121 3
30 123 2
30 127 1
31 3 2
31 5 2
31 7 1
31 9 1
31 11 1
31 15 2
31 65 3
31 67 1
31 69 3
31 75 3
31 79 2
31 83 3
31 85 1
31 87 1
31 95 3
31 116 1
31 118 1
31 120 3
31 122 3
31 124 2
31 128 1
32 4 2
32 6 2
32 8 1
32 10 1
32 12 1
32 16 2
32 66 3
32 68 1
32 70 3
32 76 3
32 80 2
32 84 3
32 86 1
32 88 1
32 96 3
32 113 1
32 117 1
32 119 1
32 121 3
32 123 3
32 125 2
