%%MatrixMarket matrix coordinate integer general
% Binary matrix over GF(2).
% Coordinate indices are 1-based; omitted entries are zero.
64 256 1664
1 33 1
1 34 1
1 45 1
1 46 1
1 49 1
1 53 1
1 54 1
1 58 1
1 69 1
1 73 1
1 77 1
1 78 1
1 85 1
1 86 1
1 97 1
1 98 1
1 101 1
1 102 1
1 105 1
1 109 1
1 117 1
1 126 1
1 198 1
1 205 1
1 209 1
1 213 1
1 218 1
1 222 1
2 35 1
2 36 1
2 47 1
2 48 1
2 51 1
2 55 1
2 56 1
2 60 1
2 71 1
2 75 1
2 79 1
2 80 1
2 87 1
2 88 1
2 99 1
2 100 1
2 103 1
2 104 1
2 107 1
2 111 1
2 119 1
2 128 1
2 200 1
2 207 1
2 211 1
2 215 1
2 220 1
2 224 1
3 37 1
3 38 1
3 49 1
3 50 1
3 53 1
3 57 1
3 58 1
3 62 1
3 73 1
3 77 1
3 81 1
3 82 1
3 89 1
3 90 1
3 98 1
3 101 1
3 102 1
3 105 1
3 106 1
3 109 1
3 113 1
3 121 1
3 194 1
3 202 1
3 209 1
3 213 1
3 217 1
3 222 1
4 39 1
4 40 1
4 51 1
4 52 1
4 55 1
4 59 1
4 60 1
4 64 1
4 75 1
4 79 1
4 83 1
4 84 1
4 91 1
4 92 1
4 100 1
4 103 1
4 104 1
4 107 1
4 108 1
4 111 1
4 115 1
4 123 1
4 196 1
4 204 1
4 211 1
4 215 1
4 219 1
4 224 1
5 34 1
5 41 1
5 42 1
5 53 1
5 54 1
5 57 1
5 61 1
5 62 1
5 77 1
5 81 1
5 85 1
5 86 1
5 93 1
5 94 1
5 102 1
5 105 1
5 106 1
5 109 1
5 110 1
5 113 1
5 117 1
5 125 1
5 194 1
5 198 1
5 206 1
5 213 1
5 217 1
5 221 1
6 36 1
6 43 1
6 44 1
6 55 1
6 56 1
6 59 1
6 63 1
6 64 1
6 79 1
6 83 1
6 87 1
6 88 1
6 95 1
6 96 1
6 104 1
6 107 1
6 108 1
6 111 1
6 112 1
6 115 1
6 119 1
6 127 1
6 196 1
6 200 1
6 208 1
6 215 1
6 219 1
6 223 1
7 33 1
7 34 1
7 38 1
7 45 1
7 46 1
7 57 1
7 58 1
7 61 1
7 65 1
7 66 1
7 81 1
7 85 1
7 89 1
7 90 1
7 97 1
7 106 1
7 109 1
7 110 1
7 113 1
7 114 1
7 117 1
7 121 1
7 193 1
7 198 1
7 202 1
7 210 1
7 217 1
7 221 1
8 35 1
8 36 1
8 40 1
8 47 1
8 48 1
8 59 1
8 60 1
8 63 1
8 67 1
8 68 1
8 83 1
8 87 1
8 91 1
8 92 1
8 99 1
8 108 1
8 111 1
8 112 1
8 115 1
8 116 1
8 119 1
8 123 1
8 195 1
8 200 1
8 204 1
8 212 1
8 219 1
8 223 1
9 33 1
9 37 1
9 38 1
9 42 1
9 49 1
9 50 1
9 61 1
9 62 1
9 69 1
9 70 1
9 85 1
9 89 1
9 93 1
9 94 1
9 101 1
9 110 1
9 113 1
9 114 1
9 117 1
9 118 1
9 121 1
9 125 1
9 193 1
9 197 1
9 202 1
9 206 1
9 214 1
9 221 1
10 35 1
10 39 1
10 40 1
10 44 1
10 51 1
10 52 1
10 63 1
10 64 1
10 71 1
10 72 1
10 87 1
10 91 1
10 95 1
10 96 1
10 103 1
10 112 1
10 115 1
10 116 1
10 119 1
10 120 1
10 123 1
10 127 1
10 195 1
10 199 1
10 204 1
10 208 1
10 216 1
10 223 1
11 33 1
11 34 1
11 37 1
11 41 1
11 42 1
11 46 1
11 53 1
11 54 1
11 65 1
11 66 1
11 73 1
11 74 1
11 89 1
11 93 1
11 97 1
11 105 1
11 114 1
11 117 1
11 118 1
11 121 1
11 122 1
11 125 1
11 193 1
11 197 1
11 201 1
11 206 1
11 210 1
11 218 1
12 35 1
12 36 1
12 39 1
12 43 1
12 44 1
12 48 1
12 55 1
12 56 1
12 67 1
12 68 1
12 75 1
12 76 1
12 91 1
12 95 1
12 99 1
12 107 1
12 116 1
12 119 1
12 120 1
12 123 1
12 124 1
12 127 1
12 195 1
12 199 1
12 203 1
12 208 1
12 212 1
12 220 1
13 37 1
13 38 1
13 41 1
13 45 1
13 46 1
13 50 1
13 57 1
13 58 1
13 65 1
13 69 1
13 70 1
13 77 1
13 78 1
13 93 1
13 97 1
13 101 1
13 109 1
13 118 1
13 121 1
13 122 1
13 125 1
13 126 1
13 197 1
13 201 1
13 205 1
13 210 1
13 214 1
13 222 1
14 39 1
14 40 1
14 43 1
14 47 1
14 48 1
14 52 1
14 59 1
14 60 1
14 67 1
14 71 1
14 72 1
14 79 1
14 80 1
14 95 1
14 99 1
14 103 1
14 111 1
14 120 1
14 123 1
14 124 1
14 127 1
14 128 1
14 199 1
14 203 1
14 207 1
14 212 1
14 216 1
14 224 1
15 41 1
15 42 1
15 45 1
15 49 1
15 50 1
15 54 1
15 61 1
15 62 1
15 65 1
15 69 1
15 73 1
15 74 1
15 81 1
15 82 1
15 97 1
15 98 1
15 101 1
15 105 1
15 113 1
15 122 1
15 125 1
15 126 1
15 194 1
15 201 1
15 205 1
15 209 1
15 214 1
15 218 1
16 43 1
16 44 1
16 47 1
16 51 1
16 52 1
16 56 1
16 63 1
16 64 1
16 67 1
16 71 1
16 75 1
16 76 1
16 83 1
16 84 1
16 99 1
16 100 1
16 103 1
16 107 1
16 115 1
16 124 1
16 127 1
16 128 1
16 196 1
16 203 1
16 207 1
16 211 1
16 216 1
16 220 1
17 33 1
17 45 1
17 50 1
17 53 1
17 57 1
17 58 1
17 70 1
17 74 1
17 77 1
17 85 1
17 97 1
17 101 1
17 106 1
17 110 1
17 118 1
17 125 1
17 126 1
17 197 1
17 198 1
17 206 1
17 210 1
17 214 1
17 217 1
17 218 1
17 221 1
17 222 1
18 35 1
18 47 1
18 52 1
18 55 1
18 59 1
18 60 1
18 72 1
18 76 1
18 79 1
18 87 1
18 99 1
18 103 1
18 108 1
18 112 1
18 120 1
18 127 1
18 128 1
18 199 1
18 200 1
18 208 1
18 212 1
18 216 1
18 219 1
18 220 1
18 223 1
18 224 1
19 37 1
19 49 1
19 54 1
19 57 1
19 61 1
19 62 1
19 74 1
19 78 1
19 81 1
19 89 1
19 97 1
19 98 1
19 101 1
19 105 1
19 110 1
19 114 1
19 122 1
19 193 1
19 194 1
19 201 1
19 202 1
19 210 1
19 214 1
19 218 1
19 221 1
19 222 1
20 39 1
20 51 1
20 56 1
20 59 1
20 63 1
20 64 1
20 76 1
20 80 1
20 83 1
20 91 1
20 99 1
20 100 1
20 103 1
20 107 1
20 112 1
20 116 1
20 124 1
20 195 1
20 196 1
20 203 1
20 204 1
20 212 1
20 216 1
20 220 1
20 223 1
20 224 1
21 33 1
21 34 1
21 41 1
21 53 1
21 58 1
21 61 1
21 78 1
21 82 1
21 85 1
21 93 1
21 101 1
21 102 1
21 105 1
21 109 1
21 114 1
21 118 1
21 126 1
21 193 1
21 194 1
21 197 1
21 198 1
21 205 1
21 206 1
21 214 1
21 218 1
21 222 1
22 35 1
22 36 1
22 43 1
22 55 1
22 60 1
22 63 1
22 80 1
22 84 1
22 87 1
22 95 1
22 103 1
22 104 1
22 107 1
22 111 1
22 116 1
22 120 1
22 128 1
22 195 1
22 196 1
22 199 1
22 200 1
22 207 1
22 208 1
22 216 1
22 220 1
22 224 1
23 33 1
23 37 1
23 38 1
23 45 1
23 57 1
23 62 1
23 65 1
23 82 1
23 86 1
23 89 1
23 98 1
23 105 1
23 106 1
23 109 1
23 113 1
23 118 1
23 122 1
23 194 1
23 197 1
23 198 1
23 201 1
23 202 1
23 209 1
23 210 1
23 218 1
23 222 1
24 35 1
24 39 1
24 40 1
24 47 1
24 59 1
24 64 1
24 67 1
24 84 1
24 88 1
24 91 1
24 100 1
24 107 1
24 108 1
24 111 1
24 115 1
24 120 1
24 124 1
24 196 1
24 199 1
24 200 1
24 203 1
24 204 1
24 211 1
24 212 1
24 220 1
24 224 1
25 34 1
25 37 1
25 41 1
25 42 1
25 49 1
25 61 1
25 69 1
25 86 1
25 90 1
25 93 1
25 102 1
25 109 1
25 110 1
25 113 1
25 117 1
25 122 1
25 126 1
25 194 1
25 198 1
25 201 1
25 202 1
25 205 1
25 206 1
25 213 1
25 214 1
25 222 1
26 36 1
26 39 1
26 43 1
26 44 1
26 51 1
26 63 1
26 71 1
26 88 1
26 92 1
26 95 1
26 104 1
26 111 1
26 112 1
26 115 1
26 119 1
26 124 1
26 128 1
26 196 1
26 200 1
26 203 1
26 204 1
26 207 1
26 208 1
26 215 1
26 216 1
26 224 1
27 33 1
27 38 1
27 41 1
27 45 1
27 46 1
27 53 1
27 65 1
27 73 1
27 90 1
27 94 1
27 98 1
27 106 1
27 113 1
27 114 1
27 117 1
27 121 1
27 126 1
27 194 1
27 198 1
27 202 1
27 205 1
27 206 1
27 209 1
27 210 1
27 217 1
27 218 1
28 35 1
28 40 1
28 43 1
28 47 1
28 48 1
28 55 1
28 67 1
28 75 1
28 92 1
28 96 1
28 100 1
28 108 1
28 115 1
28 116 1
28 119 1
28 123 1
28 128 1
28 196 1
28 200 1
28 204 1
28 207 1
28 208 1
28 211 1
28 212 1
28 219 1
28 220 1
29 37 1
29 42 1
29 45 1
29 49 1
29 50 1
29 57 1
29 66 1
29 69 1
29 77 1
29 94 1
29 98 1
29 102 1
29 110 1
29 117 1
29 118 1
29 121 1
29 125 1
29 198 1
29 202 1
29 206 1
29 209 1
29 210 1
29 213 1
29 214 1
29 221 1
29 222 1
30 39 1
30 44 1
30 47 1
30 51 1
30 52 1
30 59 1
30 68 1
30 71 1
30 79 1
30 96 1
30 100 1
30 104 1
30 112 1
30 119 1
30 120 1
30 123 1
30 127 1
30 200 1
30 204 1
30 208 1
30 211 1
30 212 1
30 215 1
30 216 1
30 223 1
30 224 1
31 41 1
31 46 1
31 49 1
31 53 1
31 54 1
31 61 1
31 66 1
31 70 1
31 73 1
31 81 1
31 97 1
31 102 1
31 106 1
31 114 1
31 121 1
31 122 1
31 125 1
31 193 1
31 194 1
31 202 1
31 206 1
31 210 1
31 213 1
31 214 1
31 217 1
31 218 1
32 43 1
32 48 1
32 51 1
32 55 1
32 56 1
32 63 1
32 68 1
32 72 1
32 75 1
32 83 1
32 99 1
32 104 1
32 108 1
32 116 1
32 123 1
32 124 1
32 127 1
32 195 1
32 196 1
32 204 1
32 208 1
32 212 1
32 215 1
32 216 1
32 219 1
32 220 1
33 33 1
33 35 1
33 44 1
33 47 1
33 50 1
33 55 1
33 65 1
33 67 1
33 72 1
33 73 1
33 79 1
33 92 1
33 201 1
33 203 1
33 210 1
33 216 1
33 220 1
33 232 1
33 235 1
33 236 1
33 247 1
33 248 1
34 35 1
34 37 1
34 46 1
34 49 1
34 52 1
34 57 1
34 67 1
34 69 1
34 74 1
34 75 1
34 81 1
34 94 1
34 203 1
34 205 1
34 212 1
34 218 1
34 222 1
34 234 1
34 237 1
34 238 1
34 249 1
34 250 1
35 37 1
35 39 1
35 48 1
35 51 1
35 54 1
35 59 1
35 69 1
35 71 1
35 76 1
35 77 1
35 83 1
35 96 1
35 205 1
35 207 1
35 214 1
35 220 1
35 224 1
35 236 1
35 239 1
35 240 1
35 251 1
35 252 1
36 39 1
36 41 1
36 50 1
36 53 1
36 56 1
36 61 1
36 66 1
36 71 1
36 73 1
36 78 1
36 79 1
36 85 1
36 194 1
36 207 1
36 209 1
36 216 1
36 222 1
36 238 1
36 241 1
36 242 1
36 253 1
36 254 1
37 41 1
37 43 1
37 52 1
37 55 1
37 58 1
37 63 1
37 68 1
37 73 1
37 75 1
37 80 1
37 81 1
37 87 1
37 196 1
37 209 1
37 211 1
37 218 1
37 224 1
37 240 1
37 243 1
37 244 1
37 255 1
37 256 1
38 33 1
38 43 1
38 45 1
38 54 1
38 57 1
38 60 1
38 70 1
38 75 1
38 77 1
38 82 1
38 83 1
38 89 1
38 194 1
38 198 1
38 211 1
38 213 1
38 220 1
38 225 1
38 226 1
38 242 1
38 245 1
38 246 1
39 35 1
39 45 1
39 47 1
39 56 1
39 59 1
39 62 1
39 72 1
39 77 1
39 79 1
39 84 1
39 85 1
39 91 1
39 196 1
39 200 1
39 213 1
39 215 1
39 222 1
39 227 1
39 228 1
39 244 1
39 247 1
39 248 1
40 37 1
40 47 1
40 49 1
40 58 1
40 61 1
40 64 1
40 74 1
40 79 1
40 81 1
40 86 1
40 87 1
40 93 1
40 198 1
40 202 1
40 215 1
40 217 1
40 224 1
40 229 1
40 230 1
40 246 1
40 249 1
40 250 1
41 34 1
41 39 1
41 49 1
41 51 1
41 60 1
41 63 1
41 76 1
41 81 1
41 83 1
41 88 1
41 89 1
41 95 1
41 194 1
41 200 1
41 204 1
41 217 1
41 219 1
41 231 1
41 232 1
41 248 1
41 251 1
41 252 1
42 33 1
42 36 1
42 41 1
42 51 1
42 53 1
42 62 1
42 65 1
42 78 1
42 83 1
42 85 1
42 90 1
42 91 1
42 196 1
42 202 1
42 206 1
42 219 1
42 221 1
42 233 1
42 234 1
42 250 1
42 253 1
42 254 1
43 35 1
43 38 1
43 43 1
43 53 1
43 55 1
43 64 1
43 67 1
43 80 1
43 85 1
43 87 1
43 92 1
43 93 1
43 198 1
43 204 1
43 208 1
43 221 1
43 223 1
43 235 1
43 236 1
43 252 1
43 255 1
43 256 1
44 34 1
44 37 1
44 40 1
44 45 1
44 55 1
44 57 1
44 69 1
44 82 1
44 87 1
44 89 1
44 94 1
44 95 1
44 193 1
44 200 1
44 206 1
44 210 1
44 223 1
44 225 1
44 226 1
44 237 1
44 238 1
44 254 1
45 36 1
45 39 1
45 42 1
45 47 1
45 57 1
45 59 1
45 65 1
45 71 1
45 84 1
45 89 1
45 91 1
45 96 1
45 193 1
45 195 1
45 202 1
45 208 1
45 212 1
45 227 1
45 228 1
45 239 1
45 240 1
45 256 1
46 38 1
46 41 1
46 44 1
46 49 1
46 59 1
46 61 1
46 66 1
46 67 1
46 73 1
46 86 1
46 91 1
46 93 1
46 195 1
46 197 1
46 204 1
46 210 1
46 214 1
46 226 1
46 229 1
46 230 1
46 241 1
46 242 1
47 40 1
47 43 1
47 46 1
47 51 1
47 61 1
47 63 1
47 68 1
47 69 1
47 75 1
47 88 1
47 93 1
47 95 1
47 197 1
47 199 1
47 206 1
47 212 1
47 216 1
47 228 1
47 231 1
47 232 1
47 243 1
47 244 1
48 33 1
48 42 1
48 45 1
48 48 1
48 53 1
48 63 1
48 65 1
48 70 1
48 71 1
48 77 1
48 90 1
48 95 1
48 199 1
48 201 1
48 208 1
48 214 1
48 218 1
48 230 1
48 233 1
48 234 1
48 245 1
48 246 1
49 34 1
49 36 1
49 43 1
49 44 1
49 48 1
49 49 1
49 50 1
49 56 1
49 66 1
49 68 1
49 71 1
49 72 1
49 74 1
49 80 1
49 91 1
49 92 1
49 202 1
49 204 1
49 209 1
49 210 1
49 215 1
49 216 1
49 219 1
49 220 1
49 231 1
49 232 1
49 235 1
49 247 1
50 36 1
50 38 1
50 45 1
50 46 1
50 50 1
50 51 1
50 52 1
50 58 1
50 68 1
50 70 1
50 73 1
50 74 1
50 76 1
50 82 1
50 93 1
50 94 1
50 204 1
50 206 1
50 211 1
50 212 1
50 217 1
50 218 1
50 221 1
50 222 1
50 233 1
50 234 1
50 237 1
50 249 1
51 38 1
51 40 1
51 47 1
51 48 1
51 52 1
51 53 1
51 54 1
51 60 1
51 70 1
51 72 1
51 75 1
51 76 1
51 78 1
51 84 1
51 95 1
51 96 1
51 206 1
51 208 1
51 213 1
51 214 1
51 219 1
51 220 1
51 223 1
51 224 1
51 235 1
51 236 1
51 239 1
51 251 1
52 40 1
52 42 1
52 49 1
52 50 1
52 54 1
52 55 1
52 56 1
52 62 1
52 65 1
52 66 1
52 72 1
52 74 1
52 77 1
52 78 1
52 80 1
52 86 1
52 193 1
52 194 1
52 208 1
52 210 1
52 215 1
52 216 1
52 221 1
52 222 1
52 237 1
52 238 1
52 241 1
52 253 1
53 42 1
53 44 1
53 51 1
53 52 1
53 56 1
53 57 1
53 58 1
53 64 1
53 67 1
53 68 1
53 74 1
53 76 1
53 79 1
53 80 1
53 82 1
53 88 1
53 195 1
53 196 1
53 210 1
53 212 1
53 217 1
53 218 1
53 223 1
53 224 1
53 239 1
53 240 1
53 243 1
53 255 1
54 34 1
54 44 1
54 46 1
54 53 1
54 54 1
54 58 1
54 59 1
54 60 1
54 69 1
54 70 1
54 76 1
54 78 1
54 81 1
54 82 1
54 84 1
54 90 1
54 193 1
54 194 1
54 197 1
54 198 1
54 212 1
54 214 1
54 219 1
54 220 1
54 225 1
54 241 1
54 242 1
54 245 1
55 36 1
55 46 1
55 48 1
55 55 1
55 56 1
55 60 1
55 61 1
55 62 1
55 71 1
55 72 1
55 78 1
55 80 1
55 83 1
55 84 1
55 86 1
55 92 1
55 195 1
55 196 1
55 199 1
55 200 1
55 214 1
55 216 1
55 221 1
55 222 1
55 227 1
55 243 1
55 244 1
55 247 1
56 38 1
56 48 1
56 50 1
56 57 1
56 58 1
56 62 1
56 63 1
56 64 1
56 73 1
56 74 1
56 80 1
56 82 1
56 85 1
56 86 1
56 88 1
56 94 1
56 197 1
56 198 1
56 201 1
56 202 1
56 216 1
56 218 1
56 223 1
56 224 1
56 229 1
56 245 1
56 246 1
56 249 1
57 33 1
57 34 1
57 40 1
57 50 1
57 52 1
57 59 1
57 60 1
57 64 1
57 75 1
57 76 1
57 82 1
57 84 1
57 87 1
57 88 1
57 90 1
57 96 1
57 193 1
57 194 1
57 199 1
57 200 1
57 203 1
57 204 1
57 218 1
57 220 1
57 231 1
57 247 1
57 248 1
57 251 1
58 34 1
58 35 1
58 36 1
58 42 1
58 52 1
58 54 1
58 61 1
58 62 1
58 66 1
58 77 1
58 78 1
58 84 1
58 86 1
58 89 1
58 90 1
58 92 1
58 195 1
58 196 1
58 201 1
58 202 1
58 205 1
58 206 1
58 220 1
58 222 1
58 233 1
58 249 1
58 250 1
58 253 1
59 36 1
59 37 1
59 38 1
59 44 1
59 54 1
59 56 1
59 63 1
59 64 1
59 68 1
59 79 1
59 80 1
59 86 1
59 88 1
59 91 1
59 92 1
59 94 1
59 197 1
59 198 1
59 203 1
59 204 1
59 207 1
59 208 1
59 222 1
59 224 1
59 235 1
59 251 1
59 252 1
59 255 1
60 33 1
60 34 1
60 38 1
60 39 1
60 40 1
60 46 1
60 56 1
60 58 1
60 70 1
60 81 1
60 82 1
60 88 1
60 90 1
60 93 1
60 94 1
60 96 1
60 194 1
60 199 1
60 200 1
60 205 1
60 206 1
60 209 1
60 210 1
60 224 1
60 225 1
60 237 1
60 253 1
60 254 1
61 35 1
61 36 1
61 40 1
61 41 1
61 42 1
61 48 1
61 58 1
61 60 1
61 66 1
61 72 1
61 83 1
61 84 1
61 90 1
61 92 1
61 95 1
61 96 1
61 194 1
61 196 1
61 201 1
61 202 1
61 207 1
61 208 1
61 211 1
61 212 1
61 227 1
61 239 1
61 255 1
61 256 1
62 37 1
62 38 1
62 42 1
62 43 1
62 44 1
62 50 1
62 60 1
62 62 1
62 65 1
62 66 1
62 68 1
62 74 1
62 85 1
62 86 1
62 92 1
62 94 1
62 196 1
62 198 1
62 203 1
62 204 1
62 209 1
62 210 1
62 213 1
62 214 1
62 225 1
62 226 1
62 229 1
62 241 1
63 39 1
63 40 1
63 44 1
63 45 1
63 46 1
63 52 1
63 62 1
63 64 1
63 67 1
63 68 1
63 70 1
63 76 1
63 87 1
63 88 1
63 94 1
63 96 1
63 198 1
63 200 1
63 205 1
63 206 1
63 211 1
63 212 1
63 215 1
63 216 1
63 227 1
63 228 1
63 231 1
63 243 1
64 34 1
64 41 1
64 42 1
64 46 1
64 47 1
64 48 1
64 54 1
64 64 1
64 66 1
64 69 1
64 70 1
64 72 1
64 78 1
64 89 1
64 90 1
64 96 1
64 200 1
64 202 1
64 207 1
64 208 1
64 213 1
64 214 1
64 217 1
64 218 1
64 229 1
64 230 1
64 233 1
64 245 1
