%%MatrixMarket matrix coordinate integer general
% GF(4) labels 0,1,2=omega,3=omega+1; arithmetic is NOT integer arithmetic.
% Coordinate indices are 1-based; omitted entries are zero.
32 128 656
1 17 3
1 23 3
1 25 1
1 27 3
1 29 2
1 35 1
1 37 1
1 39 3
1 43 3
1 49 3
1 51 3
1 53 1
1 55 1
1 59 1
1 63 2
1 99 2
1 103 1
1 105 1
1 107 1
1 109 2
1 111 2
2 18 3
2 24 3
2 26 1
2 28 3
2 30 2
2 36 1
2 38 1
2 40 3
2 44 3
2 50 3
2 52 3
2 54 1
2 56 1
2 60 1
2 64 2
2 100 2
2 104 1
2 106 1
2 108 1
2 110 2
2 112 2
3 19 3
3 25 3
3 27 1
3 29 3
3 31 2
3 37 1
3 39 1
3 41 3
3 45 3
3 49 2
3 51 3
3 53 3
3 55 1
3 57 1
3 61 1
3 97 2
3 101 2
3 105 1
3 107 1
3 109 1
3 111 2
4 20 3
4 26 3
4 28 1
4 30 3
4 32 2
4 38 1
4 40 1
4 42 3
4 46 3
4 50 2
4 52 3
4 54 3
4 56 1
4 58 1
4 62 1
4 98 2
4 102 2
4 106 1
4 108 1
4 110 1
4 112 2
5 17 2
5 21 3
5 27 3
5 29 1
5 31 3
5 39 1
5 41 1
5 43 3
5 47 3
5 51 2
5 53 3
5 55 3
5 57 1
5 59 1
5 63 1
5 97 2
5 99 2
5 103 2
5 107 1
5 109 1
5 111 1
6 18 2
6 22 3
6 28 3
6 30 1
6 32 3
6 40 1
6 42 1
6 44 3
6 48 3
6 52 2
6 54 3
6 56 3
6 58 1
6 60 1
6 64 1
6 98 2
6 100 2
6 104 2
6 108 1
6 110 1
6 112 1
7 17 3
7 19 2
7 23 3
7 29 3
7 31 1
7 33 3
7 41 1
7 43 1
7 45 3
7 49 1
7 53 2
7 55 3
7 57 3
7 59 1
7 61 1
7 97 1
7 99 2
7 101 2
7 105 2
7 109 1
7 111 1
8 18 3
8 20 2
8 24 3
8 30 3
8 32 1
8 34 3
8 42 1
8 44 1
8 46 3
8 50 1
8 54 2
8 56 3
8 58 3
8 60 1
8 62 1
8 98 1
8 100 2
8 102 2
8 106 2
8 110 1
8 112 1
9 17 1
9 19 3
9 21 2
9 25 3
9 31 3
9 35 3
9 43 1
9 45 1
9 47 3
9 51 1
9 55 2
9 57 3
9 59 3
9 61 1
9 63 1
9 97 1
9 99 1
9 101 2
9 103 2
9 107 2
9 111 1
10 18 1
10 20 3
10 22 2
10 26 3
10 32 3
10 36 3
10 44 1
10 46 1
10 48 3
10 52 1
10 56 2
10 58 3
10 60 3
10 62 1
10 64 1
10 98 1
10 100 1
10 102 2
10 104 2
10 108 2
10 112 1
11 17 3
11 19 1
11 21 3
11 23 2
11 27 3
11 33 3
11 37 3
11 45 1
11 47 1
11 49 1
11 53 1
11 57 2
11 59 3
11 61 3
11 63 1
11 97 1
11 99 1
11 101 1
11 103 2
11 105 2
11 109 2
12 18 3
12 20 1
12 22 3
12 24 2
12 28 3
12 34 3
12 38 3
12 46 1
12 48 1
12 50 1
12 54 1
12 58 2
12 60 3
12 62 3
12 64 1
12 98 1
12 100 1
12 102 1
12 104 2
12 106 2
12 110 2
13 19 3
13 21 1
13 23 3
13 25 2
13 29 3
13 33 1
13 35 3
13 39 3
13 47 1
13 49 1
13 51 1
13 55 1
13 59 2
13 61 3
13 63 3
13 99 1
13 101 1
13 103 1
13 105 2
13 107 2
13 111 2
14 20 3
14 22 1
14 24 3
14 26 2
14 30 3
14 34 1
14 36 3
14 40 3
14 48 1
14 50 1
14 52 1
14 56 1
14 60 2
14 62 3
14 64 3
14 100 1
14 102 1
14 104 1
14 106 2
14 108 2
14 112 2
15 21 3
15 23 1
15 25 3
15 27 2
15 31 3
15 33 1
15 35 1
15 37 3
15 41 3
15 49 3
15 51 1
15 53 1
15 57 1
15 61 2
15 63 3
15 97 2
15 101 1
15 103 1
15 105 1
15 107 2
15 109 2
16 22 3
16 24 1
16 26 3
16 28 2
16 32 3
16 34 1
16 36 1
16 38 3
16 42 3
16 50 3
16 52 1
16 54 1
16 58 1
16 62 2
16 64 3
16 98 2
16 102 1
16 104 1
16 106 1
16 108 2
16 110 2
17 17 1
17 18 1
17 22 2
17 24 1
17 25 2
17 28 1
17 33 1
17 34 1
17 36 2
17 37 1
17 40 1
17 46 2
17 101 1
17 102 1
17 105 2
17 108 2
17 110 2
17 116 2
17 118 3
17 124 3
18 18 1
18 19 1
18 23 2
18 25 1
18 26 2
18 29 1
18 34 1
18 35 1
18 37 2
18 38 1
18 41 1
18 47 2
18 102 1
18 103 1
18 106 2
18 109 2
18 111 2
18 117 2
18 119 3
18 125 3
19 19 1
19 20 1
19 24 2
19 26 1
19 27 2
19 30 1
19 35 1
19 36 1
19 38 2
19 39 1
19 42 1
19 48 2
19 103 1
19 104 1
19 107 2
19 110 2
19 112 2
19 118 2
19 120 3
19 126 3
20 20 1
20 21 1
20 25 2
20 27 1
20 28 2
20 31 1
20 33 2
20 36 1
20 37 1
20 39 2
20 40 1
20 43 1
20 97 2
20 104 1
20 105 1
20 108 2
20 111 2
20 119 2
20 121 3
20 127 3
21 21 1
21 22 1
21 26 2
21 28 1
21 29 2
21 32 1
21 34 2
21 37 1
21 38 1
21 40 2
21 41 1
21 44 1
21 98 2
21 105 1
21 106 1
21 109 2
21 112 2
21 120 2
21 122 3
21 128 3
22 17 1
22 22 1
22 23 1
22 27 2
22 29 1
22 30 2
22 35 2
22 38 1
22 39 1
22 41 2
22 42 1
22 45 1
22 97 2
22 99 2
22 106 1
22 107 1
22 110 2
22 113 3
22 121 2
22 123 3
23 18 1
23 23 1
23 24 1
23 28 2
23 30 1
23 31 2
23 36 2
23 39 1
23 40 1
23 42 2
23 43 1
23 46 1
23 98 2
23 100 2
23 107 1
23 108 1
23 111 2
23 114 3
23 122 2
23 124 3
24 19 1
24 24 1
24 25 1
24 29 2
24 31 1
24 32 2
24 37 2
24 40 1
24 41 1
24 43 2
24 44 1
24 47 1
24 99 2
24 101 2
24 108 1
24 109 1
24 112 2
24 115 3
24 123 2
24 125 3
25 17 2
25 20 1
25 25 1
25 26 1
25 30 2
25 32 1
25 38 2
25 41 1
25 42 1
25 44 2
25 45 1
25 48 1
25 97 2
25 100 2
25 102 2
25 109 1
25 110 1
25 116 3
25 124 2
25 126 3
26 17 1
26 18 2
26 21 1
26 26 1
26 27 1
26 31 2
26 33 1
26 39 2
26 42 1
26 43 1
26 45 2
26 46 1
26 98 2
26 101 2
26 103 2
26 110 1
26 111 1
26 117 3
26 125 2
26 127 3
27 18 1
27 19 2
27 22 1
27 27 1
27 28 1
27 32 2
27 34 1
27 40 2
27 43 1
27 44 1
27 46 2
27 47 1
27 99 2
27 102 2
27 104 2
27 111 1
27 112 1
27 118 3
27 126 2
27 128 3
28 17 2
28 19 1
28 20 2
28 23 1
28 28 1
28 29 1
28 35 1
28 41 2
28 44 1
28 45 1
28 47 2
28 48 1
28 97 1
28 100 2
28 103 2
28 105 2
28 112 1
28 113 3
28 119 3
28 127 2
29 18 2
29 20 1
29 21 2
29 24 1
29 29 1
29 30 1
29 33 1
29 36 1
29 42 2
29 45 1
29 46 1
29 48 2
29 97 1
29 98 1
29 101 2
29 104 2
29 106 2
29 114 3
29 120 3
29 128 2
30 19 2
30 21 1
30 22 2
30 25 1
30 30 1
30 31 1
30 33 2
30 34 1
30 37 1
30 43 2
30 46 1
30 47 1
30 98 1
30 99 1
30 102 2
30 105 2
30 107 2
30 113 2
30 115 3
30 121 3
31 20 2
31 22 1
31 23 2
31 26 1
31 31 1
31 32 1
31 34 2
31 35 1
31 38 1
31 44 2
31 47 1
31 48 1
31 99 1
31 100 1
31 103 2
31 106 2
31 108 2
31 114 2
31 116 3
31 122 3
32 17 1
32 21 2
32 23 1
32 24 2
32 27 1
32 32 1
32 33 1
32 35 2
32 36 1
32 39 1
32 45 2
32 48 1
32 100 1
32 101 1
32 104 2
32 107 2
32 109 2
32 115 2
32 117 3
32 123 3
