%%MatrixMarket matrix coordinate integer general
% Binary matrix over GF(2).
% Coordinate indices are 1-based; omitted entries are zero.
78 208 663
1 2 1
1 27 1
1 53 1
1 79 1
1 105 1
1 131 1
1 157 1
1 183 1
2 1 1
2 2 1
2 28 1
2 54 1
2 80 1
2 106 1
2 132 1
2 158 1
2 184 1
3 4 1
3 29 1
3 55 1
3 81 1
3 107 1
3 133 1
3 159 1
3 185 1
4 3 1
4 4 1
4 30 1
4 56 1
4 82 1
4 108 1
4 134 1
4 160 1
4 186 1
5 6 1
5 31 1
5 57 1
5 83 1
5 109 1
5 135 1
5 161 1
5 187 1
6 5 1
6 6 1
6 32 1
6 58 1
6 84 1
6 110 1
6 136 1
6 162 1
6 188 1
7 8 1
7 33 1
7 59 1
7 85 1
7 111 1
7 137 1
7 163 1
7 189 1
8 7 1
8 8 1
8 34 1
8 60 1
8 86 1
8 112 1
8 138 1
8 164 1
8 190 1
9 10 1
9 35 1
9 61 1
9 87 1
9 113 1
9 139 1
9 165 1
9 191 1
10 9 1
10 10 1
10 36 1
10 62 1
10 88 1
10 114 1
10 140 1
10 166 1
10 192 1
11 12 1
11 37 1
11 63 1
11 89 1
11 115 1
11 141 1
11 167 1
11 193 1
12 11 1
12 12 1
12 38 1
12 64 1
12 90 1
12 116 1
12 142 1
12 168 1
12 194 1
13 14 1
13 39 1
13 65 1
13 91 1
13 117 1
13 143 1
13 169 1
13 195 1
14 13 1
14 14 1
14 40 1
14 66 1
14 92 1
14 118 1
14 144 1
14 170 1
14 196 1
15 16 1
15 41 1
15 67 1
15 93 1
15 119 1
15 145 1
15 171 1
15 197 1
16 15 1
16 16 1
16 42 1
16 68 1
16 94 1
16 120 1
16 146 1
16 172 1
16 198 1
17 18 1
17 43 1
17 69 1
17 95 1
17 121 1
17 147 1
17 173 1
17 199 1
18 17 1
18 18 1
18 44 1
18 70 1
18 96 1
18 122 1
18 148 1
18 174 1
18 200 1
19 20 1
19 45 1
19 71 1
19 97 1
19 123 1
19 149 1
19 175 1
19 201 1
20 19 1
20 20 1
20 46 1
20 72 1
20 98 1
20 124 1
20 150 1
20 176 1
20 202 1
21 22 1
21 47 1
21 73 1
21 99 1
21 125 1
21 151 1
21 177 1
21 203 1
22 21 1
22 22 1
22 48 1
22 74 1
22 100 1
22 126 1
22 152 1
22 178 1
22 204 1
23 24 1
23 49 1
23 75 1
23 101 1
23 127 1
23 153 1
23 179 1
23 205 1
24 23 1
24 24 1
24 50 1
24 76 1
24 102 1
24 128 1
24 154 1
24 180 1
24 206 1
25 26 1
25 51 1
25 77 1
25 103 1
25 129 1
25 155 1
25 181 1
25 207 1
26 25 1
26 26 1
26 52 1
26 78 1
26 104 1
26 130 1
26 156 1
26 182 1
26 208 1
27 1 1
27 52 1
27 55 1
27 99 1
27 109 1
27 153 1
27 165 1
27 197 1
28 2 1
28 51 1
28 52 1
28 56 1
28 100 1
28 110 1
28 154 1
28 166 1
28 198 1
29 3 1
29 28 1
29 57 1
29 101 1
29 111 1
29 155 1
29 167 1
29 199 1
30 4 1
30 27 1
30 28 1
30 58 1
30 102 1
30 112 1
30 156 1
30 168 1
30 200 1
31 5 1
31 30 1
31 59 1
31 103 1
31 113 1
31 131 1
31 169 1
31 201 1
32 6 1
32 29 1
32 30 1
32 60 1
32 104 1
32 114 1
32 132 1
32 170 1
32 202 1
33 7 1
33 32 1
33 61 1
33 79 1
33 115 1
33 133 1
33 171 1
33 203 1
34 8 1
34 31 1
34 32 1
34 62 1
34 80 1
34 116 1
34 134 1
34 172 1
34 204 1
35 9 1
35 34 1
35 63 1
35 81 1
35 117 1
35 135 1
35 173 1
35 205 1
36 10 1
36 33 1
36 34 1
36 64 1
36 82 1
36 118 1
36 136 1
36 174 1
36 206 1
37 11 1
37 36 1
37 65 1
37 83 1
37 119 1
37 137 1
37 175 1
37 207 1
38 12 1
38 35 1
38 36 1
38 66 1
38 84 1
38 120 1
38 138 1
38 176 1
38 208 1
39 13 1
39 38 1
39 67 1
39 85 1
39 121 1
39 139 1
39 177 1
39 183 1
40 14 1
40 37 1
40 38 1
40 68 1
40 86 1
40 122 1
40 140 1
40 178 1
40 184 1
41 15 1
41 40 1
41 69 1
41 87 1
41 123 1
41 141 1
41 179 1
41 185 1
42 16 1
42 39 1
42 40 1
42 70 1
42 88 1
42 124 1
42 142 1
42 180 1
42 186 1
43 17 1
43 42 1
43 71 1
43 89 1
43 125 1
43 143 1
43 181 1
43 187 1
44 18 1
44 41 1
44 42 1
44 72 1
44 90 1
44 126 1
44 144 1
44 182 1
44 188 1
45 19 1
45 44 1
45 73 1
45 91 1
45 127 1
45 145 1
45 157 1
45 189 1
46 20 1
46 43 1
46 44 1
46 74 1
46 92 1
46 128 1
46 146 1
46 158 1
46 190 1
47 21 1
47 46 1
47 75 1
47 93 1
47 129 1
47 147 1
47 159 1
47 191 1
48 22 1
48 45 1
48 46 1
48 76 1
48 94 1
48 130 1
48 148 1
48 160 1
48 192 1
49 23 1
49 48 1
49 77 1
49 95 1
49 105 1
49 149 1
49 161 1
49 193 1
50 24 1
50 47 1
50 48 1
50 78 1
50 96 1
50 106 1
50 150 1
50 162 1
50 194 1
51 25 1
51 50 1
51 53 1
51 97 1
51 107 1
51 151 1
51 163 1
51 195 1
52 26 1
52 49 1
52 50 1
52 54 1
52 98 1
52 108 1
52 152 1
52 164 1
52 196 1
53 1 1
53 43 1
53 66 1
53 93 1
53 123 1
53 133 1
53 161 1
53 205 1
54 2 1
54 44 1
54 65 1
54 66 1
54 94 1
54 124 1
54 134 1
54 162 1
54 206 1
55 3 1
55 45 1
55 68 1
55 95 1
55 125 1
55 135 1
55 163 1
55 207 1
56 4 1
56 46 1
56 67 1
56 68 1
56 96 1
56 126 1
56 136 1
56 164 1
56 208 1
57 5 1
57 47 1
57 70 1
57 97 1
57 127 1
57 137 1
57 165 1
57 183 1
58 6 1
58 48 1
58 69 1
58 70 1
58 98 1
58 128 1
58 138 1
58 166 1
58 184 1
59 7 1
59 49 1
59 72 1
59 99 1
59 129 1
59 139 1
59 167 1
59 185 1
60 8 1
60 50 1
60 71 1
60 72 1
60 100 1
60 130 1
60 140 1
60 168 1
60 186 1
61 9 1
61 51 1
61 74 1
61 101 1
61 105 1
61 141 1
61 169 1
61 187 1
62 10 1
62 52 1
62 73 1
62 74 1
62 102 1
62 106 1
62 142 1
62 170 1
62 188 1
63 11 1
63 27 1
63 76 1
63 103 1
63 107 1
63 143 1
63 171 1
63 189 1
64 12 1
64 28 1
64 75 1
64 76 1
64 104 1
64 108 1
64 144 1
64 172 1
64 190 1
65 13 1
65 29 1
65 78 1
65 79 1
65 109 1
65 145 1
65 173 1
65 191 1
66 14 1
66 30 1
66 77 1
66 78 1
66 80 1
66 110 1
66 146 1
66 174 1
66 192 1
67 15 1
67 31 1
67 54 1
67 81 1
67 111 1
67 147 1
67 175 1
67 193 1
68 16 1
68 32 1
68 53 1
68 54 1
68 82 1
68 112 1
68 148 1
68 176 1
68 194 1
69 17 1
69 33 1
69 56 1
69 83 1
69 113 1
69 149 1
69 177 1
69 195 1
70 18 1
70 34 1
70 55 1
70 56 1
70 84 1
70 114 1
70 150 1
70 178 1
70 196 1
71 19 1
71 35 1
71 58 1
71 85 1
71 115 1
71 151 1
71 179 1
71 197 1
72 20 1
72 36 1
72 57 1
72 58 1
72 86 1
72 116 1
72 152 1
72 180 1
72 198 1
73 21 1
73 37 1
73 60 1
73 87 1
73 117 1
73 153 1
73 181 1
73 199 1
74 22 1
74 38 1
74 59 1
74 60 1
74 88 1
74 118 1
74 154 1
74 182 1
74 200 1
75 23 1
75 39 1
75 62 1
75 89 1
75 119 1
75 155 1
75 157 1
75 201 1
76 24 1
76 40 1
76 61 1
76 62 1
76 90 1
76 120 1
76 156 1
76 158 1
76 202 1
77 25 1
77 41 1
77 64 1
77 91 1
77 121 1
77 131 1
77 159 1
77 203 1
78 26 1
78 42 1
78 63 1
78 64 1
78 92 1
78 122 1
78 132 1
78 160 1
78 204 1
