%%MatrixMarket matrix coordinate integer general
% GF(4) labels 0,1,2=omega,3=omega+1; arithmetic is NOT integer arithmetic.
% Coordinate indices are 1-based; omitted entries are zero.
39 104 312
1 1 2
1 14 1
1 27 1
1 40 1
1 53 1
1 66 1
1 79 1
1 92 1
2 2 2
2 15 1
2 28 1
2 41 1
2 54 1
2 67 1
2 80 1
2 93 1
3 3 2
3 16 1
3 29 1
3 42 1
3 55 1
3 68 1
3 81 1
3 94 1
4 4 2
4 17 1
4 30 1
4 43 1
4 56 1
4 69 1
4 82 1
4 95 1
5 5 2
5 18 1
5 31 1
5 44 1
5 57 1
5 70 1
5 83 1
5 96 1
6 6 2
6 19 1
6 32 1
6 45 1
6 58 1
6 71 1
6 84 1
6 97 1
7 7 2
7 20 1
7 33 1
7 46 1
7 59 1
7 72 1
7 85 1
7 98 1
8 8 2
8 21 1
8 34 1
8 47 1
8 60 1
8 73 1
8 86 1
8 99 1
9 9 2
9 22 1
9 35 1
9 48 1
9 61 1
9 74 1
9 87 1
9 100 1
10 10 2
10 23 1
10 36 1
10 49 1
10 62 1
10 75 1
10 88 1
10 101 1
11 11 2
11 24 1
11 37 1
11 50 1
11 63 1
11 76 1
11 89 1
11 102 1
12 12 2
12 25 1
12 38 1
12 51 1
12 64 1
12 77 1
12 90 1
12 103 1
13 13 2
13 26 1
13 39 1
13 52 1
13 65 1
13 78 1
13 91 1
13 104 1
14 1 1
14 26 2
14 28 1
14 50 1
14 55 1
14 77 1
14 83 1
14 99 1
15 2 1
15 14 2
15 29 1
15 51 1
15 56 1
15 78 1
15 84 1
15 100 1
16 3 1
16 15 2
16 30 1
16 52 1
16 57 1
16 66 1
16 85 1
16 101 1
17 4 1
17 16 2
17 31 1
17 40 1
17 58 1
17 67 1
17 86 1
17 102 1
18 5 1
18 17 2
18 32 1
18 41 1
18 59 1
18 68 1
18 87 1
18 103 1
19 6 1
19 18 2
19 33 1
19 42 1
19 60 1
19 69 1
19 88 1
19 104 1
20 7 1
20 19 2
20 34 1
20 43 1
20 61 1
20 70 1
20 89 1
20 92 1
21 8 1
21 20 2
21 35 1
21 44 1
21 62 1
21 71 1
21 90 1
21 93 1
22 9 1
22 21 2
22 36 1
22 45 1
22 63 1
22 72 1
22 91 1
22 94 1
23 10 1
23 22 2
23 37 1
23 46 1
23 64 1
23 73 1
23 79 1
23 95 1
24 11 1
24 23 2
24 38 1
24 47 1
24 65 1
24 74 1
24 80 1
24 96 1
25 12 1
25 24 2
25 39 1
25 48 1
25 53 1
25 75 1
25 81 1
25 97 1
26 13 1
26 25 2
26 27 1
26 49 1
26 54 1
26 76 1
26 82 1
26 98 1
27 1 1
27 22 1
27 33 2
27 47 1
27 62 1
27 67 1
27 81 1
27 103 1
28 2 1
28 23 1
28 34 2
28 48 1
28 63 1
28 68 1
28 82 1
28 104 1
29 3 1
29 24 1
29 35 2
29 49 1
29 64 1
29 69 1
29 83 1
29 92 1
30 4 1
30 25 1
30 36 2
30 50 1
30 65 1
30 70 1
30 84 1
30 93 1
31 5 1
31 26 1
31 37 2
31 51 1
31 53 1
31 71 1
31 85 1
31 94 1
32 6 1
32 14 1
32 38 2
32 52 1
32 54 1
32 72 1
32 86 1
32 95 1
33 7 1
33 15 1
33 39 2
33 40 1
33 55 1
33 73 1
33 87 1
33 96 1
34 8 1
34 16 1
34 27 2
34 41 1
34 56 1
34 74 1
34 88 1
34 97 1
35 9 1
35 17 1
35 28 2
35 42 1
35 57 1
35 75 1
35 89 1
35 98 1
36 10 1
36 18 1
36 29 2
36 43 1
36 58 1
36 76 1
36 90 1
36 99 1
37 11 1
37 19 1
37 30 2
37 44 1
37 59 1
37 77 1
37 91 1
37 100 1
38 12 1
38 20 1
38 31 2
38 45 1
38 60 1
38 78 1
38 79 1
38 101 1
39 13 1
39 21 1
39 32 2
39 46 1
39 61 1
39 66 1
39 80 1
39 102 1
