%%MatrixMarket matrix coordinate integer general
% Binary matrix over GF(2).
% Coordinate indices are 1-based; omitted entries are zero.
78 208 663
1 1 1
1 47 1
1 73 1
1 93 1
1 106 1
1 145 1
1 165 1
1 191 1
2 2 1
2 48 1
2 74 1
2 94 1
2 105 1
2 106 1
2 146 1
2 166 1
2 192 1
3 3 1
3 49 1
3 75 1
3 95 1
3 108 1
3 147 1
3 167 1
3 193 1
4 4 1
4 50 1
4 76 1
4 96 1
4 107 1
4 108 1
4 148 1
4 168 1
4 194 1
5 5 1
5 51 1
5 77 1
5 97 1
5 110 1
5 149 1
5 169 1
5 195 1
6 6 1
6 52 1
6 78 1
6 98 1
6 109 1
6 110 1
6 150 1
6 170 1
6 196 1
7 7 1
7 27 1
7 53 1
7 99 1
7 112 1
7 151 1
7 171 1
7 197 1
8 8 1
8 28 1
8 54 1
8 100 1
8 111 1
8 112 1
8 152 1
8 172 1
8 198 1
9 9 1
9 29 1
9 55 1
9 101 1
9 114 1
9 153 1
9 173 1
9 199 1
10 10 1
10 30 1
10 56 1
10 102 1
10 113 1
10 114 1
10 154 1
10 174 1
10 200 1
11 11 1
11 31 1
11 57 1
11 103 1
11 116 1
11 155 1
11 175 1
11 201 1
12 12 1
12 32 1
12 58 1
12 104 1
12 115 1
12 116 1
12 156 1
12 176 1
12 202 1
13 13 1
13 33 1
13 59 1
13 79 1
13 118 1
13 131 1
13 177 1
13 203 1
14 14 1
14 34 1
14 60 1
14 80 1
14 117 1
14 118 1
14 132 1
14 178 1
14 204 1
15 15 1
15 35 1
15 61 1
15 81 1
15 120 1
15 133 1
15 179 1
15 205 1
16 16 1
16 36 1
16 62 1
16 82 1
16 119 1
16 120 1
16 134 1
16 180 1
16 206 1
17 17 1
17 37 1
17 63 1
17 83 1
17 122 1
17 135 1
17 181 1
17 207 1
18 18 1
18 38 1
18 64 1
18 84 1
18 121 1
18 122 1
18 136 1
18 182 1
18 208 1
19 19 1
19 39 1
19 65 1
19 85 1
19 124 1
19 137 1
19 157 1
19 183 1
20 20 1
20 40 1
20 66 1
20 86 1
20 123 1
20 124 1
20 138 1
20 158 1
20 184 1
21 21 1
21 41 1
21 67 1
21 87 1
21 126 1
21 139 1
21 159 1
21 185 1
22 22 1
22 42 1
22 68 1
22 88 1
22 125 1
22 126 1
22 140 1
22 160 1
22 186 1
23 23 1
23 43 1
23 69 1
23 89 1
23 128 1
23 141 1
23 161 1
23 187 1
24 24 1
24 44 1
24 70 1
24 90 1
24 127 1
24 128 1
24 142 1
24 162 1
24 188 1
25 25 1
25 45 1
25 71 1
25 91 1
25 130 1
25 143 1
25 163 1
25 189 1
26 26 1
26 46 1
26 72 1
26 92 1
26 129 1
26 130 1
26 144 1
26 164 1
26 190 1
27 1 1
27 29 1
27 63 1
27 81 1
27 109 1
27 132 1
27 161 1
27 193 1
28 2 1
28 30 1
28 64 1
28 82 1
28 110 1
28 131 1
28 132 1
28 162 1
28 194 1
29 3 1
29 31 1
29 65 1
29 83 1
29 111 1
29 134 1
29 163 1
29 195 1
30 4 1
30 32 1
30 66 1
30 84 1
30 112 1
30 133 1
30 134 1
30 164 1
30 196 1
31 5 1
31 33 1
31 67 1
31 85 1
31 113 1
31 136 1
31 165 1
31 197 1
32 6 1
32 34 1
32 68 1
32 86 1
32 114 1
32 135 1
32 136 1
32 166 1
32 198 1
33 7 1
33 35 1
33 69 1
33 87 1
33 115 1
33 138 1
33 167 1
33 199 1
34 8 1
34 36 1
34 70 1
34 88 1
34 116 1
34 137 1
34 138 1
34 168 1
34 200 1
35 9 1
35 37 1
35 71 1
35 89 1
35 117 1
35 140 1
35 169 1
35 201 1
36 10 1
36 38 1
36 72 1
36 90 1
36 118 1
36 139 1
36 140 1
36 170 1
36 202 1
37 11 1
37 39 1
37 73 1
37 91 1
37 119 1
37 142 1
37 171 1
37 203 1
38 12 1
38 40 1
38 74 1
38 92 1
38 120 1
38 141 1
38 142 1
38 172 1
38 204 1
39 13 1
39 41 1
39 75 1
39 93 1
39 121 1
39 144 1
39 173 1
39 205 1
40 14 1
40 42 1
40 76 1
40 94 1
40 122 1
40 143 1
40 144 1
40 174 1
40 206 1
41 15 1
41 43 1
41 77 1
41 95 1
41 123 1
41 146 1
41 175 1
41 207 1
42 16 1
42 44 1
42 78 1
42 96 1
42 124 1
42 145 1
42 146 1
42 176 1
42 208 1
43 17 1
43 45 1
43 53 1
43 97 1
43 125 1
43 148 1
43 177 1
43 183 1
44 18 1
44 46 1
44 54 1
44 98 1
44 126 1
44 147 1
44 148 1
44 178 1
44 184 1
45 19 1
45 47 1
45 55 1
45 99 1
45 127 1
45 150 1
45 179 1
45 185 1
46 20 1
46 48 1
46 56 1
46 100 1
46 128 1
46 149 1
46 150 1
46 180 1
46 186 1
47 21 1
47 49 1
47 57 1
47 101 1
47 129 1
47 152 1
47 181 1
47 187 1
48 22 1
48 50 1
48 58 1
48 102 1
48 130 1
48 151 1
48 152 1
48 182 1
48 188 1
49 23 1
49 51 1
49 59 1
49 103 1
49 105 1
49 154 1
49 157 1
49 189 1
50 24 1
50 52 1
50 60 1
50 104 1
50 106 1
50 153 1
50 154 1
50 158 1
50 190 1
51 25 1
51 27 1
51 61 1
51 79 1
51 107 1
51 156 1
51 159 1
51 191 1
52 26 1
52 28 1
52 62 1
52 80 1
52 108 1
52 155 1
52 156 1
52 160 1
52 192 1
53 1 1
53 43 1
53 61 1
53 99 1
53 121 1
53 139 1
53 158 1
53 203 1
54 2 1
54 44 1
54 62 1
54 100 1
54 122 1
54 140 1
54 157 1
54 158 1
54 204 1
55 3 1
55 45 1
55 63 1
55 101 1
55 123 1
55 141 1
55 160 1
55 205 1
56 4 1
56 46 1
56 64 1
56 102 1
56 124 1
56 142 1
56 159 1
56 160 1
56 206 1
57 5 1
57 47 1
57 65 1
57 103 1
57 125 1
57 143 1
57 162 1
57 207 1
58 6 1
58 48 1
58 66 1
58 104 1
58 126 1
58 144 1
58 161 1
58 162 1
58 208 1
59 7 1
59 49 1
59 67 1
59 79 1
59 127 1
59 145 1
59 164 1
59 183 1
60 8 1
60 50 1
60 68 1
60 80 1
60 128 1
60 146 1
60 163 1
60 164 1
60 184 1
61 9 1
61 51 1
61 69 1
61 81 1
61 129 1
61 147 1
61 166 1
61 185 1
62 10 1
62 52 1
62 70 1
62 82 1
62 130 1
62 148 1
62 165 1
62 166 1
62 186 1
63 11 1
63 27 1
63 71 1
63 83 1
63 105 1
63 149 1
63 168 1
63 187 1
64 12 1
64 28 1
64 72 1
64 84 1
64 106 1
64 150 1
64 167 1
64 168 1
64 188 1
65 13 1
65 29 1
65 73 1
65 85 1
65 107 1
65 151 1
65 170 1
65 189 1
66 14 1
66 30 1
66 74 1
66 86 1
66 108 1
66 152 1
66 169 1
66 170 1
66 190 1
67 15 1
67 31 1
67 75 1
67 87 1
67 109 1
67 153 1
67 172 1
67 191 1
68 16 1
68 32 1
68 76 1
68 88 1
68 110 1
68 154 1
68 171 1
68 172 1
68 192 1
69 17 1
69 33 1
69 77 1
69 89 1
69 111 1
69 155 1
69 174 1
69 193 1
70 18 1
70 34 1
70 78 1
70 90 1
70 112 1
70 156 1
70 173 1
70 174 1
70 194 1
71 19 1
71 35 1
71 53 1
71 91 1
71 113 1
71 131 1
71 176 1
71 195 1
72 20 1
72 36 1
72 54 1
72 92 1
72 114 1
72 132 1
72 175 1
72 176 1
72 196 1
73 21 1
73 37 1
73 55 1
73 93 1
73 115 1
73 133 1
73 178 1
73 197 1
74 22 1
74 38 1
74 56 1
74 94 1
74 116 1
74 134 1
74 177 1
74 178 1
74 198 1
75 23 1
75 39 1
75 57 1
75 95 1
75 117 1
75 135 1
75 180 1
75 199 1
76 24 1
76 40 1
76 58 1
76 96 1
76 118 1
76 136 1
76 179 1
76 180 1
76 200 1
77 25 1
77 41 1
77 59 1
77 97 1
77 119 1
77 137 1
77 182 1
77 201 1
78 26 1
78 42 1
78 60 1
78 98 1
78 120 1
78 138 1
78 181 1
78 182 1
78 202 1
