%%MatrixMarket matrix coordinate integer general
% GF(4) labels 0,1,2=omega,3=omega+1; arithmetic is NOT integer arithmetic.
% Coordinate indices are 1-based; omitted entries are zero.
39 104 312
1 1 1
1 24 1
1 37 1
1 47 1
1 53 2
1 73 1
1 83 1
1 96 1
2 2 1
2 25 1
2 38 1
2 48 1
2 54 2
2 74 1
2 84 1
2 97 1
3 3 1
3 26 1
3 39 1
3 49 1
3 55 2
3 75 1
3 85 1
3 98 1
4 4 1
4 14 1
4 27 1
4 50 1
4 56 2
4 76 1
4 86 1
4 99 1
5 5 1
5 15 1
5 28 1
5 51 1
5 57 2
5 77 1
5 87 1
5 100 1
6 6 1
6 16 1
6 29 1
6 52 1
6 58 2
6 78 1
6 88 1
6 101 1
7 7 1
7 17 1
7 30 1
7 40 1
7 59 2
7 66 1
7 89 1
7 102 1
8 8 1
8 18 1
8 31 1
8 41 1
8 60 2
8 67 1
8 90 1
8 103 1
9 9 1
9 19 1
9 32 1
9 42 1
9 61 2
9 68 1
9 91 1
9 104 1
10 10 1
10 20 1
10 33 1
10 43 1
10 62 2
10 69 1
10 79 1
10 92 1
11 11 1
11 21 1
11 34 1
11 44 1
11 63 2
11 70 1
11 80 1
11 93 1
12 12 1
12 22 1
12 35 1
12 45 1
12 64 2
12 71 1
12 81 1
12 94 1
13 13 1
13 23 1
13 36 1
13 46 1
13 65 2
13 72 1
13 82 1
13 95 1
14 1 1
14 15 1
14 32 1
14 41 1
14 55 1
14 66 2
14 81 1
14 97 1
15 2 1
15 16 1
15 33 1
15 42 1
15 56 1
15 67 2
15 82 1
15 98 1
16 3 1
16 17 1
16 34 1
16 43 1
16 57 1
16 68 2
16 83 1
16 99 1
17 4 1
17 18 1
17 35 1
17 44 1
17 58 1
17 69 2
17 84 1
17 100 1
18 5 1
18 19 1
18 36 1
18 45 1
18 59 1
18 70 2
18 85 1
18 101 1
19 6 1
19 20 1
19 37 1
19 46 1
19 60 1
19 71 2
19 86 1
19 102 1
20 7 1
20 21 1
20 38 1
20 47 1
20 61 1
20 72 2
20 87 1
20 103 1
21 8 1
21 22 1
21 39 1
21 48 1
21 62 1
21 73 2
21 88 1
21 104 1
22 9 1
22 23 1
22 27 1
22 49 1
22 63 1
22 74 2
22 89 1
22 92 1
23 10 1
23 24 1
23 28 1
23 50 1
23 64 1
23 75 2
23 90 1
23 93 1
24 11 1
24 25 1
24 29 1
24 51 1
24 65 1
24 76 2
24 91 1
24 94 1
25 12 1
25 26 1
25 30 1
25 52 1
25 53 1
25 77 2
25 79 1
25 95 1
26 13 1
26 14 1
26 31 1
26 40 1
26 54 1
26 78 2
26 80 1
26 96 1
27 1 1
27 22 1
27 31 1
27 50 1
27 61 1
27 70 1
27 79 2
27 102 1
28 2 1
28 23 1
28 32 1
28 51 1
28 62 1
28 71 1
28 80 2
28 103 1
29 3 1
29 24 1
29 33 1
29 52 1
29 63 1
29 72 1
29 81 2
29 104 1
30 4 1
30 25 1
30 34 1
30 40 1
30 64 1
30 73 1
30 82 2
30 92 1
31 5 1
31 26 1
31 35 1
31 41 1
31 65 1
31 74 1
31 83 2
31 93 1
32 6 1
32 14 1
32 36 1
32 42 1
32 53 1
32 75 1
32 84 2
32 94 1
33 7 1
33 15 1
33 37 1
33 43 1
33 54 1
33 76 1
33 85 2
33 95 1
34 8 1
34 16 1
34 38 1
34 44 1
34 55 1
34 77 1
34 86 2
34 96 1
35 9 1
35 17 1
35 39 1
35 45 1
35 56 1
35 78 1
35 87 2
35 97 1
36 10 1
36 18 1
36 27 1
36 46 1
36 57 1
36 66 1
36 88 2
36 98 1
37 11 1
37 19 1
37 28 1
37 47 1
37 58 1
37 67 1
37 89 2
37 99 1
38 12 1
38 20 1
38 29 1
38 48 1
38 59 1
38 68 1
38 90 2
38 100 1
39 13 1
39 21 1
39 30 1
39 49 1
39 60 1
39 69 1
39 91 2
39 101 1
