%%MatrixMarket matrix coordinate integer general
% Binary matrix over GF(2).
% Coordinate indices are 1-based; omitted entries are zero.
52 208 1222
1 28 1
1 37 1
1 43 1
1 79 1
1 135 1
1 139 1
1 140 1
1 141 1
1 145 1
1 146 1
1 147 1
1 153 1
1 158 1
1 159 1
1 160 1
1 165 1
1 166 1
1 167 1
1 171 1
1 172 1
1 184 1
1 197 1
1 199 1
1 203 1
2 30 1
2 39 1
2 45 1
2 81 1
2 137 1
2 141 1
2 142 1
2 143 1
2 147 1
2 148 1
2 149 1
2 155 1
2 160 1
2 161 1
2 162 1
2 167 1
2 168 1
2 169 1
2 173 1
2 174 1
2 186 1
2 199 1
2 201 1
2 205 1
3 32 1
3 41 1
3 47 1
3 83 1
3 131 1
3 139 1
3 143 1
3 144 1
3 145 1
3 149 1
3 150 1
3 151 1
3 162 1
3 163 1
3 164 1
3 169 1
3 170 1
3 171 1
3 175 1
3 176 1
3 188 1
3 201 1
3 203 1
3 207 1
4 34 1
4 43 1
4 49 1
4 85 1
4 133 1
4 141 1
4 145 1
4 146 1
4 147 1
4 151 1
4 152 1
4 153 1
4 164 1
4 165 1
4 166 1
4 171 1
4 172 1
4 173 1
4 177 1
4 178 1
4 183 1
4 190 1
4 203 1
4 205 1
5 36 1
5 45 1
5 51 1
5 87 1
5 135 1
5 143 1
5 147 1
5 148 1
5 149 1
5 153 1
5 154 1
5 155 1
5 166 1
5 167 1
5 168 1
5 173 1
5 174 1
5 175 1
5 179 1
5 180 1
5 185 1
5 192 1
5 205 1
5 207 1
6 27 1
6 38 1
6 47 1
6 89 1
6 131 1
6 137 1
6 145 1
6 149 1
6 150 1
6 151 1
6 155 1
6 156 1
6 168 1
6 169 1
6 170 1
6 175 1
6 176 1
6 177 1
6 181 1
6 182 1
6 183 1
6 187 1
6 194 1
6 207 1
7 29 1
7 40 1
7 49 1
7 91 1
7 131 1
7 132 1
7 133 1
7 139 1
7 147 1
7 151 1
7 152 1
7 153 1
7 157 1
7 158 1
7 170 1
7 171 1
7 172 1
7 177 1
7 178 1
7 179 1
7 183 1
7 185 1
7 189 1
7 196 1
8 31 1
8 42 1
8 51 1
8 93 1
8 133 1
8 134 1
8 135 1
8 141 1
8 149 1
8 153 1
8 154 1
8 155 1
8 159 1
8 160 1
8 172 1
8 173 1
8 174 1
8 179 1
8 180 1
8 181 1
8 185 1
8 187 1
8 191 1
8 198 1
9 27 1
9 33 1
9 44 1
9 95 1
9 131 1
9 135 1
9 136 1
9 137 1
9 143 1
9 151 1
9 155 1
9 156 1
9 157 1
9 161 1
9 162 1
9 174 1
9 175 1
9 176 1
9 181 1
9 182 1
9 187 1
9 189 1
9 193 1
9 200 1
10 29 1
10 35 1
10 46 1
10 97 1
10 131 1
10 132 1
10 133 1
10 137 1
10 138 1
10 139 1
10 145 1
10 153 1
10 157 1
10 158 1
10 159 1
10 163 1
10 164 1
10 176 1
10 177 1
10 178 1
10 189 1
10 191 1
10 195 1
10 202 1
11 31 1
11 37 1
11 48 1
11 99 1
11 133 1
11 134 1
11 135 1
11 139 1
11 140 1
11 141 1
11 147 1
11 155 1
11 159 1
11 160 1
11 161 1
11 165 1
11 166 1
11 178 1
11 179 1
11 180 1
11 191 1
11 193 1
11 197 1
11 204 1
12 33 1
12 39 1
12 50 1
12 101 1
12 131 1
12 135 1
12 136 1
12 137 1
12 141 1
12 142 1
12 143 1
12 149 1
12 161 1
12 162 1
12 163 1
12 167 1
12 168 1
12 180 1
12 181 1
12 182 1
12 193 1
12 195 1
12 199 1
12 206 1
13 35 1
13 41 1
13 52 1
13 103 1
13 133 1
13 137 1
13 138 1
13 139 1
13 143 1
13 144 1
13 145 1
13 151 1
13 157 1
13 158 1
13 163 1
13 164 1
13 165 1
13 169 1
13 170 1
13 182 1
13 195 1
13 197 1
13 201 1
13 208 1
14 27 1
14 28 1
14 38 1
14 44 1
14 80 1
14 136 1
14 139 1
14 142 1
14 145 1
14 148 1
14 154 1
14 157 1
14 158 1
14 159 1
14 165 1
14 168 1
14 171 1
14 183 1
14 184 1
14 198 1
14 200 1
14 204 1
15 29 1
15 30 1
15 40 1
15 46 1
15 82 1
15 138 1
15 141 1
15 144 1
15 147 1
15 150 1
15 156 1
15 159 1
15 160 1
15 161 1
15 167 1
15 170 1
15 173 1
15 185 1
15 186 1
15 200 1
15 202 1
15 206 1
16 31 1
16 32 1
16 42 1
16 48 1
16 84 1
16 132 1
16 140 1
16 143 1
16 146 1
16 149 1
16 152 1
16 161 1
16 162 1
16 163 1
16 169 1
16 172 1
16 175 1
16 187 1
16 188 1
16 202 1
16 204 1
16 208 1
17 33 1
17 34 1
17 44 1
17 50 1
17 86 1
17 134 1
17 142 1
17 145 1
17 148 1
17 151 1
17 154 1
17 163 1
17 164 1
17 165 1
17 171 1
17 174 1
17 177 1
17 184 1
17 189 1
17 190 1
17 204 1
17 206 1
18 35 1
18 36 1
18 46 1
18 52 1
18 88 1
18 136 1
18 144 1
18 147 1
18 150 1
18 153 1
18 156 1
18 165 1
18 166 1
18 167 1
18 173 1
18 176 1
18 179 1
18 186 1
18 191 1
18 192 1
18 206 1
18 208 1
19 28 1
19 37 1
19 38 1
19 48 1
19 90 1
19 132 1
19 138 1
19 146 1
19 149 1
19 152 1
19 155 1
19 167 1
19 168 1
19 169 1
19 175 1
19 178 1
19 181 1
19 184 1
19 188 1
19 193 1
19 194 1
19 208 1
20 30 1
20 39 1
20 40 1
20 50 1
20 92 1
20 131 1
20 134 1
20 140 1
20 148 1
20 151 1
20 154 1
20 157 1
20 169 1
20 170 1
20 171 1
20 177 1
20 180 1
20 184 1
20 186 1
20 190 1
20 195 1
20 196 1
21 32 1
21 41 1
21 42 1
21 52 1
21 94 1
21 133 1
21 136 1
21 142 1
21 150 1
21 153 1
21 156 1
21 159 1
21 171 1
21 172 1
21 173 1
21 179 1
21 182 1
21 186 1
21 188 1
21 192 1
21 197 1
21 198 1
22 28 1
22 34 1
22 43 1
22 44 1
22 96 1
22 132 1
22 135 1
22 138 1
22 144 1
22 152 1
22 155 1
22 158 1
22 161 1
22 173 1
22 174 1
22 175 1
22 181 1
22 188 1
22 190 1
22 194 1
22 199 1
22 200 1
23 30 1
23 36 1
23 45 1
23 46 1
23 98 1
23 131 1
23 134 1
23 137 1
23 140 1
23 146 1
23 154 1
23 157 1
23 160 1
23 163 1
23 175 1
23 176 1
23 177 1
23 190 1
23 192 1
23 196 1
23 201 1
23 202 1
24 32 1
24 38 1
24 47 1
24 48 1
24 100 1
24 133 1
24 136 1
24 139 1
24 142 1
24 148 1
24 156 1
24 159 1
24 162 1
24 165 1
24 177 1
24 178 1
24 179 1
24 192 1
24 194 1
24 198 1
24 203 1
24 204 1
25 34 1
25 40 1
25 49 1
25 50 1
25 102 1
25 132 1
25 135 1
25 138 1
25 141 1
25 144 1
25 150 1
25 161 1
25 164 1
25 167 1
25 179 1
25 180 1
25 181 1
25 194 1
25 196 1
25 200 1
25 205 1
25 206 1
26 36 1
26 42 1
26 51 1
26 52 1
26 104 1
26 134 1
26 137 1
26 140 1
26 143 1
26 146 1
26 152 1
26 157 1
26 163 1
26 166 1
26 169 1
26 181 1
26 182 1
26 196 1
26 198 1
26 202 1
26 207 1
26 208 1
27 27 1
27 29 1
27 43 1
27 44 1
27 48 1
27 49 1
27 50 1
27 51 1
27 52 1
27 139 1
27 142 1
27 146 1
27 147 1
27 148 1
27 149 1
27 152 1
27 153 1
27 157 1
27 159 1
27 161 1
27 170 1
27 171 1
27 172 1
27 183 1
28 27 1
28 28 1
28 29 1
28 31 1
28 45 1
28 46 1
28 50 1
28 51 1
28 52 1
28 141 1
28 144 1
28 148 1
28 149 1
28 150 1
28 151 1
28 154 1
28 155 1
28 159 1
28 161 1
28 163 1
28 172 1
28 173 1
28 174 1
28 185 1
29 27 1
29 28 1
29 29 1
29 30 1
29 31 1
29 33 1
29 47 1
29 48 1
29 52 1
29 131 1
29 143 1
29 146 1
29 150 1
29 151 1
29 152 1
29 153 1
29 156 1
29 161 1
29 163 1
29 165 1
29 174 1
29 175 1
29 176 1
29 187 1
30 28 1
30 29 1
30 30 1
30 31 1
30 32 1
30 33 1
30 35 1
30 49 1
30 50 1
30 132 1
30 133 1
30 145 1
30 148 1
30 152 1
30 153 1
30 154 1
30 155 1
30 163 1
30 165 1
30 167 1
30 176 1
30 177 1
30 178 1
30 189 1
31 30 1
31 31 1
31 32 1
31 33 1
31 34 1
31 35 1
31 37 1
31 51 1
31 52 1
31 131 1
31 134 1
31 135 1
31 147 1
31 150 1
31 154 1
31 155 1
31 156 1
31 165 1
31 167 1
31 169 1
31 178 1
31 179 1
31 180 1
31 191 1
32 27 1
32 28 1
32 32 1
32 33 1
32 34 1
32 35 1
32 36 1
32 37 1
32 39 1
32 131 1
32 132 1
32 133 1
32 136 1
32 137 1
32 149 1
32 152 1
32 156 1
32 167 1
32 169 1
32 171 1
32 180 1
32 181 1
32 182 1
32 193 1
33 29 1
33 30 1
33 34 1
33 35 1
33 36 1
33 37 1
33 38 1
33 39 1
33 41 1
33 132 1
33 133 1
33 134 1
33 135 1
33 138 1
33 139 1
33 151 1
33 154 1
33 157 1
33 158 1
33 169 1
33 171 1
33 173 1
33 182 1
33 195 1
34 31 1
34 32 1
34 36 1
34 37 1
34 38 1
34 39 1
34 40 1
34 41 1
34 43 1
34 134 1
34 135 1
34 136 1
34 137 1
34 140 1
34 141 1
34 153 1
34 156 1
34 158 1
34 159 1
34 160 1
34 171 1
34 173 1
34 175 1
34 197 1
35 33 1
35 34 1
35 38 1
35 39 1
35 40 1
35 41 1
35 42 1
35 43 1
35 45 1
35 132 1
35 136 1
35 137 1
35 138 1
35 139 1
35 142 1
35 143 1
35 155 1
35 160 1
35 161 1
35 162 1
35 173 1
35 175 1
35 177 1
35 199 1
36 35 1
36 36 1
36 40 1
36 41 1
36 42 1
36 43 1
36 44 1
36 45 1
36 47 1
36 131 1
36 134 1
36 138 1
36 139 1
36 140 1
36 141 1
36 144 1
36 145 1
36 162 1
36 163 1
36 164 1
36 175 1
36 177 1
36 179 1
36 201 1
37 37 1
37 38 1
37 42 1
37 43 1
37 44 1
37 45 1
37 46 1
37 47 1
37 49 1
37 133 1
37 136 1
37 140 1
37 141 1
37 142 1
37 143 1
37 146 1
37 147 1
37 164 1
37 165 1
37 166 1
37 177 1
37 179 1
37 181 1
37 203 1
38 39 1
38 40 1
38 44 1
38 45 1
38 46 1
38 47 1
38 48 1
38 49 1
38 51 1
38 135 1
38 138 1
38 142 1
38 143 1
38 144 1
38 145 1
38 148 1
38 149 1
38 157 1
38 166 1
38 167 1
38 168 1
38 179 1
38 181 1
38 205 1
39 27 1
39 41 1
39 42 1
39 46 1
39 47 1
39 48 1
39 49 1
39 50 1
39 51 1
39 137 1
39 140 1
39 144 1
39 145 1
39 146 1
39 147 1
39 150 1
39 151 1
39 157 1
39 159 1
39 168 1
39 169 1
39 170 1
39 181 1
39 207 1
40 28 1
40 30 1
40 43 1
40 47 1
40 48 1
40 49 1
40 51 1
40 140 1
40 141 1
40 142 1
40 145 1
40 146 1
40 147 1
40 150 1
40 151 1
40 152 1
40 154 1
40 158 1
40 160 1
40 162 1
40 169 1
40 170 1
40 171 1
40 184 1
41 27 1
41 30 1
41 32 1
41 45 1
41 49 1
41 50 1
41 51 1
41 142 1
41 143 1
41 144 1
41 147 1
41 148 1
41 149 1
41 152 1
41 153 1
41 154 1
41 156 1
41 160 1
41 162 1
41 164 1
41 171 1
41 172 1
41 173 1
41 186 1
42 27 1
42 29 1
42 32 1
42 34 1
42 47 1
42 51 1
42 52 1
42 132 1
42 144 1
42 145 1
42 146 1
42 149 1
42 150 1
42 151 1
42 154 1
42 155 1
42 156 1
42 162 1
42 164 1
42 166 1
42 173 1
42 174 1
42 175 1
42 188 1
43 27 1
43 28 1
43 29 1
43 31 1
43 34 1
43 36 1
43 49 1
43 131 1
43 132 1
43 134 1
43 146 1
43 147 1
43 148 1
43 151 1
43 152 1
43 153 1
43 156 1
43 164 1
43 166 1
43 168 1
43 175 1
43 176 1
43 177 1
43 190 1
44 29 1
44 30 1
44 31 1
44 33 1
44 36 1
44 38 1
44 51 1
44 132 1
44 133 1
44 134 1
44 136 1
44 148 1
44 149 1
44 150 1
44 153 1
44 154 1
44 155 1
44 166 1
44 168 1
44 170 1
44 177 1
44 178 1
44 179 1
44 192 1
45 27 1
45 31 1
45 32 1
45 33 1
45 35 1
45 38 1
45 40 1
45 131 1
45 134 1
45 135 1
45 136 1
45 138 1
45 150 1
45 151 1
45 152 1
45 155 1
45 156 1
45 168 1
45 170 1
45 172 1
45 179 1
45 180 1
45 181 1
45 194 1
46 29 1
46 33 1
46 34 1
46 35 1
46 37 1
46 40 1
46 42 1
46 131 1
46 132 1
46 133 1
46 136 1
46 137 1
46 138 1
46 140 1
46 152 1
46 153 1
46 154 1
46 157 1
46 170 1
46 172 1
46 174 1
46 181 1
46 182 1
46 196 1
47 31 1
47 35 1
47 36 1
47 37 1
47 39 1
47 42 1
47 44 1
47 133 1
47 134 1
47 135 1
47 138 1
47 139 1
47 140 1
47 142 1
47 154 1
47 155 1
47 156 1
47 157 1
47 158 1
47 159 1
47 172 1
47 174 1
47 176 1
47 198 1
48 33 1
48 37 1
48 38 1
48 39 1
48 41 1
48 44 1
48 46 1
48 131 1
48 132 1
48 135 1
48 136 1
48 137 1
48 140 1
48 141 1
48 142 1
48 144 1
48 156 1
48 159 1
48 160 1
48 161 1
48 174 1
48 176 1
48 178 1
48 200 1
49 35 1
49 39 1
49 40 1
49 41 1
49 43 1
49 46 1
49 48 1
49 132 1
49 133 1
49 134 1
49 137 1
49 138 1
49 139 1
49 142 1
49 143 1
49 144 1
49 146 1
49 161 1
49 162 1
49 163 1
49 176 1
49 178 1
49 180 1
49 202 1
50 37 1
50 41 1
50 42 1
50 43 1
50 45 1
50 48 1
50 50 1
50 134 1
50 135 1
50 136 1
50 139 1
50 140 1
50 141 1
50 144 1
50 145 1
50 146 1
50 148 1
50 163 1
50 164 1
50 165 1
50 178 1
50 180 1
50 182 1
50 204 1
51 39 1
51 43 1
51 44 1
51 45 1
51 47 1
51 50 1
51 52 1
51 136 1
51 137 1
51 138 1
51 141 1
51 142 1
51 143 1
51 146 1
51 147 1
51 148 1
51 150 1
51 158 1
51 165 1
51 166 1
51 167 1
51 180 1
51 182 1
51 206 1
52 28 1
52 41 1
52 45 1
52 46 1
52 47 1
52 49 1
52 52 1
52 138 1
52 139 1
52 140 1
52 143 1
52 144 1
52 145 1
52 148 1
52 149 1
52 150 1
52 152 1
52 158 1
52 160 1
52 167 1
52 168 1
52 169 1
52 182 1
52 208 1
