%%MatrixMarket matrix coordinate integer general
% GF(4) labels 0,1,2=omega,3=omega+1; arithmetic is NOT integer arithmetic.
% Coordinate indices are 1-based; omitted entries are zero.
26 104 494
1 14 2
1 19 1
1 22 1
1 40 1
1 68 1
1 70 3
1 71 1
1 73 3
1 74 1
1 77 1
1 79 2
1 80 3
1 83 3
1 84 1
1 86 3
1 92 2
1 99 1
1 100 1
1 102 1
2 15 2
2 20 1
2 23 1
2 41 1
2 69 1
2 71 3
2 72 1
2 74 3
2 75 1
2 78 1
2 80 2
2 81 3
2 84 3
2 85 1
2 87 3
2 93 2
2 100 1
2 101 1
2 103 1
3 16 2
3 21 1
3 24 1
3 42 1
3 66 1
3 70 1
3 72 3
3 73 1
3 75 3
3 76 1
3 81 2
3 82 3
3 85 3
3 86 1
3 88 3
3 94 2
3 101 1
3 102 1
3 104 1
4 17 2
4 22 1
4 25 1
4 43 1
4 67 1
4 71 1
4 73 3
4 74 1
4 76 3
4 77 1
4 82 2
4 83 3
4 86 3
4 87 1
4 89 3
4 92 1
4 95 2
4 102 1
4 103 1
5 18 2
5 23 1
5 26 1
5 44 1
5 68 1
5 72 1
5 74 3
5 75 1
5 77 3
5 78 1
5 83 2
5 84 3
5 87 3
5 88 1
5 90 3
5 93 1
5 96 2
5 103 1
5 104 1
6 14 1
6 19 2
6 24 1
6 45 1
6 66 1
6 69 1
6 73 1
6 75 3
6 76 1
6 78 3
6 84 2
6 85 3
6 88 3
6 89 1
6 91 3
6 92 1
6 94 1
6 97 2
6 104 1
7 15 1
7 20 2
7 25 1
7 46 1
7 66 3
7 67 1
7 70 1
7 74 1
7 76 3
7 77 1
7 79 3
7 85 2
7 86 3
7 89 3
7 90 1
7 92 1
7 93 1
7 95 1
7 98 2
8 16 1
8 21 2
8 26 1
8 47 1
8 67 3
8 68 1
8 71 1
8 75 1
8 77 3
8 78 1
8 80 3
8 86 2
8 87 3
8 90 3
8 91 1
8 93 1
8 94 1
8 96 1
8 99 2
9 14 1
9 17 1
9 22 2
9 48 1
9 66 1
9 68 3
9 69 1
9 72 1
9 76 1
9 78 3
9 79 1
9 81 3
9 87 2
9 88 3
9 91 3
9 94 1
9 95 1
9 97 1
9 100 2
10 15 1
10 18 1
10 23 2
10 49 1
10 66 3
10 67 1
10 69 3
10 70 1
10 73 1
10 77 1
10 79 3
10 80 1
10 82 3
10 88 2
10 89 3
10 95 1
10 96 1
10 98 1
10 101 2
11 16 1
11 19 1
11 24 2
11 50 1
11 67 3
11 68 1
11 70 3
11 71 1
11 74 1
11 78 1
11 80 3
11 81 1
11 83 3
11 89 2
11 90 3
11 96 1
11 97 1
11 99 1
11 102 2
12 17 1
12 20 1
12 25 2
12 51 1
12 66 1
12 68 3
12 69 1
12 71 3
12 72 1
12 75 1
12 81 3
12 82 1
12 84 3
12 90 2
12 91 3
12 97 1
12 98 1
12 100 1
12 103 2
13 18 1
13 21 1
13 26 2
13 52 1
13 67 1
13 69 3
13 70 1
13 72 3
13 73 1
13 76 1
13 79 3
13 82 3
13 83 1
13 85 3
13 91 2
13 98 1
13 99 1
13 101 1
13 104 2
14 14 1
14 15 1
14 22 3
14 24 2
14 25 3
14 26 3
14 70 1
14 71 2
14 73 2
14 74 3
14 75 1
14 76 2
14 77 1
14 79 1
14 80 1
14 81 1
14 85 2
14 86 3
14 92 1
15 14 3
15 15 1
15 16 1
15 23 3
15 25 2
15 26 3
15 71 1
15 72 2
15 74 2
15 75 3
15 76 1
15 77 2
15 78 1
15 80 1
15 81 1
15 82 1
15 86 2
15 87 3
15 93 1
16 14 3
16 15 3
16 16 1
16 17 1
16 24 3
16 26 2
16 66 1
16 72 1
16 73 2
16 75 2
16 76 3
16 77 1
16 78 2
16 81 1
16 82 1
16 83 1
16 87 2
16 88 3
16 94 1
17 14 2
17 15 3
17 16 3
17 17 1
17 18 1
17 25 3
17 66 2
17 67 1
17 73 1
17 74 2
17 76 2
17 77 3
17 78 1
17 82 1
17 83 1
17 84 1
17 88 2
17 89 3
17 95 1
18 15 2
18 16 3
18 17 3
18 18 1
18 19 1
18 26 3
18 66 1
18 67 2
18 68 1
18 74 1
18 75 2
18 77 2
18 78 3
18 83 1
18 84 1
18 85 1
18 89 2
18 90 3
18 96 1
19 14 3
19 16 2
19 17 3
19 18 3
19 19 1
19 20 1
19 66 3
19 67 1
19 68 2
19 69 1
19 75 1
19 76 2
19 78 2
19 84 1
19 85 1
19 86 1
19 90 2
19 91 3
19 97 1
20 15 3
20 17 2
20 18 3
20 19 3
20 20 1
20 21 1
20 66 2
20 67 3
20 68 1
20 69 2
20 70 1
20 76 1
20 77 2
20 79 3
20 85 1
20 86 1
20 87 1
20 91 2
20 98 1
21 16 3
21 18 2
21 19 3
21 20 3
21 21 1
21 22 1
21 67 2
21 68 3
21 69 1
21 70 2
21 71 1
21 77 1
21 78 2
21 79 2
21 80 3
21 86 1
21 87 1
21 88 1
21 99 1
22 17 3
22 19 2
22 20 3
22 21 3
22 22 1
22 23 1
22 66 2
22 68 2
22 69 3
22 70 1
22 71 2
22 72 1
22 78 1
22 80 2
22 81 3
22 87 1
22 88 1
22 89 1
22 100 1
23 18 3
23 20 2
23 21 3
23 22 3
23 23 1
23 24 1
23 66 1
23 67 2
23 69 2
23 70 3
23 71 1
23 72 2
23 73 1
23 81 2
23 82 3
23 88 1
23 89 1
23 90 1
23 101 1
24 19 3
24 21 2
24 22 3
24 23 3
24 24 1
24 25 1
24 67 1
24 68 2
24 70 2
24 71 3
24 72 1
24 73 2
24 74 1
24 82 2
24 83 3
24 89 1
24 90 1
24 91 1
24 102 1
25 20 3
25 22 2
25 23 3
25 24 3
25 25 1
25 26 1
25 68 1
25 69 2
25 71 2
25 72 3
25 73 1
25 74 2
25 75 1
25 79 1
25 83 2
25 84 3
25 90 1
25 91 1
25 103 1
26 14 1
26 21 3
26 23 2
26 24 3
26 25 3
26 26 1
26 69 1
26 70 2
26 72 2
26 73 3
26 74 1
26 75 2
26 76 1
26 79 1
26 80 1
26 84 2
26 85 3
26 91 1
26 104 1
