%%MatrixMarket matrix coordinate integer general
% Binary matrix over GF(2).
% Coordinate indices are 1-based; omitted entries are zero.
52 208 1222
1 3 1
1 5 1
1 7 1
1 19 1
1 20 1
1 22 1
1 54 1
1 58 1
1 59 1
1 71 1
1 74 1
1 75 1
1 77 1
1 78 1
1 79 1
1 105 1
1 106 1
1 108 1
1 111 1
1 112 1
1 125 1
1 127 1
1 129 1
1 130 1
2 5 1
2 7 1
2 9 1
2 21 1
2 22 1
2 24 1
2 53 1
2 54 1
2 56 1
2 60 1
2 61 1
2 73 1
2 76 1
2 77 1
2 81 1
2 105 1
2 106 1
2 107 1
2 108 1
2 110 1
2 113 1
2 114 1
2 127 1
2 129 1
3 7 1
3 9 1
3 11 1
3 23 1
3 24 1
3 26 1
3 53 1
3 55 1
3 56 1
3 58 1
3 62 1
3 63 1
3 75 1
3 78 1
3 83 1
3 105 1
3 107 1
3 108 1
3 109 1
3 110 1
3 112 1
3 115 1
3 116 1
3 129 1
4 2 1
4 9 1
4 11 1
4 13 1
4 25 1
4 26 1
4 54 1
4 55 1
4 57 1
4 58 1
4 60 1
4 64 1
4 65 1
4 77 1
4 85 1
4 105 1
4 107 1
4 109 1
4 110 1
4 111 1
4 112 1
4 114 1
4 117 1
4 118 1
5 1 1
5 2 1
5 4 1
5 11 1
5 13 1
5 15 1
5 53 1
5 56 1
5 57 1
5 59 1
5 60 1
5 62 1
5 66 1
5 67 1
5 87 1
5 107 1
5 109 1
5 111 1
5 112 1
5 113 1
5 114 1
5 116 1
5 119 1
5 120 1
6 3 1
6 4 1
6 6 1
6 13 1
6 15 1
6 17 1
6 55 1
6 58 1
6 59 1
6 61 1
6 62 1
6 64 1
6 68 1
6 69 1
6 89 1
6 109 1
6 111 1
6 113 1
6 114 1
6 115 1
6 116 1
6 118 1
6 121 1
6 122 1
7 5 1
7 6 1
7 8 1
7 15 1
7 17 1
7 19 1
7 57 1
7 60 1
7 61 1
7 63 1
7 64 1
7 66 1
7 70 1
7 71 1
7 91 1
7 111 1
7 113 1
7 115 1
7 116 1
7 117 1
7 118 1
7 120 1
7 123 1
7 124 1
8 7 1
8 8 1
8 10 1
8 17 1
8 19 1
8 21 1
8 59 1
8 62 1
8 63 1
8 65 1
8 66 1
8 68 1
8 72 1
8 73 1
8 93 1
8 113 1
8 115 1
8 117 1
8 118 1
8 119 1
8 120 1
8 122 1
8 125 1
8 126 1
9 9 1
9 10 1
9 12 1
9 19 1
9 21 1
9 23 1
9 61 1
9 64 1
9 65 1
9 67 1
9 68 1
9 70 1
9 74 1
9 75 1
9 95 1
9 115 1
9 117 1
9 119 1
9 120 1
9 121 1
9 122 1
9 124 1
9 127 1
9 128 1
10 11 1
10 12 1
10 14 1
10 21 1
10 23 1
10 25 1
10 63 1
10 66 1
10 67 1
10 69 1
10 70 1
10 72 1
10 76 1
10 77 1
10 97 1
10 117 1
10 119 1
10 121 1
10 122 1
10 123 1
10 124 1
10 126 1
10 129 1
10 130 1
11 1 1
11 13 1
11 14 1
11 16 1
11 23 1
11 25 1
11 53 1
11 65 1
11 68 1
11 69 1
11 71 1
11 72 1
11 74 1
11 78 1
11 99 1
11 105 1
11 106 1
11 119 1
11 121 1
11 123 1
11 124 1
11 125 1
11 126 1
11 128 1
12 1 1
12 3 1
12 15 1
12 16 1
12 18 1
12 25 1
12 54 1
12 55 1
12 67 1
12 70 1
12 71 1
12 73 1
12 74 1
12 76 1
12 101 1
12 107 1
12 108 1
12 121 1
12 123 1
12 125 1
12 126 1
12 127 1
12 128 1
12 130 1
13 1 1
13 3 1
13 5 1
13 17 1
13 18 1
13 20 1
13 56 1
13 57 1
13 69 1
13 72 1
13 73 1
13 75 1
13 76 1
13 78 1
13 103 1
13 106 1
13 109 1
13 110 1
13 123 1
13 125 1
13 127 1
13 128 1
13 129 1
13 130 1
14 4 1
14 6 1
14 8 1
14 19 1
14 21 1
14 22 1
14 53 1
14 54 1
14 57 1
14 58 1
14 60 1
14 72 1
14 73 1
14 74 1
14 76 1
14 77 1
14 80 1
14 105 1
14 107 1
14 108 1
14 111 1
14 126 1
14 128 1
14 129 1
15 6 1
15 8 1
15 10 1
15 21 1
15 23 1
15 24 1
15 53 1
15 55 1
15 56 1
15 59 1
15 60 1
15 62 1
15 74 1
15 75 1
15 76 1
15 78 1
15 82 1
15 105 1
15 107 1
15 109 1
15 110 1
15 113 1
15 128 1
15 130 1
16 8 1
16 10 1
16 12 1
16 23 1
16 25 1
16 26 1
16 54 1
16 55 1
16 57 1
16 58 1
16 61 1
16 62 1
16 64 1
16 76 1
16 77 1
16 78 1
16 84 1
16 106 1
16 107 1
16 109 1
16 111 1
16 112 1
16 115 1
16 130 1
17 1 1
17 2 1
17 10 1
17 12 1
17 14 1
17 25 1
17 53 1
17 54 1
17 56 1
17 57 1
17 59 1
17 60 1
17 63 1
17 64 1
17 66 1
17 78 1
17 86 1
17 106 1
17 108 1
17 109 1
17 111 1
17 113 1
17 114 1
17 117 1
18 1 1
18 3 1
18 4 1
18 12 1
18 14 1
18 16 1
18 54 1
18 55 1
18 56 1
18 58 1
18 59 1
18 61 1
18 62 1
18 65 1
18 66 1
18 68 1
18 88 1
18 108 1
18 110 1
18 111 1
18 113 1
18 115 1
18 116 1
18 119 1
19 3 1
19 5 1
19 6 1
19 14 1
19 16 1
19 18 1
19 56 1
19 57 1
19 58 1
19 60 1
19 61 1
19 63 1
19 64 1
19 67 1
19 68 1
19 70 1
19 90 1
19 110 1
19 112 1
19 113 1
19 115 1
19 117 1
19 118 1
19 121 1
20 5 1
20 7 1
20 8 1
20 16 1
20 18 1
20 20 1
20 58 1
20 59 1
20 60 1
20 62 1
20 63 1
20 65 1
20 66 1
20 69 1
20 70 1
20 72 1
20 92 1
20 112 1
20 114 1
20 115 1
20 117 1
20 119 1
20 120 1
20 123 1
21 7 1
21 9 1
21 10 1
21 18 1
21 20 1
21 22 1
21 60 1
21 61 1
21 62 1
21 64 1
21 65 1
21 67 1
21 68 1
21 71 1
21 72 1
21 74 1
21 94 1
21 114 1
21 116 1
21 117 1
21 119 1
21 121 1
21 122 1
21 125 1
22 9 1
22 11 1
22 12 1
22 20 1
22 22 1
22 24 1
22 62 1
22 63 1
22 64 1
22 66 1
22 67 1
22 69 1
22 70 1
22 73 1
22 74 1
22 76 1
22 96 1
22 116 1
22 118 1
22 119 1
22 121 1
22 123 1
22 124 1
22 127 1
23 11 1
23 13 1
23 14 1
23 22 1
23 24 1
23 26 1
23 64 1
23 65 1
23 66 1
23 68 1
23 69 1
23 71 1
23 72 1
23 75 1
23 76 1
23 78 1
23 98 1
23 118 1
23 120 1
23 121 1
23 123 1
23 125 1
23 126 1
23 129 1
24 2 1
24 13 1
24 15 1
24 16 1
24 24 1
24 26 1
24 54 1
24 66 1
24 67 1
24 68 1
24 70 1
24 71 1
24 73 1
24 74 1
24 77 1
24 78 1
24 100 1
24 105 1
24 120 1
24 122 1
24 123 1
24 125 1
24 127 1
24 128 1
25 2 1
25 4 1
25 15 1
25 17 1
25 18 1
25 26 1
25 53 1
25 54 1
25 56 1
25 68 1
25 69 1
25 70 1
25 72 1
25 73 1
25 75 1
25 76 1
25 102 1
25 107 1
25 122 1
25 124 1
25 125 1
25 127 1
25 129 1
25 130 1
26 2 1
26 4 1
26 6 1
26 17 1
26 19 1
26 20 1
26 55 1
26 56 1
26 58 1
26 70 1
26 71 1
26 72 1
26 74 1
26 75 1
26 77 1
26 78 1
26 104 1
26 105 1
26 106 1
26 109 1
26 124 1
26 126 1
26 127 1
26 129 1
27 5 1
27 6 1
27 8 1
27 19 1
27 20 1
27 23 1
27 25 1
27 26 1
27 53 1
27 54 1
27 57 1
27 59 1
27 60 1
27 63 1
27 71 1
27 77 1
27 80 1
27 85 1
27 89 1
27 91 1
27 111 1
27 117 1
27 128 1
27 183 1
28 1 1
28 2 1
28 7 1
28 8 1
28 10 1
28 21 1
28 22 1
28 25 1
28 53 1
28 55 1
28 56 1
28 59 1
28 61 1
28 62 1
28 65 1
28 73 1
28 82 1
28 87 1
28 91 1
28 93 1
28 113 1
28 119 1
28 130 1
28 185 1
29 1 1
29 3 1
29 4 1
29 9 1
29 10 1
29 12 1
29 23 1
29 24 1
29 55 1
29 57 1
29 58 1
29 61 1
29 63 1
29 64 1
29 67 1
29 75 1
29 84 1
29 89 1
29 93 1
29 95 1
29 106 1
29 115 1
29 121 1
29 187 1
30 3 1
30 5 1
30 6 1
30 11 1
30 12 1
30 14 1
30 25 1
30 26 1
30 57 1
30 59 1
30 60 1
30 63 1
30 65 1
30 66 1
30 69 1
30 77 1
30 86 1
30 91 1
30 95 1
30 97 1
30 108 1
30 117 1
30 123 1
30 189 1
31 1 1
31 2 1
31 5 1
31 7 1
31 8 1
31 13 1
31 14 1
31 16 1
31 53 1
31 59 1
31 61 1
31 62 1
31 65 1
31 67 1
31 68 1
31 71 1
31 88 1
31 93 1
31 97 1
31 99 1
31 110 1
31 119 1
31 125 1
31 191 1
32 3 1
32 4 1
32 7 1
32 9 1
32 10 1
32 15 1
32 16 1
32 18 1
32 55 1
32 61 1
32 63 1
32 64 1
32 67 1
32 69 1
32 70 1
32 73 1
32 90 1
32 95 1
32 99 1
32 101 1
32 112 1
32 121 1
32 127 1
32 193 1
33 5 1
33 6 1
33 9 1
33 11 1
33 12 1
33 17 1
33 18 1
33 20 1
33 57 1
33 63 1
33 65 1
33 66 1
33 69 1
33 71 1
33 72 1
33 75 1
33 92 1
33 97 1
33 101 1
33 103 1
33 114 1
33 123 1
33 129 1
33 195 1
34 7 1
34 8 1
34 11 1
34 13 1
34 14 1
34 19 1
34 20 1
34 22 1
34 59 1
34 65 1
34 67 1
34 68 1
34 71 1
34 73 1
34 74 1
34 77 1
34 79 1
34 94 1
34 99 1
34 103 1
34 105 1
34 116 1
34 125 1
34 197 1
35 9 1
35 10 1
35 13 1
35 15 1
35 16 1
35 21 1
35 22 1
35 24 1
35 53 1
35 61 1
35 67 1
35 69 1
35 70 1
35 73 1
35 75 1
35 76 1
35 79 1
35 81 1
35 96 1
35 101 1
35 107 1
35 118 1
35 127 1
35 199 1
36 11 1
36 12 1
36 15 1
36 17 1
36 18 1
36 23 1
36 24 1
36 26 1
36 55 1
36 63 1
36 69 1
36 71 1
36 72 1
36 75 1
36 77 1
36 78 1
36 81 1
36 83 1
36 98 1
36 103 1
36 109 1
36 120 1
36 129 1
36 201 1
37 2 1
37 13 1
37 14 1
37 17 1
37 19 1
37 20 1
37 25 1
37 26 1
37 53 1
37 54 1
37 57 1
37 65 1
37 71 1
37 73 1
37 74 1
37 77 1
37 79 1
37 83 1
37 85 1
37 100 1
37 105 1
37 111 1
37 122 1
37 203 1
38 1 1
38 2 1
38 4 1
38 15 1
38 16 1
38 19 1
38 21 1
38 22 1
38 53 1
38 55 1
38 56 1
38 59 1
38 67 1
38 73 1
38 75 1
38 76 1
38 81 1
38 85 1
38 87 1
38 102 1
38 107 1
38 113 1
38 124 1
38 205 1
39 3 1
39 4 1
39 6 1
39 17 1
39 18 1
39 21 1
39 23 1
39 24 1
39 55 1
39 57 1
39 58 1
39 61 1
39 69 1
39 75 1
39 77 1
39 78 1
39 83 1
39 87 1
39 89 1
39 104 1
39 109 1
39 115 1
39 126 1
39 207 1
40 5 1
40 7 1
40 8 1
40 19 1
40 24 1
40 25 1
40 53 1
40 58 1
40 59 1
40 64 1
40 72 1
40 78 1
40 79 1
40 80 1
40 86 1
40 90 1
40 92 1
40 112 1
40 118 1
40 127 1
40 128 1
40 184 1
41 1 1
41 7 1
41 9 1
41 10 1
41 21 1
41 26 1
41 54 1
41 55 1
41 60 1
41 61 1
41 66 1
41 74 1
41 81 1
41 82 1
41 88 1
41 92 1
41 94 1
41 114 1
41 120 1
41 129 1
41 130 1
41 186 1
42 2 1
42 3 1
42 9 1
42 11 1
42 12 1
42 23 1
42 56 1
42 57 1
42 62 1
42 63 1
42 68 1
42 76 1
42 83 1
42 84 1
42 90 1
42 94 1
42 96 1
42 105 1
42 106 1
42 116 1
42 122 1
42 188 1
43 4 1
43 5 1
43 11 1
43 13 1
43 14 1
43 25 1
43 58 1
43 59 1
43 64 1
43 65 1
43 70 1
43 78 1
43 85 1
43 86 1
43 92 1
43 96 1
43 98 1
43 107 1
43 108 1
43 118 1
43 124 1
43 190 1
44 1 1
44 6 1
44 7 1
44 13 1
44 15 1
44 16 1
44 54 1
44 60 1
44 61 1
44 66 1
44 67 1
44 72 1
44 87 1
44 88 1
44 94 1
44 98 1
44 100 1
44 109 1
44 110 1
44 120 1
44 126 1
44 192 1
45 3 1
45 8 1
45 9 1
45 15 1
45 17 1
45 18 1
45 56 1
45 62 1
45 63 1
45 68 1
45 69 1
45 74 1
45 89 1
45 90 1
45 96 1
45 100 1
45 102 1
45 111 1
45 112 1
45 122 1
45 128 1
45 194 1
46 5 1
46 10 1
46 11 1
46 17 1
46 19 1
46 20 1
46 58 1
46 64 1
46 65 1
46 70 1
46 71 1
46 76 1
46 91 1
46 92 1
46 98 1
46 102 1
46 104 1
46 113 1
46 114 1
46 124 1
46 130 1
46 196 1
47 7 1
47 12 1
47 13 1
47 19 1
47 21 1
47 22 1
47 60 1
47 66 1
47 67 1
47 72 1
47 73 1
47 78 1
47 80 1
47 93 1
47 94 1
47 100 1
47 104 1
47 106 1
47 115 1
47 116 1
47 126 1
47 198 1
48 9 1
48 14 1
48 15 1
48 21 1
48 23 1
48 24 1
48 54 1
48 62 1
48 68 1
48 69 1
48 74 1
48 75 1
48 80 1
48 82 1
48 95 1
48 96 1
48 102 1
48 108 1
48 117 1
48 118 1
48 128 1
48 200 1
49 11 1
49 16 1
49 17 1
49 23 1
49 25 1
49 26 1
49 56 1
49 64 1
49 70 1
49 71 1
49 76 1
49 77 1
49 82 1
49 84 1
49 97 1
49 98 1
49 104 1
49 110 1
49 119 1
49 120 1
49 130 1
49 202 1
50 1 1
50 2 1
50 13 1
50 18 1
50 19 1
50 25 1
50 53 1
50 58 1
50 66 1
50 72 1
50 73 1
50 78 1
50 80 1
50 84 1
50 86 1
50 99 1
50 100 1
50 106 1
50 112 1
50 121 1
50 122 1
50 204 1
51 1 1
51 3 1
51 4 1
51 15 1
51 20 1
51 21 1
51 54 1
51 55 1
51 60 1
51 68 1
51 74 1
51 75 1
51 82 1
51 86 1
51 88 1
51 101 1
51 102 1
51 108 1
51 114 1
51 123 1
51 124 1
51 206 1
52 3 1
52 5 1
52 6 1
52 17 1
52 22 1
52 23 1
52 56 1
52 57 1
52 62 1
52 70 1
52 76 1
52 77 1
52 84 1
52 88 1
52 90 1
52 103 1
52 104 1
52 110 1
52 116 1
52 125 1
52 126 1
52 208 1
