%%MatrixMarket matrix coordinate integer general
% GF(4) labels 0,1,2=omega,3=omega+1; arithmetic is NOT integer arithmetic.
% Coordinate indices are 1-based; omitted entries are zero.
26 104 494
1 2 1
1 3 1
1 4 1
1 10 3
1 11 2
1 27 2
1 29 2
1 30 1
1 36 1
1 37 2
1 38 1
1 39 3
1 40 1
1 53 3
1 54 2
1 56 3
1 63 1
1 64 1
1 65 3
2 3 1
2 4 1
2 5 1
2 11 3
2 12 2
2 27 3
2 28 2
2 30 2
2 31 1
2 37 1
2 38 2
2 39 1
2 41 1
2 53 3
2 54 3
2 55 2
2 57 3
2 64 1
2 65 1
3 4 1
3 5 1
3 6 1
3 12 3
3 13 2
3 27 1
3 28 3
3 29 2
3 31 2
3 32 1
3 38 1
3 39 2
3 42 1
3 53 1
3 54 3
3 55 3
3 56 2
3 58 3
3 65 1
4 1 2
4 5 1
4 6 1
4 7 1
4 13 3
4 27 2
4 28 1
4 29 3
4 30 2
4 32 2
4 33 1
4 39 1
4 43 1
4 53 1
4 54 1
4 55 3
4 56 3
4 57 2
4 59 3
5 1 3
5 2 2
5 6 1
5 7 1
5 8 1
5 27 1
5 28 2
5 29 1
5 30 3
5 31 2
5 33 2
5 34 1
5 44 1
5 54 1
5 55 1
5 56 3
5 57 3
5 58 2
5 60 3
6 2 3
6 3 2
6 7 1
6 8 1
6 9 1
6 28 1
6 29 2
6 30 1
6 31 3
6 32 2
6 34 2
6 35 1
6 45 1
6 55 1
6 56 1
6 57 3
6 58 3
6 59 2
6 61 3
7 3 3
7 4 2
7 8 1
7 9 1
7 10 1
7 29 1
7 30 2
7 31 1
7 32 3
7 33 2
7 35 2
7 36 1
7 46 1
7 56 1
7 57 1
7 58 3
7 59 3
7 60 2
7 62 3
8 4 3
8 5 2
8 9 1
8 10 1
8 11 1
8 30 1
8 31 2
8 32 1
8 33 3
8 34 2
8 36 2
8 37 1
8 47 1
8 57 1
8 58 1
8 59 3
8 60 3
8 61 2
8 63 3
9 5 3
9 6 2
9 10 1
9 11 1
9 12 1
9 31 1
9 32 2
9 33 1
9 34 3
9 35 2
9 37 2
9 38 1
9 48 1
9 58 1
9 59 1
9 60 3
9 61 3
9 62 2
9 64 3
10 6 3
10 7 2
10 11 1
10 12 1
10 13 1
10 32 1
10 33 2
10 34 1
10 35 3
10 36 2
10 38 2
10 39 1
10 49 1
10 59 1
10 60 1
10 61 3
10 62 3
10 63 2
10 65 3
11 1 1
11 7 3
11 8 2
11 12 1
11 13 1
11 27 1
11 33 1
11 34 2
11 35 1
11 36 3
11 37 2
11 39 2
11 50 1
11 53 3
11 60 1
11 61 1
11 62 3
11 63 3
11 64 2
12 1 1
12 2 1
12 8 3
12 9 2
12 13 1
12 27 2
12 28 1
12 34 1
12 35 2
12 36 1
12 37 3
12 38 2
12 51 1
12 54 3
12 61 1
12 62 1
12 63 3
12 64 3
12 65 2
13 1 1
13 2 1
13 3 1
13 9 3
13 10 2
13 28 2
13 29 1
13 35 1
13 36 2
13 37 1
13 38 3
13 39 2
13 52 1
13 53 2
13 55 3
13 62 1
13 63 1
13 64 3
13 65 3
14 3 3
14 4 2
14 10 3
14 12 1
14 13 3
14 27 3
14 29 1
14 30 3
14 32 1
14 36 1
14 39 1
14 40 2
14 43 1
14 45 1
14 46 1
14 56 1
14 59 1
14 64 2
14 92 1
15 1 3
15 4 3
15 5 2
15 11 3
15 13 1
15 27 1
15 28 3
15 30 1
15 31 3
15 33 1
15 37 1
15 41 2
15 44 1
15 46 1
15 47 1
15 57 1
15 60 1
15 65 2
15 93 1
16 1 1
16 2 3
16 5 3
16 6 2
16 12 3
16 28 1
16 29 3
16 31 1
16 32 3
16 34 1
16 38 1
16 42 2
16 45 1
16 47 1
16 48 1
16 53 2
16 58 1
16 61 1
16 94 1
17 2 1
17 3 3
17 6 3
17 7 2
17 13 3
17 29 1
17 30 3
17 32 1
17 33 3
17 35 1
17 39 1
17 43 2
17 46 1
17 48 1
17 49 1
17 54 2
17 59 1
17 62 1
17 95 1
18 1 3
18 3 1
18 4 3
18 7 3
18 8 2
18 27 1
18 30 1
18 31 3
18 33 1
18 34 3
18 36 1
18 44 2
18 47 1
18 49 1
18 50 1
18 55 2
18 60 1
18 63 1
18 96 1
19 2 3
19 4 1
19 5 3
19 8 3
19 9 2
19 28 1
19 31 1
19 32 3
19 34 1
19 35 3
19 37 1
19 45 2
19 48 1
19 50 1
19 51 1
19 56 2
19 61 1
19 64 1
19 97 1
20 3 3
20 5 1
20 6 3
20 9 3
20 10 2
20 29 1
20 32 1
20 33 3
20 35 1
20 36 3
20 38 1
20 46 2
20 49 1
20 51 1
20 52 1
20 57 2
20 62 1
20 65 1
20 98 1
21 4 3
21 6 1
21 7 3
21 10 3
21 11 2
21 30 1
21 33 1
21 34 3
21 36 1
21 37 3
21 39 1
21 40 1
21 47 2
21 50 1
21 52 1
21 53 1
21 58 2
21 63 1
21 99 1
22 5 3
22 7 1
22 8 3
22 11 3
22 12 2
22 27 1
22 31 1
22 34 1
22 35 3
22 37 1
22 38 3
22 40 1
22 41 1
22 48 2
22 51 1
22 54 1
22 59 2
22 64 1
22 100 1
23 6 3
23 8 1
23 9 3
23 12 3
23 13 2
23 28 1
23 32 1
23 35 1
23 36 3
23 38 1
23 39 3
23 41 1
23 42 1
23 49 2
23 52 1
23 55 1
23 60 2
23 65 1
23 101 1
24 1 2
24 7 3
24 9 1
24 10 3
24 13 3
24 27 3
24 29 1
24 33 1
24 36 1
24 37 3
24 39 1
24 40 1
24 42 1
24 43 1
24 50 2
24 53 1
24 56 1
24 61 2
24 102 1
25 1 3
25 2 2
25 8 3
25 10 1
25 11 3
25 27 1
25 28 3
25 30 1
25 34 1
25 37 1
25 38 3
25 41 1
25 43 1
25 44 1
25 51 2
25 54 1
25 57 1
25 62 2
25 103 1
26 2 3
26 3 2
26 9 3
26 11 1
26 12 3
26 28 1
26 29 3
26 31 1
26 35 1
26 38 1
26 39 3
26 42 1
26 44 1
26 45 1
26 52 2
26 55 1
26 58 1
26 63 2
26 104 1
