%%MatrixMarket matrix coordinate integer general
% Binary matrix over GF(2).
% Coordinate indices are 1-based; omitted entries are zero.
168 448 1428
1 2 1
1 57 1
1 113 1
1 169 1
1 225 1
1 281 1
1 337 1
1 393 1
2 1 1
2 2 1
2 58 1
2 114 1
2 170 1
2 226 1
2 282 1
2 338 1
2 394 1
3 4 1
3 59 1
3 115 1
3 171 1
3 227 1
3 283 1
3 339 1
3 395 1
4 3 1
4 4 1
4 60 1
4 116 1
4 172 1
4 228 1
4 284 1
4 340 1
4 396 1
5 6 1
5 61 1
5 117 1
5 173 1
5 229 1
5 285 1
5 341 1
5 397 1
6 5 1
6 6 1
6 62 1
6 118 1
6 174 1
6 230 1
6 286 1
6 342 1
6 398 1
7 8 1
7 63 1
7 119 1
7 175 1
7 231 1
7 287 1
7 343 1
7 399 1
8 7 1
8 8 1
8 64 1
8 120 1
8 176 1
8 232 1
8 288 1
8 344 1
8 400 1
9 10 1
9 65 1
9 121 1
9 177 1
9 233 1
9 289 1
9 345 1
9 401 1
10 9 1
10 10 1
10 66 1
10 122 1
10 178 1
10 234 1
10 290 1
10 346 1
10 402 1
11 12 1
11 67 1
11 123 1
11 179 1
11 235 1
11 291 1
11 347 1
11 403 1
12 11 1
12 12 1
12 68 1
12 124 1
12 180 1
12 236 1
12 292 1
12 348 1
12 404 1
13 14 1
13 69 1
13 125 1
13 181 1
13 237 1
13 293 1
13 349 1
13 405 1
14 13 1
14 14 1
14 70 1
14 126 1
14 182 1
14 238 1
14 294 1
14 350 1
14 406 1
15 16 1
15 71 1
15 127 1
15 183 1
15 239 1
15 295 1
15 351 1
15 407 1
16 15 1
16 16 1
16 72 1
16 128 1
16 184 1
16 240 1
16 296 1
16 352 1
16 408 1
17 18 1
17 73 1
17 129 1
17 185 1
17 241 1
17 297 1
17 353 1
17 409 1
18 17 1
18 18 1
18 74 1
18 130 1
18 186 1
18 242 1
18 298 1
18 354 1
18 410 1
19 20 1
19 75 1
19 131 1
19 187 1
19 243 1
19 299 1
19 355 1
19 411 1
20 19 1
20 20 1
20 76 1
20 132 1
20 188 1
20 244 1
20 300 1
20 356 1
20 412 1
21 22 1
21 77 1
21 133 1
21 189 1
21 245 1
21 301 1
21 357 1
21 413 1
22 21 1
22 22 1
22 78 1
22 134 1
22 190 1
22 246 1
22 302 1
22 358 1
22 414 1
23 24 1
23 79 1
23 135 1
23 191 1
23 247 1
23 303 1
23 359 1
23 415 1
24 23 1
24 24 1
24 80 1
24 136 1
24 192 1
24 248 1
24 304 1
24 360 1
24 416 1
25 26 1
25 81 1
25 137 1
25 193 1
25 249 1
25 305 1
25 361 1
25 417 1
26 25 1
26 26 1
26 82 1
26 138 1
26 194 1
26 250 1
26 306 1
26 362 1
26 418 1
27 28 1
27 83 1
27 139 1
27 195 1
27 251 1
27 307 1
27 363 1
27 419 1
28 27 1
28 28 1
28 84 1
28 140 1
28 196 1
28 252 1
28 308 1
28 364 1
28 420 1
29 30 1
29 85 1
29 141 1
29 197 1
29 253 1
29 309 1
29 365 1
29 421 1
30 29 1
30 30 1
30 86 1
30 142 1
30 198 1
30 254 1
30 310 1
30 366 1
30 422 1
31 32 1
31 87 1
31 143 1
31 199 1
31 255 1
31 311 1
31 367 1
31 423 1
32 31 1
32 32 1
32 88 1
32 144 1
32 200 1
32 256 1
32 312 1
32 368 1
32 424 1
33 34 1
33 89 1
33 145 1
33 201 1
33 257 1
33 313 1
33 369 1
33 425 1
34 33 1
34 34 1
34 90 1
34 146 1
34 202 1
34 258 1
34 314 1
34 370 1
34 426 1
35 36 1
35 91 1
35 147 1
35 203 1
35 259 1
35 315 1
35 371 1
35 427 1
36 35 1
36 36 1
36 92 1
36 148 1
36 204 1
36 260 1
36 316 1
36 372 1
36 428 1
37 38 1
37 93 1
37 149 1
37 205 1
37 261 1
37 317 1
37 373 1
37 429 1
38 37 1
38 38 1
38 94 1
38 150 1
38 206 1
38 262 1
38 318 1
38 374 1
38 430 1
39 40 1
39 95 1
39 151 1
39 207 1
39 263 1
39 319 1
39 375 1
39 431 1
40 39 1
40 40 1
40 96 1
40 152 1
40 208 1
40 264 1
40 320 1
40 376 1
40 432 1
41 42 1
41 97 1
41 153 1
41 209 1
41 265 1
41 321 1
41 377 1
41 433 1
42 41 1
42 42 1
42 98 1
42 154 1
42 210 1
42 266 1
42 322 1
42 378 1
42 434 1
43 44 1
43 99 1
43 155 1
43 211 1
43 267 1
43 323 1
43 379 1
43 435 1
44 43 1
44 44 1
44 100 1
44 156 1
44 212 1
44 268 1
44 324 1
44 380 1
44 436 1
45 46 1
45 101 1
45 157 1
45 213 1
45 269 1
45 325 1
45 381 1
45 437 1
46 45 1
46 46 1
46 102 1
46 158 1
46 214 1
46 270 1
46 326 1
46 382 1
46 438 1
47 48 1
47 103 1
47 159 1
47 215 1
47 271 1
47 327 1
47 383 1
47 439 1
48 47 1
48 48 1
48 104 1
48 160 1
48 216 1
48 272 1
48 328 1
48 384 1
48 440 1
49 50 1
49 105 1
49 161 1
49 217 1
49 273 1
49 329 1
49 385 1
49 441 1
50 49 1
50 50 1
50 106 1
50 162 1
50 218 1
50 274 1
50 330 1
50 386 1
50 442 1
51 52 1
51 107 1
51 163 1
51 219 1
51 275 1
51 331 1
51 387 1
51 443 1
52 51 1
52 52 1
52 108 1
52 164 1
52 220 1
52 276 1
52 332 1
52 388 1
52 444 1
53 54 1
53 109 1
53 165 1
53 221 1
53 277 1
53 333 1
53 389 1
53 445 1
54 53 1
54 54 1
54 110 1
54 166 1
54 222 1
54 278 1
54 334 1
54 390 1
54 446 1
55 56 1
55 111 1
55 167 1
55 223 1
55 279 1
55 335 1
55 391 1
55 447 1
56 55 1
56 56 1
56 112 1
56 168 1
56 224 1
56 280 1
56 336 1
56 392 1
56 448 1
57 1 1
57 72 1
57 167 1
57 197 1
57 263 1
57 321 1
57 385 1
57 419 1
58 2 1
58 71 1
58 72 1
58 168 1
58 198 1
58 264 1
58 322 1
58 386 1
58 420 1
59 3 1
59 74 1
59 113 1
59 199 1
59 265 1
59 323 1
59 387 1
59 421 1
60 4 1
60 73 1
60 74 1
60 114 1
60 200 1
60 266 1
60 324 1
60 388 1
60 422 1
61 5 1
61 76 1
61 115 1
61 201 1
61 267 1
61 325 1
61 389 1
61 423 1
62 6 1
62 75 1
62 76 1
62 116 1
62 202 1
62 268 1
62 326 1
62 390 1
62 424 1
63 7 1
63 78 1
63 117 1
63 203 1
63 269 1
63 327 1
63 391 1
63 425 1
64 8 1
64 77 1
64 78 1
64 118 1
64 204 1
64 270 1
64 328 1
64 392 1
64 426 1
65 9 1
65 80 1
65 119 1
65 205 1
65 271 1
65 329 1
65 337 1
65 427 1
66 10 1
66 79 1
66 80 1
66 120 1
66 206 1
66 272 1
66 330 1
66 338 1
66 428 1
67 11 1
67 82 1
67 121 1
67 207 1
67 273 1
67 331 1
67 339 1
67 429 1
68 12 1
68 81 1
68 82 1
68 122 1
68 208 1
68 274 1
68 332 1
68 340 1
68 430 1
69 13 1
69 84 1
69 123 1
69 209 1
69 275 1
69 333 1
69 341 1
69 431 1
70 14 1
70 83 1
70 84 1
70 124 1
70 210 1
70 276 1
70 334 1
70 342 1
70 432 1
71 15 1
71 86 1
71 125 1
71 211 1
71 277 1
71 335 1
71 343 1
71 433 1
72 16 1
72 85 1
72 86 1
72 126 1
72 212 1
72 278 1
72 336 1
72 344 1
72 434 1
73 17 1
73 88 1
73 127 1
73 213 1
73 279 1
73 281 1
73 345 1
73 435 1
74 18 1
74 87 1
74 88 1
74 128 1
74 214 1
74 280 1
74 282 1
74 346 1
74 436 1
75 19 1
75 90 1
75 129 1
75 215 1
75 225 1
75 283 1
75 347 1
75 437 1
76 20 1
76 89 1
76 90 1
76 130 1
76 216 1
76 226 1
76 284 1
76 348 1
76 438 1
77 21 1
77 92 1
77 131 1
77 217 1
77 227 1
77 285 1
77 349 1
77 439 1
78 22 1
78 91 1
78 92 1
78 132 1
78 218 1
78 228 1
78 286 1
78 350 1
78 440 1
79 23 1
79 94 1
79 133 1
79 219 1
79 229 1
79 287 1
79 351 1
79 441 1
80 24 1
80 93 1
80 94 1
80 134 1
80 220 1
80 230 1
80 288 1
80 352 1
80 442 1
81 25 1
81 96 1
81 135 1
81 221 1
81 231 1
81 289 1
81 353 1
81 443 1
82 26 1
82 95 1
82 96 1
82 136 1
82 222 1
82 232 1
82 290 1
82 354 1
82 444 1
83 27 1
83 98 1
83 137 1
83 223 1
83 233 1
83 291 1
83 355 1
83 445 1
84 28 1
84 97 1
84 98 1
84 138 1
84 224 1
84 234 1
84 292 1
84 356 1
84 446 1
85 29 1
85 100 1
85 139 1
85 169 1
85 235 1
85 293 1
85 357 1
85 447 1
86 30 1
86 99 1
86 100 1
86 140 1
86 170 1
86 236 1
86 294 1
86 358 1
86 448 1
87 31 1
87 102 1
87 141 1
87 171 1
87 237 1
87 295 1
87 359 1
87 393 1
88 32 1
88 101 1
88 102 1
88 142 1
88 172 1
88 238 1
88 296 1
88 360 1
88 394 1
89 33 1
89 104 1
89 143 1
89 173 1
89 239 1
89 297 1
89 361 1
89 395 1
90 34 1
90 103 1
90 104 1
90 144 1
90 174 1
90 240 1
90 298 1
90 362 1
90 396 1
91 35 1
91 106 1
91 145 1
91 175 1
91 241 1
91 299 1
91 363 1
91 397 1
92 36 1
92 105 1
92 106 1
92 146 1
92 176 1
92 242 1
92 300 1
92 364 1
92 398 1
93 37 1
93 108 1
93 147 1
93 177 1
93 243 1
93 301 1
93 365 1
93 399 1
94 38 1
94 107 1
94 108 1
94 148 1
94 178 1
94 244 1
94 302 1
94 366 1
94 400 1
95 39 1
95 110 1
95 149 1
95 179 1
95 245 1
95 303 1
95 367 1
95 401 1
96 40 1
96 109 1
96 110 1
96 150 1
96 180 1
96 246 1
96 304 1
96 368 1
96 402 1
97 41 1
97 112 1
97 151 1
97 181 1
97 247 1
97 305 1
97 369 1
97 403 1
98 42 1
98 111 1
98 112 1
98 152 1
98 182 1
98 248 1
98 306 1
98 370 1
98 404 1
99 43 1
99 58 1
99 153 1
99 183 1
99 249 1
99 307 1
99 371 1
99 405 1
100 44 1
100 57 1
100 58 1
100 154 1
100 184 1
100 250 1
100 308 1
100 372 1
100 406 1
101 45 1
101 60 1
101 155 1
101 185 1
101 251 1
101 309 1
101 373 1
101 407 1
102 46 1
102 59 1
102 60 1
102 156 1
102 186 1
102 252 1
102 310 1
102 374 1
102 408 1
103 47 1
103 62 1
103 157 1
103 187 1
103 253 1
103 311 1
103 375 1
103 409 1
104 48 1
104 61 1
104 62 1
104 158 1
104 188 1
104 254 1
104 312 1
104 376 1
104 410 1
105 49 1
105 64 1
105 159 1
105 189 1
105 255 1
105 313 1
105 377 1
105 411 1
106 50 1
106 63 1
106 64 1
106 160 1
106 190 1
106 256 1
106 314 1
106 378 1
106 412 1
107 51 1
107 66 1
107 161 1
107 191 1
107 257 1
107 315 1
107 379 1
107 413 1
108 52 1
108 65 1
108 66 1
108 162 1
108 192 1
108 258 1
108 316 1
108 380 1
108 414 1
109 53 1
109 68 1
109 163 1
109 193 1
109 259 1
109 317 1
109 381 1
109 415 1
110 54 1
110 67 1
110 68 1
110 164 1
110 194 1
110 260 1
110 318 1
110 382 1
110 416 1
111 55 1
111 70 1
111 165 1
111 195 1
111 261 1
111 319 1
111 383 1
111 417 1
112 56 1
112 69 1
112 70 1
112 166 1
112 196 1
112 262 1
112 320 1
112 384 1
112 418 1
113 1 1
113 99 1
113 154 1
113 195 1
113 233 1
113 331 1
113 341 1
113 439 1
114 2 1
114 100 1
114 153 1
114 154 1
114 196 1
114 234 1
114 332 1
114 342 1
114 440 1
115 3 1
115 101 1
115 156 1
115 197 1
115 235 1
115 333 1
115 343 1
115 441 1
116 4 1
116 102 1
116 155 1
116 156 1
116 198 1
116 236 1
116 334 1
116 344 1
116 442 1
117 5 1
117 103 1
117 158 1
117 199 1
117 237 1
117 335 1
117 345 1
117 443 1
118 6 1
118 104 1
118 157 1
118 158 1
118 200 1
118 238 1
118 336 1
118 346 1
118 444 1
119 7 1
119 105 1
119 160 1
119 201 1
119 239 1
119 281 1
119 347 1
119 445 1
120 8 1
120 106 1
120 159 1
120 160 1
120 202 1
120 240 1
120 282 1
120 348 1
120 446 1
121 9 1
121 107 1
121 162 1
121 203 1
121 241 1
121 283 1
121 349 1
121 447 1
122 10 1
122 108 1
122 161 1
122 162 1
122 204 1
122 242 1
122 284 1
122 350 1
122 448 1
123 11 1
123 109 1
123 164 1
123 205 1
123 243 1
123 285 1
123 351 1
123 393 1
124 12 1
124 110 1
124 163 1
124 164 1
124 206 1
124 244 1
124 286 1
124 352 1
124 394 1
125 13 1
125 111 1
125 166 1
125 207 1
125 245 1
125 287 1
125 353 1
125 395 1
126 14 1
126 112 1
126 165 1
126 166 1
126 208 1
126 246 1
126 288 1
126 354 1
126 396 1
127 15 1
127 57 1
127 168 1
127 209 1
127 247 1
127 289 1
127 355 1
127 397 1
128 16 1
128 58 1
128 167 1
128 168 1
128 210 1
128 248 1
128 290 1
128 356 1
128 398 1
129 17 1
129 59 1
129 114 1
129 211 1
129 249 1
129 291 1
129 357 1
129 399 1
130 18 1
130 60 1
130 113 1
130 114 1
130 212 1
130 250 1
130 292 1
130 358 1
130 400 1
131 19 1
131 61 1
131 116 1
131 213 1
131 251 1
131 293 1
131 359 1
131 401 1
132 20 1
132 62 1
132 115 1
132 116 1
132 214 1
132 252 1
132 294 1
132 360 1
132 402 1
133 21 1
133 63 1
133 118 1
133 215 1
133 253 1
133 295 1
133 361 1
133 403 1
134 22 1
134 64 1
134 117 1
134 118 1
134 216 1
134 254 1
134 296 1
134 362 1
134 404 1
135 23 1
135 65 1
135 120 1
135 217 1
135 255 1
135 297 1
135 363 1
135 405 1
136 24 1
136 66 1
136 119 1
136 120 1
136 218 1
136 256 1
136 298 1
136 364 1
136 406 1
137 25 1
137 67 1
137 122 1
137 219 1
137 257 1
137 299 1
137 365 1
137 407 1
138 26 1
138 68 1
138 121 1
138 122 1
138 220 1
138 258 1
138 300 1
138 366 1
138 408 1
139 27 1
139 69 1
139 124 1
139 221 1
139 259 1
139 301 1
139 367 1
139 409 1
140 28 1
140 70 1
140 123 1
140 124 1
140 222 1
140 260 1
140 302 1
140 368 1
140 410 1
141 29 1
141 71 1
141 126 1
141 223 1
141 261 1
141 303 1
141 369 1
141 411 1
142 30 1
142 72 1
142 125 1
142 126 1
142 224 1
142 262 1
142 304 1
142 370 1
142 412 1
143 31 1
143 73 1
143 128 1
143 169 1
143 263 1
143 305 1
143 371 1
143 413 1
144 32 1
144 74 1
144 127 1
144 128 1
144 170 1
144 264 1
144 306 1
144 372 1
144 414 1
145 33 1
145 75 1
145 130 1
145 171 1
145 265 1
145 307 1
145 373 1
145 415 1
146 34 1
146 76 1
146 129 1
146 130 1
146 172 1
146 266 1
146 308 1
146 374 1
146 416 1
147 35 1
147 77 1
147 132 1
147 173 1
147 267 1
147 309 1
147 375 1
147 417 1
148 36 1
148 78 1
148 131 1
148 132 1
148 174 1
148 268 1
148 310 1
148 376 1
148 418 1
149 37 1
149 79 1
149 134 1
149 175 1
149 269 1
149 311 1
149 377 1
149 419 1
150 38 1
150 80 1
150 133 1
150 134 1
150 176 1
150 270 1
150 312 1
150 378 1
150 420 1
151 39 1
151 81 1
151 136 1
151 177 1
151 271 1
151 313 1
151 379 1
151 421 1
152 40 1
152 82 1
152 135 1
152 136 1
152 178 1
152 272 1
152 314 1
152 380 1
152 422 1
153 41 1
153 83 1
153 138 1
153 179 1
153 273 1
153 315 1
153 381 1
153 423 1
154 42 1
154 84 1
154 137 1
154 138 1
154 180 1
154 274 1
154 316 1
154 382 1
154 424 1
155 43 1
155 85 1
155 140 1
155 181 1
155 275 1
155 317 1
155 383 1
155 425 1
156 44 1
156 86 1
156 139 1
156 140 1
156 182 1
156 276 1
156 318 1
156 384 1
156 426 1
157 45 1
157 87 1
157 142 1
157 183 1
157 277 1
157 319 1
157 385 1
157 427 1
158 46 1
158 88 1
158 141 1
158 142 1
158 184 1
158 278 1
158 320 1
158 386 1
158 428 1
159 47 1
159 89 1
159 144 1
159 185 1
159 279 1
159 321 1
159 387 1
159 429 1
160 48 1
160 90 1
160 143 1
160 144 1
160 186 1
160 280 1
160 322 1
160 388 1
160 430 1
161 49 1
161 91 1
161 146 1
161 187 1
161 225 1
161 323 1
161 389 1
161 431 1
162 50 1
162 92 1
162 145 1
162 146 1
162 188 1
162 226 1
162 324 1
162 390 1
162 432 1
163 51 1
163 93 1
163 148 1
163 189 1
163 227 1
163 325 1
163 391 1
163 433 1
164 52 1
164 94 1
164 147 1
164 148 1
164 190 1
164 228 1
164 326 1
164 392 1
164 434 1
165 53 1
165 95 1
165 150 1
165 191 1
165 229 1
165 327 1
165 337 1
165 435 1
166 54 1
166 96 1
166 149 1
166 150 1
166 192 1
166 230 1
166 328 1
166 338 1
166 436 1
167 55 1
167 97 1
167 152 1
167 193 1
167 231 1
167 329 1
167 339 1
167 437 1
168 56 1
168 98 1
168 151 1
168 152 1
168 194 1
168 232 1
168 330 1
168 340 1
168 438 1
