%%MatrixMarket matrix coordinate integer general
% Binary matrix over GF(2).
% Coordinate indices are 1-based; omitted entries are zero.
168 448 1428
1 1 1
1 89 1
1 145 1
1 209 1
1 226 1
1 321 1
1 341 1
1 397 1
2 2 1
2 90 1
2 146 1
2 210 1
2 225 1
2 226 1
2 322 1
2 342 1
2 398 1
3 3 1
3 91 1
3 147 1
3 211 1
3 228 1
3 323 1
3 343 1
3 399 1
4 4 1
4 92 1
4 148 1
4 212 1
4 227 1
4 228 1
4 324 1
4 344 1
4 400 1
5 5 1
5 93 1
5 149 1
5 213 1
5 230 1
5 325 1
5 345 1
5 401 1
6 6 1
6 94 1
6 150 1
6 214 1
6 229 1
6 230 1
6 326 1
6 346 1
6 402 1
7 7 1
7 95 1
7 151 1
7 215 1
7 232 1
7 327 1
7 347 1
7 403 1
8 8 1
8 96 1
8 152 1
8 216 1
8 231 1
8 232 1
8 328 1
8 348 1
8 404 1
9 9 1
9 97 1
9 153 1
9 217 1
9 234 1
9 329 1
9 349 1
9 405 1
10 10 1
10 98 1
10 154 1
10 218 1
10 233 1
10 234 1
10 330 1
10 350 1
10 406 1
11 11 1
11 99 1
11 155 1
11 219 1
11 236 1
11 331 1
11 351 1
11 407 1
12 12 1
12 100 1
12 156 1
12 220 1
12 235 1
12 236 1
12 332 1
12 352 1
12 408 1
13 13 1
13 101 1
13 157 1
13 221 1
13 238 1
13 333 1
13 353 1
13 409 1
14 14 1
14 102 1
14 158 1
14 222 1
14 237 1
14 238 1
14 334 1
14 354 1
14 410 1
15 15 1
15 103 1
15 159 1
15 223 1
15 240 1
15 335 1
15 355 1
15 411 1
16 16 1
16 104 1
16 160 1
16 224 1
16 239 1
16 240 1
16 336 1
16 356 1
16 412 1
17 17 1
17 105 1
17 161 1
17 169 1
17 242 1
17 281 1
17 357 1
17 413 1
18 18 1
18 106 1
18 162 1
18 170 1
18 241 1
18 242 1
18 282 1
18 358 1
18 414 1
19 19 1
19 107 1
19 163 1
19 171 1
19 244 1
19 283 1
19 359 1
19 415 1
20 20 1
20 108 1
20 164 1
20 172 1
20 243 1
20 244 1
20 284 1
20 360 1
20 416 1
21 21 1
21 109 1
21 165 1
21 173 1
21 246 1
21 285 1
21 361 1
21 417 1
22 22 1
22 110 1
22 166 1
22 174 1
22 245 1
22 246 1
22 286 1
22 362 1
22 418 1
23 23 1
23 111 1
23 167 1
23 175 1
23 248 1
23 287 1
23 363 1
23 419 1
24 24 1
24 112 1
24 168 1
24 176 1
24 247 1
24 248 1
24 288 1
24 364 1
24 420 1
25 25 1
25 57 1
25 113 1
25 177 1
25 250 1
25 289 1
25 365 1
25 421 1
26 26 1
26 58 1
26 114 1
26 178 1
26 249 1
26 250 1
26 290 1
26 366 1
26 422 1
27 27 1
27 59 1
27 115 1
27 179 1
27 252 1
27 291 1
27 367 1
27 423 1
28 28 1
28 60 1
28 116 1
28 180 1
28 251 1
28 252 1
28 292 1
28 368 1
28 424 1
29 29 1
29 61 1
29 117 1
29 181 1
29 254 1
29 293 1
29 369 1
29 425 1
30 30 1
30 62 1
30 118 1
30 182 1
30 253 1
30 254 1
30 294 1
30 370 1
30 426 1
31 31 1
31 63 1
31 119 1
31 183 1
31 256 1
31 295 1
31 371 1
31 427 1
32 32 1
32 64 1
32 120 1
32 184 1
32 255 1
32 256 1
32 296 1
32 372 1
32 428 1
33 33 1
33 65 1
33 121 1
33 185 1
33 258 1
33 297 1
33 373 1
33 429 1
34 34 1
34 66 1
34 122 1
34 186 1
34 257 1
34 258 1
34 298 1
34 374 1
34 430 1
35 35 1
35 67 1
35 123 1
35 187 1
35 260 1
35 299 1
35 375 1
35 431 1
36 36 1
36 68 1
36 124 1
36 188 1
36 259 1
36 260 1
36 300 1
36 376 1
36 432 1
37 37 1
37 69 1
37 125 1
37 189 1
37 262 1
37 301 1
37 377 1
37 433 1
38 38 1
38 70 1
38 126 1
38 190 1
38 261 1
38 262 1
38 302 1
38 378 1
38 434 1
39 39 1
39 71 1
39 127 1
39 191 1
39 264 1
39 303 1
39 379 1
39 435 1
40 40 1
40 72 1
40 128 1
40 192 1
40 263 1
40 264 1
40 304 1
40 380 1
40 436 1
41 41 1
41 73 1
41 129 1
41 193 1
41 266 1
41 305 1
41 381 1
41 437 1
42 42 1
42 74 1
42 130 1
42 194 1
42 265 1
42 266 1
42 306 1
42 382 1
42 438 1
43 43 1
43 75 1
43 131 1
43 195 1
43 268 1
43 307 1
43 383 1
43 439 1
44 44 1
44 76 1
44 132 1
44 196 1
44 267 1
44 268 1
44 308 1
44 384 1
44 440 1
45 45 1
45 77 1
45 133 1
45 197 1
45 270 1
45 309 1
45 385 1
45 441 1
46 46 1
46 78 1
46 134 1
46 198 1
46 269 1
46 270 1
46 310 1
46 386 1
46 442 1
47 47 1
47 79 1
47 135 1
47 199 1
47 272 1
47 311 1
47 387 1
47 443 1
48 48 1
48 80 1
48 136 1
48 200 1
48 271 1
48 272 1
48 312 1
48 388 1
48 444 1
49 49 1
49 81 1
49 137 1
49 201 1
49 274 1
49 313 1
49 389 1
49 445 1
50 50 1
50 82 1
50 138 1
50 202 1
50 273 1
50 274 1
50 314 1
50 390 1
50 446 1
51 51 1
51 83 1
51 139 1
51 203 1
51 276 1
51 315 1
51 391 1
51 447 1
52 52 1
52 84 1
52 140 1
52 204 1
52 275 1
52 276 1
52 316 1
52 392 1
52 448 1
53 53 1
53 85 1
53 141 1
53 205 1
53 278 1
53 317 1
53 337 1
53 393 1
54 54 1
54 86 1
54 142 1
54 206 1
54 277 1
54 278 1
54 318 1
54 338 1
54 394 1
55 55 1
55 87 1
55 143 1
55 207 1
55 280 1
55 319 1
55 339 1
55 395 1
56 56 1
56 88 1
56 144 1
56 208 1
56 279 1
56 280 1
56 320 1
56 340 1
56 396 1
57 1 1
57 87 1
57 159 1
57 217 1
57 255 1
57 282 1
57 385 1
57 439 1
58 2 1
58 88 1
58 160 1
58 218 1
58 256 1
58 281 1
58 282 1
58 386 1
58 440 1
59 3 1
59 89 1
59 161 1
59 219 1
59 257 1
59 284 1
59 387 1
59 441 1
60 4 1
60 90 1
60 162 1
60 220 1
60 258 1
60 283 1
60 284 1
60 388 1
60 442 1
61 5 1
61 91 1
61 163 1
61 221 1
61 259 1
61 286 1
61 389 1
61 443 1
62 6 1
62 92 1
62 164 1
62 222 1
62 260 1
62 285 1
62 286 1
62 390 1
62 444 1
63 7 1
63 93 1
63 165 1
63 223 1
63 261 1
63 288 1
63 391 1
63 445 1
64 8 1
64 94 1
64 166 1
64 224 1
64 262 1
64 287 1
64 288 1
64 392 1
64 446 1
65 9 1
65 95 1
65 167 1
65 169 1
65 263 1
65 290 1
65 337 1
65 447 1
66 10 1
66 96 1
66 168 1
66 170 1
66 264 1
66 289 1
66 290 1
66 338 1
66 448 1
67 11 1
67 97 1
67 113 1
67 171 1
67 265 1
67 292 1
67 339 1
67 393 1
68 12 1
68 98 1
68 114 1
68 172 1
68 266 1
68 291 1
68 292 1
68 340 1
68 394 1
69 13 1
69 99 1
69 115 1
69 173 1
69 267 1
69 294 1
69 341 1
69 395 1
70 14 1
70 100 1
70 116 1
70 174 1
70 268 1
70 293 1
70 294 1
70 342 1
70 396 1
71 15 1
71 101 1
71 117 1
71 175 1
71 269 1
71 296 1
71 343 1
71 397 1
72 16 1
72 102 1
72 118 1
72 176 1
72 270 1
72 295 1
72 296 1
72 344 1
72 398 1
73 17 1
73 103 1
73 119 1
73 177 1
73 271 1
73 298 1
73 345 1
73 399 1
74 18 1
74 104 1
74 120 1
74 178 1
74 272 1
74 297 1
74 298 1
74 346 1
74 400 1
75 19 1
75 105 1
75 121 1
75 179 1
75 273 1
75 300 1
75 347 1
75 401 1
76 20 1
76 106 1
76 122 1
76 180 1
76 274 1
76 299 1
76 300 1
76 348 1
76 402 1
77 21 1
77 107 1
77 123 1
77 181 1
77 275 1
77 302 1
77 349 1
77 403 1
78 22 1
78 108 1
78 124 1
78 182 1
78 276 1
78 301 1
78 302 1
78 350 1
78 404 1
79 23 1
79 109 1
79 125 1
79 183 1
79 277 1
79 304 1
79 351 1
79 405 1
80 24 1
80 110 1
80 126 1
80 184 1
80 278 1
80 303 1
80 304 1
80 352 1
80 406 1
81 25 1
81 111 1
81 127 1
81 185 1
81 279 1
81 306 1
81 353 1
81 407 1
82 26 1
82 112 1
82 128 1
82 186 1
82 280 1
82 305 1
82 306 1
82 354 1
82 408 1
83 27 1
83 57 1
83 129 1
83 187 1
83 225 1
83 308 1
83 355 1
83 409 1
84 28 1
84 58 1
84 130 1
84 188 1
84 226 1
84 307 1
84 308 1
84 356 1
84 410 1
85 29 1
85 59 1
85 131 1
85 189 1
85 227 1
85 310 1
85 357 1
85 411 1
86 30 1
86 60 1
86 132 1
86 190 1
86 228 1
86 309 1
86 310 1
86 358 1
86 412 1
87 31 1
87 61 1
87 133 1
87 191 1
87 229 1
87 312 1
87 359 1
87 413 1
88 32 1
88 62 1
88 134 1
88 192 1
88 230 1
88 311 1
88 312 1
88 360 1
88 414 1
89 33 1
89 63 1
89 135 1
89 193 1
89 231 1
89 314 1
89 361 1
89 415 1
90 34 1
90 64 1
90 136 1
90 194 1
90 232 1
90 313 1
90 314 1
90 362 1
90 416 1
91 35 1
91 65 1
91 137 1
91 195 1
91 233 1
91 316 1
91 363 1
91 417 1
92 36 1
92 66 1
92 138 1
92 196 1
92 234 1
92 315 1
92 316 1
92 364 1
92 418 1
93 37 1
93 67 1
93 139 1
93 197 1
93 235 1
93 318 1
93 365 1
93 419 1
94 38 1
94 68 1
94 140 1
94 198 1
94 236 1
94 317 1
94 318 1
94 366 1
94 420 1
95 39 1
95 69 1
95 141 1
95 199 1
95 237 1
95 320 1
95 367 1
95 421 1
96 40 1
96 70 1
96 142 1
96 200 1
96 238 1
96 319 1
96 320 1
96 368 1
96 422 1
97 41 1
97 71 1
97 143 1
97 201 1
97 239 1
97 322 1
97 369 1
97 423 1
98 42 1
98 72 1
98 144 1
98 202 1
98 240 1
98 321 1
98 322 1
98 370 1
98 424 1
99 43 1
99 73 1
99 145 1
99 203 1
99 241 1
99 324 1
99 371 1
99 425 1
100 44 1
100 74 1
100 146 1
100 204 1
100 242 1
100 323 1
100 324 1
100 372 1
100 426 1
101 45 1
101 75 1
101 147 1
101 205 1
101 243 1
101 326 1
101 373 1
101 427 1
102 46 1
102 76 1
102 148 1
102 206 1
102 244 1
102 325 1
102 326 1
102 374 1
102 428 1
103 47 1
103 77 1
103 149 1
103 207 1
103 245 1
103 328 1
103 375 1
103 429 1
104 48 1
104 78 1
104 150 1
104 208 1
104 246 1
104 327 1
104 328 1
104 376 1
104 430 1
105 49 1
105 79 1
105 151 1
105 209 1
105 247 1
105 330 1
105 377 1
105 431 1
106 50 1
106 80 1
106 152 1
106 210 1
106 248 1
106 329 1
106 330 1
106 378 1
106 432 1
107 51 1
107 81 1
107 153 1
107 211 1
107 249 1
107 332 1
107 379 1
107 433 1
108 52 1
108 82 1
108 154 1
108 212 1
108 250 1
108 331 1
108 332 1
108 380 1
108 434 1
109 53 1
109 83 1
109 155 1
109 213 1
109 251 1
109 334 1
109 381 1
109 435 1
110 54 1
110 84 1
110 156 1
110 214 1
110 252 1
110 333 1
110 334 1
110 382 1
110 436 1
111 55 1
111 85 1
111 157 1
111 215 1
111 253 1
111 336 1
111 383 1
111 437 1
112 56 1
112 86 1
112 158 1
112 216 1
112 254 1
112 335 1
112 336 1
112 384 1
112 438 1
113 1 1
113 79 1
113 149 1
113 195 1
113 261 1
113 303 1
113 338 1
113 419 1
114 2 1
114 80 1
114 150 1
114 196 1
114 262 1
114 304 1
114 337 1
114 338 1
114 420 1
115 3 1
115 81 1
115 151 1
115 197 1
115 263 1
115 305 1
115 340 1
115 421 1
116 4 1
116 82 1
116 152 1
116 198 1
116 264 1
116 306 1
116 339 1
116 340 1
116 422 1
117 5 1
117 83 1
117 153 1
117 199 1
117 265 1
117 307 1
117 342 1
117 423 1
118 6 1
118 84 1
118 154 1
118 200 1
118 266 1
118 308 1
118 341 1
118 342 1
118 424 1
119 7 1
119 85 1
119 155 1
119 201 1
119 267 1
119 309 1
119 344 1
119 425 1
120 8 1
120 86 1
120 156 1
120 202 1
120 268 1
120 310 1
120 343 1
120 344 1
120 426 1
121 9 1
121 87 1
121 157 1
121 203 1
121 269 1
121 311 1
121 346 1
121 427 1
122 10 1
122 88 1
122 158 1
122 204 1
122 270 1
122 312 1
122 345 1
122 346 1
122 428 1
123 11 1
123 89 1
123 159 1
123 205 1
123 271 1
123 313 1
123 348 1
123 429 1
124 12 1
124 90 1
124 160 1
124 206 1
124 272 1
124 314 1
124 347 1
124 348 1
124 430 1
125 13 1
125 91 1
125 161 1
125 207 1
125 273 1
125 315 1
125 350 1
125 431 1
126 14 1
126 92 1
126 162 1
126 208 1
126 274 1
126 316 1
126 349 1
126 350 1
126 432 1
127 15 1
127 93 1
127 163 1
127 209 1
127 275 1
127 317 1
127 352 1
127 433 1
128 16 1
128 94 1
128 164 1
128 210 1
128 276 1
128 318 1
128 351 1
128 352 1
128 434 1
129 17 1
129 95 1
129 165 1
129 211 1
129 277 1
129 319 1
129 354 1
129 435 1
130 18 1
130 96 1
130 166 1
130 212 1
130 278 1
130 320 1
130 353 1
130 354 1
130 436 1
131 19 1
131 97 1
131 167 1
131 213 1
131 279 1
131 321 1
131 356 1
131 437 1
132 20 1
132 98 1
132 168 1
132 214 1
132 280 1
132 322 1
132 355 1
132 356 1
132 438 1
133 21 1
133 99 1
133 113 1
133 215 1
133 225 1
133 323 1
133 358 1
133 439 1
134 22 1
134 100 1
134 114 1
134 216 1
134 226 1
134 324 1
134 357 1
134 358 1
134 440 1
135 23 1
135 101 1
135 115 1
135 217 1
135 227 1
135 325 1
135 360 1
135 441 1
136 24 1
136 102 1
136 116 1
136 218 1
136 228 1
136 326 1
136 359 1
136 360 1
136 442 1
137 25 1
137 103 1
137 117 1
137 219 1
137 229 1
137 327 1
137 362 1
137 443 1
138 26 1
138 104 1
138 118 1
138 220 1
138 230 1
138 328 1
138 361 1
138 362 1
138 444 1
139 27 1
139 105 1
139 119 1
139 221 1
139 231 1
139 329 1
139 364 1
139 445 1
140 28 1
140 106 1
140 120 1
140 222 1
140 232 1
140 330 1
140 363 1
140 364 1
140 446 1
141 29 1
141 107 1
141 121 1
141 223 1
141 233 1
141 331 1
141 366 1
141 447 1
142 30 1
142 108 1
142 122 1
142 224 1
142 234 1
142 332 1
142 365 1
142 366 1
142 448 1
143 31 1
143 109 1
143 123 1
143 169 1
143 235 1
143 333 1
143 368 1
143 393 1
144 32 1
144 110 1
144 124 1
144 170 1
144 236 1
144 334 1
144 367 1
144 368 1
144 394 1
145 33 1
145 111 1
145 125 1
145 171 1
145 237 1
145 335 1
145 370 1
145 395 1
146 34 1
146 112 1
146 126 1
146 172 1
146 238 1
146 336 1
146 369 1
146 370 1
146 396 1
147 35 1
147 57 1
147 127 1
147 173 1
147 239 1
147 281 1
147 372 1
147 397 1
148 36 1
148 58 1
148 128 1
148 174 1
148 240 1
148 282 1
148 371 1
148 372 1
148 398 1
149 37 1
149 59 1
149 129 1
149 175 1
149 241 1
149 283 1
149 374 1
149 399 1
150 38 1
150 60 1
150 130 1
150 176 1
150 242 1
150 284 1
150 373 1
150 374 1
150 400 1
151 39 1
151 61 1
151 131 1
151 177 1
151 243 1
151 285 1
151 376 1
151 401 1
152 40 1
152 62 1
152 132 1
152 178 1
152 244 1
152 286 1
152 375 1
152 376 1
152 402 1
153 41 1
153 63 1
153 133 1
153 179 1
153 245 1
153 287 1
153 378 1
153 403 1
154 42 1
154 64 1
154 134 1
154 180 1
154 246 1
154 288 1
154 377 1
154 378 1
154 404 1
155 43 1
155 65 1
155 135 1
155 181 1
155 247 1
155 289 1
155 380 1
155 405 1
156 44 1
156 66 1
156 136 1
156 182 1
156 248 1
156 290 1
156 379 1
156 380 1
156 406 1
157 45 1
157 67 1
157 137 1
157 183 1
157 249 1
157 291 1
157 382 1
157 407 1
158 46 1
158 68 1
158 138 1
158 184 1
158 250 1
158 292 1
158 381 1
158 382 1
158 408 1
159 47 1
159 69 1
159 139 1
159 185 1
159 251 1
159 293 1
159 384 1
159 409 1
160 48 1
160 70 1
160 140 1
160 186 1
160 252 1
160 294 1
160 383 1
160 384 1
160 410 1
161 49 1
161 71 1
161 141 1
161 187 1
161 253 1
161 295 1
161 386 1
161 411 1
162 50 1
162 72 1
162 142 1
162 188 1
162 254 1
162 296 1
162 385 1
162 386 1
162 412 1
163 51 1
163 73 1
163 143 1
163 189 1
163 255 1
163 297 1
163 388 1
163 413 1
164 52 1
164 74 1
164 144 1
164 190 1
164 256 1
164 298 1
164 387 1
164 388 1
164 414 1
165 53 1
165 75 1
165 145 1
165 191 1
165 257 1
165 299 1
165 390 1
165 415 1
166 54 1
166 76 1
166 146 1
166 192 1
166 258 1
166 300 1
166 389 1
166 390 1
166 416 1
167 55 1
167 77 1
167 147 1
167 193 1
167 259 1
167 301 1
167 392 1
167 417 1
168 56 1
168 78 1
168 148 1
168 194 1
168 260 1
168 302 1
168 391 1
168 392 1
168 418 1
