%%MatrixMarket matrix coordinate integer general
% GF(4) labels 0,1,2=omega,3=omega+1; arithmetic is NOT integer arithmetic.
% Coordinate indices are 1-based; omitted entries are zero.
84 224 672
1 1 1
1 45 1
1 73 1
1 105 1
1 113 2
1 161 1
1 171 1
1 199 1
2 2 1
2 46 1
2 74 1
2 106 1
2 114 2
2 162 1
2 172 1
2 200 1
3 3 1
3 47 1
3 75 1
3 107 1
3 115 2
3 163 1
3 173 1
3 201 1
4 4 1
4 48 1
4 76 1
4 108 1
4 116 2
4 164 1
4 174 1
4 202 1
5 5 1
5 49 1
5 77 1
5 109 1
5 117 2
5 165 1
5 175 1
5 203 1
6 6 1
6 50 1
6 78 1
6 110 1
6 118 2
6 166 1
6 176 1
6 204 1
7 7 1
7 51 1
7 79 1
7 111 1
7 119 2
7 167 1
7 177 1
7 205 1
8 8 1
8 52 1
8 80 1
8 112 1
8 120 2
8 168 1
8 178 1
8 206 1
9 9 1
9 53 1
9 81 1
9 85 1
9 121 2
9 141 1
9 179 1
9 207 1
10 10 1
10 54 1
10 82 1
10 86 1
10 122 2
10 142 1
10 180 1
10 208 1
11 11 1
11 55 1
11 83 1
11 87 1
11 123 2
11 143 1
11 181 1
11 209 1
12 12 1
12 56 1
12 84 1
12 88 1
12 124 2
12 144 1
12 182 1
12 210 1
13 13 1
13 29 1
13 57 1
13 89 1
13 125 2
13 145 1
13 183 1
13 211 1
14 14 1
14 30 1
14 58 1
14 90 1
14 126 2
14 146 1
14 184 1
14 212 1
15 15 1
15 31 1
15 59 1
15 91 1
15 127 2
15 147 1
15 185 1
15 213 1
16 16 1
16 32 1
16 60 1
16 92 1
16 128 2
16 148 1
16 186 1
16 214 1
17 17 1
17 33 1
17 61 1
17 93 1
17 129 2
17 149 1
17 187 1
17 215 1
18 18 1
18 34 1
18 62 1
18 94 1
18 130 2
18 150 1
18 188 1
18 216 1
19 19 1
19 35 1
19 63 1
19 95 1
19 131 2
19 151 1
19 189 1
19 217 1
20 20 1
20 36 1
20 64 1
20 96 1
20 132 2
20 152 1
20 190 1
20 218 1
21 21 1
21 37 1
21 65 1
21 97 1
21 133 2
21 153 1
21 191 1
21 219 1
22 22 1
22 38 1
22 66 1
22 98 1
22 134 2
22 154 1
22 192 1
22 220 1
23 23 1
23 39 1
23 67 1
23 99 1
23 135 2
23 155 1
23 193 1
23 221 1
24 24 1
24 40 1
24 68 1
24 100 1
24 136 2
24 156 1
24 194 1
24 222 1
25 25 1
25 41 1
25 69 1
25 101 1
25 137 2
25 157 1
25 195 1
25 223 1
26 26 1
26 42 1
26 70 1
26 102 1
26 138 2
26 158 1
26 196 1
26 224 1
27 27 1
27 43 1
27 71 1
27 103 1
27 139 2
27 159 1
27 169 1
27 197 1
28 28 1
28 44 1
28 72 1
28 104 1
28 140 2
28 160 1
28 170 1
28 198 1
29 1 1
29 44 1
29 80 1
29 109 1
29 128 1
29 141 2
29 193 1
29 220 1
30 2 1
30 45 1
30 81 1
30 110 1
30 129 1
30 142 2
30 194 1
30 221 1
31 3 1
31 46 1
31 82 1
31 111 1
31 130 1
31 143 2
31 195 1
31 222 1
32 4 1
32 47 1
32 83 1
32 112 1
32 131 1
32 144 2
32 196 1
32 223 1
33 5 1
33 48 1
33 84 1
33 85 1
33 132 1
33 145 2
33 169 1
33 224 1
34 6 1
34 49 1
34 57 1
34 86 1
34 133 1
34 146 2
34 170 1
34 197 1
35 7 1
35 50 1
35 58 1
35 87 1
35 134 1
35 147 2
35 171 1
35 198 1
36 8 1
36 51 1
36 59 1
36 88 1
36 135 1
36 148 2
36 172 1
36 199 1
37 9 1
37 52 1
37 60 1
37 89 1
37 136 1
37 149 2
37 173 1
37 200 1
38 10 1
38 53 1
38 61 1
38 90 1
38 137 1
38 150 2
38 174 1
38 201 1
39 11 1
39 54 1
39 62 1
39 91 1
39 138 1
39 151 2
39 175 1
39 202 1
40 12 1
40 55 1
40 63 1
40 92 1
40 139 1
40 152 2
40 176 1
40 203 1
41 13 1
41 56 1
41 64 1
41 93 1
41 140 1
41 153 2
41 177 1
41 204 1
42 14 1
42 29 1
42 65 1
42 94 1
42 113 1
42 154 2
42 178 1
42 205 1
43 15 1
43 30 1
43 66 1
43 95 1
43 114 1
43 155 2
43 179 1
43 206 1
44 16 1
44 31 1
44 67 1
44 96 1
44 115 1
44 156 2
44 180 1
44 207 1
45 17 1
45 32 1
45 68 1
45 97 1
45 116 1
45 157 2
45 181 1
45 208 1
46 18 1
46 33 1
46 69 1
46 98 1
46 117 1
46 158 2
46 182 1
46 209 1
47 19 1
47 34 1
47 70 1
47 99 1
47 118 1
47 159 2
47 183 1
47 210 1
48 20 1
48 35 1
48 71 1
48 100 1
48 119 1
48 160 2
48 184 1
48 211 1
49 21 1
49 36 1
49 72 1
49 101 1
49 120 1
49 161 2
49 185 1
49 212 1
50 22 1
50 37 1
50 73 1
50 102 1
50 121 1
50 162 2
50 186 1
50 213 1
51 23 1
51 38 1
51 74 1
51 103 1
51 122 1
51 163 2
51 187 1
51 214 1
52 24 1
52 39 1
52 75 1
52 104 1
52 123 1
52 164 2
52 188 1
52 215 1
53 25 1
53 40 1
53 76 1
53 105 1
53 124 1
53 165 2
53 189 1
53 216 1
54 26 1
54 41 1
54 77 1
54 106 1
54 125 1
54 166 2
54 190 1
54 217 1
55 27 1
55 42 1
55 78 1
55 107 1
55 126 1
55 167 2
55 191 1
55 218 1
56 28 1
56 43 1
56 79 1
56 108 1
56 127 1
56 168 2
56 192 1
56 219 1
57 1 1
57 40 1
57 75 1
57 98 1
57 131 1
57 152 1
57 169 2
57 210 1
58 2 1
58 41 1
58 76 1
58 99 1
58 132 1
58 153 1
58 170 2
58 211 1
59 3 1
59 42 1
59 77 1
59 100 1
59 133 1
59 154 1
59 171 2
59 212 1
60 4 1
60 43 1
60 78 1
60 101 1
60 134 1
60 155 1
60 172 2
60 213 1
61 5 1
61 44 1
61 79 1
61 102 1
61 135 1
61 156 1
61 173 2
61 214 1
62 6 1
62 45 1
62 80 1
62 103 1
62 136 1
62 157 1
62 174 2
62 215 1
63 7 1
63 46 1
63 81 1
63 104 1
63 137 1
63 158 1
63 175 2
63 216 1
64 8 1
64 47 1
64 82 1
64 105 1
64 138 1
64 159 1
64 176 2
64 217 1
65 9 1
65 48 1
65 83 1
65 106 1
65 139 1
65 160 1
65 177 2
65 218 1
66 10 1
66 49 1
66 84 1
66 107 1
66 140 1
66 161 1
66 178 2
66 219 1
67 11 1
67 50 1
67 57 1
67 108 1
67 113 1
67 162 1
67 179 2
67 220 1
68 12 1
68 51 1
68 58 1
68 109 1
68 114 1
68 163 1
68 180 2
68 221 1
69 13 1
69 52 1
69 59 1
69 110 1
69 115 1
69 164 1
69 181 2
69 222 1
70 14 1
70 53 1
70 60 1
70 111 1
70 116 1
70 165 1
70 182 2
70 223 1
71 15 1
71 54 1
71 61 1
71 112 1
71 117 1
71 166 1
71 183 2
71 224 1
72 16 1
72 55 1
72 62 1
72 85 1
72 118 1
72 167 1
72 184 2
72 197 1
73 17 1
73 56 1
73 63 1
73 86 1
73 119 1
73 168 1
73 185 2
73 198 1
74 18 1
74 29 1
74 64 1
74 87 1
74 120 1
74 141 1
74 186 2
74 199 1
75 19 1
75 30 1
75 65 1
75 88 1
75 121 1
75 142 1
75 187 2
75 200 1
76 20 1
76 31 1
76 66 1
76 89 1
76 122 1
76 143 1
76 188 2
76 201 1
77 21 1
77 32 1
77 67 1
77 90 1
77 123 1
77 144 1
77 189 2
77 202 1
78 22 1
78 33 1
78 68 1
78 91 1
78 124 1
78 145 1
78 190 2
78 203 1
79 23 1
79 34 1
79 69 1
79 92 1
79 125 1
79 146 1
79 191 2
79 204 1
80 24 1
80 35 1
80 70 1
80 93 1
80 126 1
80 147 1
80 192 2
80 205 1
81 25 1
81 36 1
81 71 1
81 94 1
81 127 1
81 148 1
81 193 2
81 206 1
82 26 1
82 37 1
82 72 1
82 95 1
82 128 1
82 149 1
82 194 2
82 207 1
83 27 1
83 38 1
83 73 1
83 96 1
83 129 1
83 150 1
83 195 2
83 208 1
84 28 1
84 39 1
84 74 1
84 97 1
84 130 1
84 151 1
84 196 2
84 209 1
