%%MatrixMarket matrix coordinate integer general
% Binary matrix over GF(2).
% Coordinate indices are 1-based; omitted entries are zero.
112 448 2716
1 186 1
1 213 1
1 227 1
1 241 1
1 242 1
1 250 1
1 252 1
1 263 1
1 279 1
1 289 1
1 290 1
1 305 1
1 320 1
1 324 1
1 325 1
1 333 1
1 353 1
1 357 1
1 367 1
1 368 1
1 374 1
1 380 1
1 381 1
2 188 1
2 215 1
2 225 1
2 229 1
2 243 1
2 244 1
2 252 1
2 254 1
2 265 1
2 291 1
2 292 1
2 307 1
2 322 1
2 326 1
2 327 1
2 335 1
2 355 1
2 359 1
2 369 1
2 370 1
2 376 1
2 382 1
2 383 1
3 190 1
3 217 1
3 227 1
3 231 1
3 245 1
3 246 1
3 254 1
3 256 1
3 267 1
3 281 1
3 293 1
3 294 1
3 309 1
3 324 1
3 328 1
3 329 1
3 357 1
3 361 1
3 371 1
3 372 1
3 378 1
3 384 1
3 385 1
4 192 1
4 219 1
4 229 1
4 233 1
4 247 1
4 248 1
4 256 1
4 258 1
4 269 1
4 283 1
4 295 1
4 296 1
4 311 1
4 326 1
4 330 1
4 331 1
4 359 1
4 363 1
4 373 1
4 374 1
4 380 1
4 386 1
4 387 1
5 194 1
5 221 1
5 231 1
5 235 1
5 249 1
5 250 1
5 258 1
5 260 1
5 271 1
5 285 1
5 297 1
5 298 1
5 313 1
5 328 1
5 332 1
5 333 1
5 361 1
5 365 1
5 375 1
5 376 1
5 382 1
5 388 1
5 389 1
6 196 1
6 223 1
6 233 1
6 237 1
6 251 1
6 252 1
6 260 1
6 262 1
6 273 1
6 287 1
6 299 1
6 300 1
6 315 1
6 330 1
6 334 1
6 335 1
6 363 1
6 367 1
6 377 1
6 378 1
6 384 1
6 390 1
6 391 1
7 169 1
7 198 1
7 235 1
7 239 1
7 253 1
7 254 1
7 262 1
7 264 1
7 275 1
7 281 1
7 289 1
7 301 1
7 302 1
7 317 1
7 332 1
7 336 1
7 337 1
7 365 1
7 369 1
7 379 1
7 380 1
7 386 1
7 392 1
8 171 1
8 200 1
8 237 1
8 241 1
8 255 1
8 256 1
8 264 1
8 266 1
8 277 1
8 282 1
8 283 1
8 291 1
8 303 1
8 304 1
8 319 1
8 334 1
8 338 1
8 339 1
8 367 1
8 371 1
8 381 1
8 382 1
8 388 1
9 173 1
9 202 1
9 239 1
9 243 1
9 257 1
9 258 1
9 266 1
9 268 1
9 279 1
9 284 1
9 285 1
9 293 1
9 305 1
9 306 1
9 321 1
9 336 1
9 340 1
9 341 1
9 369 1
9 373 1
9 383 1
9 384 1
9 390 1
10 175 1
10 204 1
10 225 1
10 241 1
10 245 1
10 259 1
10 260 1
10 268 1
10 270 1
10 282 1
10 286 1
10 287 1
10 295 1
10 307 1
10 308 1
10 323 1
10 342 1
10 343 1
10 371 1
10 375 1
10 385 1
10 386 1
10 392 1
11 177 1
11 206 1
11 227 1
11 243 1
11 247 1
11 261 1
11 262 1
11 270 1
11 272 1
11 284 1
11 288 1
11 289 1
11 297 1
11 309 1
11 310 1
11 325 1
11 338 1
11 344 1
11 345 1
11 373 1
11 377 1
11 387 1
11 388 1
12 179 1
12 208 1
12 229 1
12 245 1
12 249 1
12 263 1
12 264 1
12 272 1
12 274 1
12 286 1
12 290 1
12 291 1
12 299 1
12 311 1
12 312 1
12 327 1
12 340 1
12 346 1
12 347 1
12 375 1
12 379 1
12 389 1
12 390 1
13 181 1
13 210 1
13 231 1
13 247 1
13 251 1
13 265 1
13 266 1
13 274 1
13 276 1
13 288 1
13 292 1
13 293 1
13 301 1
13 313 1
13 314 1
13 329 1
13 342 1
13 348 1
13 349 1
13 377 1
13 381 1
13 391 1
13 392 1
14 183 1
14 212 1
14 233 1
14 249 1
14 253 1
14 267 1
14 268 1
14 276 1
14 278 1
14 290 1
14 294 1
14 295 1
14 303 1
14 315 1
14 316 1
14 331 1
14 337 1
14 338 1
14 344 1
14 350 1
14 351 1
14 379 1
14 383 1
15 185 1
15 214 1
15 235 1
15 251 1
15 255 1
15 269 1
15 270 1
15 278 1
15 280 1
15 292 1
15 296 1
15 297 1
15 305 1
15 317 1
15 318 1
15 333 1
15 339 1
15 340 1
15 346 1
15 352 1
15 353 1
15 381 1
15 385 1
16 187 1
16 216 1
16 226 1
16 237 1
16 253 1
16 257 1
16 271 1
16 272 1
16 280 1
16 294 1
16 298 1
16 299 1
16 307 1
16 319 1
16 320 1
16 335 1
16 341 1
16 342 1
16 348 1
16 354 1
16 355 1
16 383 1
16 387 1
17 189 1
17 218 1
17 226 1
17 228 1
17 239 1
17 255 1
17 259 1
17 273 1
17 274 1
17 281 1
17 296 1
17 300 1
17 301 1
17 309 1
17 321 1
17 322 1
17 343 1
17 344 1
17 350 1
17 356 1
17 357 1
17 385 1
17 389 1
18 191 1
18 220 1
18 228 1
18 230 1
18 241 1
18 257 1
18 261 1
18 275 1
18 276 1
18 283 1
18 298 1
18 302 1
18 303 1
18 311 1
18 323 1
18 324 1
18 345 1
18 346 1
18 352 1
18 358 1
18 359 1
18 387 1
18 391 1
19 193 1
19 222 1
19 230 1
19 232 1
19 243 1
19 259 1
19 263 1
19 277 1
19 278 1
19 285 1
19 300 1
19 304 1
19 305 1
19 313 1
19 325 1
19 326 1
19 337 1
19 347 1
19 348 1
19 354 1
19 360 1
19 361 1
19 389 1
20 195 1
20 224 1
20 232 1
20 234 1
20 245 1
20 261 1
20 265 1
20 279 1
20 280 1
20 287 1
20 302 1
20 306 1
20 307 1
20 315 1
20 327 1
20 328 1
20 339 1
20 349 1
20 350 1
20 356 1
20 362 1
20 363 1
20 391 1
21 170 1
21 197 1
21 225 1
21 226 1
21 234 1
21 236 1
21 247 1
21 263 1
21 267 1
21 289 1
21 304 1
21 308 1
21 309 1
21 317 1
21 329 1
21 330 1
21 337 1
21 341 1
21 351 1
21 352 1
21 358 1
21 364 1
21 365 1
22 172 1
22 199 1
22 227 1
22 228 1
22 236 1
22 238 1
22 249 1
22 265 1
22 269 1
22 291 1
22 306 1
22 310 1
22 311 1
22 319 1
22 331 1
22 332 1
22 339 1
22 343 1
22 353 1
22 354 1
22 360 1
22 366 1
22 367 1
23 174 1
23 201 1
23 229 1
23 230 1
23 238 1
23 240 1
23 251 1
23 267 1
23 271 1
23 293 1
23 308 1
23 312 1
23 313 1
23 321 1
23 333 1
23 334 1
23 341 1
23 345 1
23 355 1
23 356 1
23 362 1
23 368 1
23 369 1
24 176 1
24 203 1
24 231 1
24 232 1
24 240 1
24 242 1
24 253 1
24 269 1
24 273 1
24 295 1
24 310 1
24 314 1
24 315 1
24 323 1
24 335 1
24 336 1
24 343 1
24 347 1
24 357 1
24 358 1
24 364 1
24 370 1
24 371 1
25 178 1
25 205 1
25 233 1
25 234 1
25 242 1
25 244 1
25 255 1
25 271 1
25 275 1
25 281 1
25 282 1
25 297 1
25 312 1
25 316 1
25 317 1
25 325 1
25 345 1
25 349 1
25 359 1
25 360 1
25 366 1
25 372 1
25 373 1
26 180 1
26 207 1
26 235 1
26 236 1
26 244 1
26 246 1
26 257 1
26 273 1
26 277 1
26 283 1
26 284 1
26 299 1
26 314 1
26 318 1
26 319 1
26 327 1
26 347 1
26 351 1
26 361 1
26 362 1
26 368 1
26 374 1
26 375 1
27 182 1
27 209 1
27 237 1
27 238 1
27 246 1
27 248 1
27 259 1
27 275 1
27 279 1
27 285 1
27 286 1
27 301 1
27 316 1
27 320 1
27 321 1
27 329 1
27 349 1
27 353 1
27 363 1
27 364 1
27 370 1
27 376 1
27 377 1
28 184 1
28 211 1
28 225 1
28 239 1
28 240 1
28 248 1
28 250 1
28 261 1
28 277 1
28 287 1
28 288 1
28 303 1
28 318 1
28 322 1
28 323 1
28 331 1
28 351 1
28 355 1
28 365 1
28 366 1
28 372 1
28 378 1
28 379 1
29 185 1
29 186 1
29 214 1
29 228 1
29 241 1
29 249 1
29 250 1
29 251 1
29 252 1
29 264 1
29 280 1
29 289 1
29 306 1
29 319 1
29 320 1
29 323 1
29 324 1
29 326 1
29 334 1
29 354 1
29 358 1
29 367 1
29 373 1
29 374 1
29 379 1
29 380 1
29 382 1
30 187 1
30 188 1
30 216 1
30 226 1
30 230 1
30 243 1
30 251 1
30 252 1
30 253 1
30 254 1
30 266 1
30 291 1
30 308 1
30 321 1
30 322 1
30 325 1
30 326 1
30 328 1
30 336 1
30 356 1
30 360 1
30 369 1
30 375 1
30 376 1
30 381 1
30 382 1
30 384 1
31 189 1
31 190 1
31 218 1
31 228 1
31 232 1
31 245 1
31 253 1
31 254 1
31 255 1
31 256 1
31 268 1
31 282 1
31 293 1
31 310 1
31 323 1
31 324 1
31 327 1
31 328 1
31 330 1
31 358 1
31 362 1
31 371 1
31 377 1
31 378 1
31 383 1
31 384 1
31 386 1
32 191 1
32 192 1
32 220 1
32 230 1
32 234 1
32 247 1
32 255 1
32 256 1
32 257 1
32 258 1
32 270 1
32 284 1
32 295 1
32 312 1
32 325 1
32 326 1
32 329 1
32 330 1
32 332 1
32 360 1
32 364 1
32 373 1
32 379 1
32 380 1
32 385 1
32 386 1
32 388 1
33 193 1
33 194 1
33 222 1
33 232 1
33 236 1
33 249 1
33 257 1
33 258 1
33 259 1
33 260 1
33 272 1
33 286 1
33 297 1
33 314 1
33 327 1
33 328 1
33 331 1
33 332 1
33 334 1
33 362 1
33 366 1
33 375 1
33 381 1
33 382 1
33 387 1
33 388 1
33 390 1
34 195 1
34 196 1
34 224 1
34 234 1
34 238 1
34 251 1
34 259 1
34 260 1
34 261 1
34 262 1
34 274 1
34 288 1
34 299 1
34 316 1
34 329 1
34 330 1
34 333 1
34 334 1
34 336 1
34 364 1
34 368 1
34 377 1
34 383 1
34 384 1
34 389 1
34 390 1
34 392 1
35 170 1
35 197 1
35 198 1
35 236 1
35 240 1
35 253 1
35 261 1
35 262 1
35 263 1
35 264 1
35 276 1
35 282 1
35 290 1
35 301 1
35 318 1
35 331 1
35 332 1
35 335 1
35 336 1
35 338 1
35 366 1
35 370 1
35 379 1
35 385 1
35 386 1
35 391 1
35 392 1
36 172 1
36 199 1
36 200 1
36 238 1
36 242 1
36 255 1
36 263 1
36 264 1
36 265 1
36 266 1
36 278 1
36 281 1
36 282 1
36 284 1
36 292 1
36 303 1
36 320 1
36 333 1
36 334 1
36 337 1
36 338 1
36 340 1
36 368 1
36 372 1
36 381 1
36 387 1
36 388 1
37 174 1
37 201 1
37 202 1
37 240 1
37 244 1
37 257 1
37 265 1
37 266 1
37 267 1
37 268 1
37 280 1
37 283 1
37 284 1
37 286 1
37 294 1
37 305 1
37 322 1
37 335 1
37 336 1
37 339 1
37 340 1
37 342 1
37 370 1
37 374 1
37 383 1
37 389 1
37 390 1
38 176 1
38 203 1
38 204 1
38 226 1
38 242 1
38 246 1
38 259 1
38 267 1
38 268 1
38 269 1
38 270 1
38 281 1
38 282 1
38 285 1
38 286 1
38 288 1
38 296 1
38 307 1
38 324 1
38 341 1
38 342 1
38 344 1
38 372 1
38 376 1
38 385 1
38 391 1
38 392 1
39 178 1
39 205 1
39 206 1
39 228 1
39 244 1
39 248 1
39 261 1
39 269 1
39 270 1
39 271 1
39 272 1
39 283 1
39 284 1
39 287 1
39 288 1
39 290 1
39 298 1
39 309 1
39 326 1
39 337 1
39 338 1
39 343 1
39 344 1
39 346 1
39 374 1
39 378 1
39 387 1
40 180 1
40 207 1
40 208 1
40 230 1
40 246 1
40 250 1
40 263 1
40 271 1
40 272 1
40 273 1
40 274 1
40 285 1
40 286 1
40 289 1
40 290 1
40 292 1
40 300 1
40 311 1
40 328 1
40 339 1
40 340 1
40 345 1
40 346 1
40 348 1
40 376 1
40 380 1
40 389 1
41 182 1
41 209 1
41 210 1
41 232 1
41 248 1
41 252 1
41 265 1
41 273 1
41 274 1
41 275 1
41 276 1
41 287 1
41 288 1
41 291 1
41 292 1
41 294 1
41 302 1
41 313 1
41 330 1
41 341 1
41 342 1
41 347 1
41 348 1
41 350 1
41 378 1
41 382 1
41 391 1
42 184 1
42 211 1
42 212 1
42 234 1
42 250 1
42 254 1
42 267 1
42 275 1
42 276 1
42 277 1
42 278 1
42 289 1
42 290 1
42 293 1
42 294 1
42 296 1
42 304 1
42 315 1
42 332 1
42 337 1
42 343 1
42 344 1
42 349 1
42 350 1
42 352 1
42 380 1
42 384 1
43 186 1
43 213 1
43 214 1
43 236 1
43 252 1
43 256 1
43 269 1
43 277 1
43 278 1
43 279 1
43 280 1
43 291 1
43 292 1
43 295 1
43 296 1
43 298 1
43 306 1
43 317 1
43 334 1
43 339 1
43 345 1
43 346 1
43 351 1
43 352 1
43 354 1
43 382 1
43 386 1
44 188 1
44 215 1
44 216 1
44 225 1
44 226 1
44 238 1
44 254 1
44 258 1
44 271 1
44 279 1
44 280 1
44 293 1
44 294 1
44 297 1
44 298 1
44 300 1
44 308 1
44 319 1
44 336 1
44 341 1
44 347 1
44 348 1
44 353 1
44 354 1
44 356 1
44 384 1
44 388 1
45 190 1
45 217 1
45 218 1
45 225 1
45 226 1
45 227 1
45 228 1
45 240 1
45 256 1
45 260 1
45 273 1
45 282 1
45 295 1
45 296 1
45 299 1
45 300 1
45 302 1
45 310 1
45 321 1
45 343 1
45 349 1
45 350 1
45 355 1
45 356 1
45 358 1
45 386 1
45 390 1
46 192 1
46 219 1
46 220 1
46 227 1
46 228 1
46 229 1
46 230 1
46 242 1
46 258 1
46 262 1
46 275 1
46 284 1
46 297 1
46 298 1
46 301 1
46 302 1
46 304 1
46 312 1
46 323 1
46 345 1
46 351 1
46 352 1
46 357 1
46 358 1
46 360 1
46 388 1
46 392 1
47 194 1
47 221 1
47 222 1
47 229 1
47 230 1
47 231 1
47 232 1
47 244 1
47 260 1
47 264 1
47 277 1
47 286 1
47 299 1
47 300 1
47 303 1
47 304 1
47 306 1
47 314 1
47 325 1
47 338 1
47 347 1
47 353 1
47 354 1
47 359 1
47 360 1
47 362 1
47 390 1
48 196 1
48 223 1
48 224 1
48 231 1
48 232 1
48 233 1
48 234 1
48 246 1
48 262 1
48 266 1
48 279 1
48 288 1
48 301 1
48 302 1
48 305 1
48 306 1
48 308 1
48 316 1
48 327 1
48 340 1
48 349 1
48 355 1
48 356 1
48 361 1
48 362 1
48 364 1
48 392 1
49 169 1
49 170 1
49 198 1
49 225 1
49 233 1
49 234 1
49 235 1
49 236 1
49 248 1
49 264 1
49 268 1
49 290 1
49 303 1
49 304 1
49 307 1
49 308 1
49 310 1
49 318 1
49 329 1
49 338 1
49 342 1
49 351 1
49 357 1
49 358 1
49 363 1
49 364 1
49 366 1
50 171 1
50 172 1
50 200 1
50 227 1
50 235 1
50 236 1
50 237 1
50 238 1
50 250 1
50 266 1
50 270 1
50 292 1
50 305 1
50 306 1
50 309 1
50 310 1
50 312 1
50 320 1
50 331 1
50 340 1
50 344 1
50 353 1
50 359 1
50 360 1
50 365 1
50 366 1
50 368 1
51 173 1
51 174 1
51 202 1
51 229 1
51 237 1
51 238 1
51 239 1
51 240 1
51 252 1
51 268 1
51 272 1
51 294 1
51 307 1
51 308 1
51 311 1
51 312 1
51 314 1
51 322 1
51 333 1
51 342 1
51 346 1
51 355 1
51 361 1
51 362 1
51 367 1
51 368 1
51 370 1
52 175 1
52 176 1
52 204 1
52 231 1
52 239 1
52 240 1
52 241 1
52 242 1
52 254 1
52 270 1
52 274 1
52 296 1
52 309 1
52 310 1
52 313 1
52 314 1
52 316 1
52 324 1
52 335 1
52 344 1
52 348 1
52 357 1
52 363 1
52 364 1
52 369 1
52 370 1
52 372 1
53 177 1
53 178 1
53 206 1
53 233 1
53 241 1
53 242 1
53 243 1
53 244 1
53 256 1
53 272 1
53 276 1
53 281 1
53 298 1
53 311 1
53 312 1
53 315 1
53 316 1
53 318 1
53 326 1
53 346 1
53 350 1
53 359 1
53 365 1
53 366 1
53 371 1
53 372 1
53 374 1
54 179 1
54 180 1
54 208 1
54 235 1
54 243 1
54 244 1
54 245 1
54 246 1
54 258 1
54 274 1
54 278 1
54 283 1
54 300 1
54 313 1
54 314 1
54 317 1
54 318 1
54 320 1
54 328 1
54 348 1
54 352 1
54 361 1
54 367 1
54 368 1
54 373 1
54 374 1
54 376 1
55 181 1
55 182 1
55 210 1
55 237 1
55 245 1
55 246 1
55 247 1
55 248 1
55 260 1
55 276 1
55 280 1
55 285 1
55 302 1
55 315 1
55 316 1
55 319 1
55 320 1
55 322 1
55 330 1
55 350 1
55 354 1
55 363 1
55 369 1
55 370 1
55 375 1
55 376 1
55 378 1
56 183 1
56 184 1
56 212 1
56 226 1
56 239 1
56 247 1
56 248 1
56 249 1
56 250 1
56 262 1
56 278 1
56 287 1
56 304 1
56 317 1
56 318 1
56 321 1
56 322 1
56 324 1
56 332 1
56 352 1
56 356 1
56 365 1
56 371 1
56 372 1
56 377 1
56 378 1
56 380 1
57 263 1
57 264 1
57 265 1
57 266 1
57 278 1
57 279 1
57 280 1
57 292 1
57 303 1
57 305 1
57 306 1
57 307 1
57 308 1
57 319 1
57 333 1
57 334 1
57 337 1
57 338 1
57 354 1
57 368 1
57 381 1
57 383 1
57 384 1
57 409 1
57 437 1
57 438 1
58 225 1
58 226 1
58 265 1
58 266 1
58 267 1
58 268 1
58 280 1
58 294 1
58 305 1
58 307 1
58 308 1
58 309 1
58 310 1
58 321 1
58 335 1
58 336 1
58 339 1
58 340 1
58 356 1
58 370 1
58 383 1
58 385 1
58 386 1
58 411 1
58 439 1
58 440 1
59 226 1
59 227 1
59 228 1
59 267 1
59 268 1
59 269 1
59 270 1
59 281 1
59 282 1
59 296 1
59 307 1
59 309 1
59 310 1
59 311 1
59 312 1
59 323 1
59 341 1
59 342 1
59 358 1
59 372 1
59 385 1
59 387 1
59 388 1
59 413 1
59 441 1
59 442 1
60 228 1
60 229 1
60 230 1
60 269 1
60 270 1
60 271 1
60 272 1
60 283 1
60 284 1
60 298 1
60 309 1
60 311 1
60 312 1
60 313 1
60 314 1
60 325 1
60 343 1
60 344 1
60 360 1
60 374 1
60 387 1
60 389 1
60 390 1
60 415 1
60 443 1
60 444 1
61 230 1
61 231 1
61 232 1
61 271 1
61 272 1
61 273 1
61 274 1
61 285 1
61 286 1
61 300 1
61 311 1
61 313 1
61 314 1
61 315 1
61 316 1
61 327 1
61 345 1
61 346 1
61 362 1
61 376 1
61 389 1
61 391 1
61 392 1
61 417 1
61 445 1
61 446 1
62 232 1
62 233 1
62 234 1
62 273 1
62 274 1
62 275 1
62 276 1
62 287 1
62 288 1
62 302 1
62 313 1
62 315 1
62 316 1
62 317 1
62 318 1
62 329 1
62 337 1
62 338 1
62 347 1
62 348 1
62 364 1
62 378 1
62 391 1
62 419 1
62 447 1
62 448 1
63 234 1
63 235 1
63 236 1
63 275 1
63 276 1
63 277 1
63 278 1
63 289 1
63 290 1
63 304 1
63 315 1
63 317 1
63 318 1
63 319 1
63 320 1
63 331 1
63 337 1
63 339 1
63 340 1
63 349 1
63 350 1
63 366 1
63 380 1
63 393 1
63 394 1
63 421 1
64 236 1
64 237 1
64 238 1
64 277 1
64 278 1
64 279 1
64 280 1
64 291 1
64 292 1
64 306 1
64 317 1
64 319 1
64 320 1
64 321 1
64 322 1
64 333 1
64 339 1
64 341 1
64 342 1
64 351 1
64 352 1
64 368 1
64 382 1
64 395 1
64 396 1
64 423 1
65 225 1
65 226 1
65 238 1
65 239 1
65 240 1
65 279 1
65 280 1
65 293 1
65 294 1
65 308 1
65 319 1
65 321 1
65 322 1
65 323 1
65 324 1
65 335 1
65 341 1
65 343 1
65 344 1
65 353 1
65 354 1
65 370 1
65 384 1
65 397 1
65 398 1
65 425 1
66 225 1
66 226 1
66 227 1
66 228 1
66 240 1
66 241 1
66 242 1
66 281 1
66 295 1
66 296 1
66 310 1
66 321 1
66 323 1
66 324 1
66 325 1
66 326 1
66 343 1
66 345 1
66 346 1
66 355 1
66 356 1
66 372 1
66 386 1
66 399 1
66 400 1
66 427 1
67 227 1
67 228 1
67 229 1
67 230 1
67 242 1
67 243 1
67 244 1
67 283 1
67 297 1
67 298 1
67 312 1
67 323 1
67 325 1
67 326 1
67 327 1
67 328 1
67 345 1
67 347 1
67 348 1
67 357 1
67 358 1
67 374 1
67 388 1
67 401 1
67 402 1
67 429 1
68 229 1
68 230 1
68 231 1
68 232 1
68 244 1
68 245 1
68 246 1
68 285 1
68 299 1
68 300 1
68 314 1
68 325 1
68 327 1
68 328 1
68 329 1
68 330 1
68 347 1
68 349 1
68 350 1
68 359 1
68 360 1
68 376 1
68 390 1
68 403 1
68 404 1
68 431 1
69 231 1
69 232 1
69 233 1
69 234 1
69 246 1
69 247 1
69 248 1
69 287 1
69 301 1
69 302 1
69 316 1
69 327 1
69 329 1
69 330 1
69 331 1
69 332 1
69 349 1
69 351 1
69 352 1
69 361 1
69 362 1
69 378 1
69 392 1
69 405 1
69 406 1
69 433 1
70 233 1
70 234 1
70 235 1
70 236 1
70 248 1
70 249 1
70 250 1
70 289 1
70 303 1
70 304 1
70 318 1
70 329 1
70 331 1
70 332 1
70 333 1
70 334 1
70 338 1
70 351 1
70 353 1
70 354 1
70 363 1
70 364 1
70 380 1
70 407 1
70 408 1
70 435 1
71 235 1
71 236 1
71 237 1
71 238 1
71 250 1
71 251 1
71 252 1
71 291 1
71 305 1
71 306 1
71 320 1
71 331 1
71 333 1
71 334 1
71 335 1
71 336 1
71 340 1
71 353 1
71 355 1
71 356 1
71 365 1
71 366 1
71 382 1
71 409 1
71 410 1
71 437 1
72 237 1
72 238 1
72 239 1
72 240 1
72 252 1
72 253 1
72 254 1
72 281 1
72 282 1
72 293 1
72 307 1
72 308 1
72 322 1
72 333 1
72 335 1
72 336 1
72 342 1
72 355 1
72 357 1
72 358 1
72 367 1
72 368 1
72 384 1
72 411 1
72 412 1
72 439 1
73 239 1
73 240 1
73 241 1
73 242 1
73 254 1
73 255 1
73 256 1
73 281 1
73 282 1
73 283 1
73 284 1
73 295 1
73 309 1
73 310 1
73 324 1
73 335 1
73 344 1
73 357 1
73 359 1
73 360 1
73 369 1
73 370 1
73 386 1
73 413 1
73 414 1
73 441 1
74 241 1
74 242 1
74 243 1
74 244 1
74 256 1
74 257 1
74 258 1
74 281 1
74 283 1
74 284 1
74 285 1
74 286 1
74 297 1
74 311 1
74 312 1
74 326 1
74 346 1
74 359 1
74 361 1
74 362 1
74 371 1
74 372 1
74 388 1
74 415 1
74 416 1
74 443 1
75 243 1
75 244 1
75 245 1
75 246 1
75 258 1
75 259 1
75 260 1
75 283 1
75 285 1
75 286 1
75 287 1
75 288 1
75 299 1
75 313 1
75 314 1
75 328 1
75 348 1
75 361 1
75 363 1
75 364 1
75 373 1
75 374 1
75 390 1
75 417 1
75 418 1
75 445 1
76 245 1
76 246 1
76 247 1
76 248 1
76 260 1
76 261 1
76 262 1
76 285 1
76 287 1
76 288 1
76 289 1
76 290 1
76 301 1
76 315 1
76 316 1
76 330 1
76 350 1
76 363 1
76 365 1
76 366 1
76 375 1
76 376 1
76 392 1
76 419 1
76 420 1
76 447 1
77 247 1
77 248 1
77 249 1
77 250 1
77 262 1
77 263 1
77 264 1
77 287 1
77 289 1
77 290 1
77 291 1
77 292 1
77 303 1
77 317 1
77 318 1
77 332 1
77 338 1
77 352 1
77 365 1
77 367 1
77 368 1
77 377 1
77 378 1
77 393 1
77 421 1
77 422 1
78 249 1
78 250 1
78 251 1
78 252 1
78 264 1
78 265 1
78 266 1
78 289 1
78 291 1
78 292 1
78 293 1
78 294 1
78 305 1
78 319 1
78 320 1
78 334 1
78 340 1
78 354 1
78 367 1
78 369 1
78 370 1
78 379 1
78 380 1
78 395 1
78 423 1
78 424 1
79 251 1
79 252 1
79 253 1
79 254 1
79 266 1
79 267 1
79 268 1
79 291 1
79 293 1
79 294 1
79 295 1
79 296 1
79 307 1
79 321 1
79 322 1
79 336 1
79 342 1
79 356 1
79 369 1
79 371 1
79 372 1
79 381 1
79 382 1
79 397 1
79 425 1
79 426 1
80 253 1
80 254 1
80 255 1
80 256 1
80 268 1
80 269 1
80 270 1
80 282 1
80 293 1
80 295 1
80 296 1
80 297 1
80 298 1
80 309 1
80 323 1
80 324 1
80 344 1
80 358 1
80 371 1
80 373 1
80 374 1
80 383 1
80 384 1
80 399 1
80 427 1
80 428 1
81 255 1
81 256 1
81 257 1
81 258 1
81 270 1
81 271 1
81 272 1
81 284 1
81 295 1
81 297 1
81 298 1
81 299 1
81 300 1
81 311 1
81 325 1
81 326 1
81 346 1
81 360 1
81 373 1
81 375 1
81 376 1
81 385 1
81 386 1
81 401 1
81 429 1
81 430 1
82 257 1
82 258 1
82 259 1
82 260 1
82 272 1
82 273 1
82 274 1
82 286 1
82 297 1
82 299 1
82 300 1
82 301 1
82 302 1
82 313 1
82 327 1
82 328 1
82 348 1
82 362 1
82 375 1
82 377 1
82 378 1
82 387 1
82 388 1
82 403 1
82 431 1
82 432 1
83 259 1
83 260 1
83 261 1
83 262 1
83 274 1
83 275 1
83 276 1
83 288 1
83 299 1
83 301 1
83 302 1
83 303 1
83 304 1
83 315 1
83 329 1
83 330 1
83 350 1
83 364 1
83 377 1
83 379 1
83 380 1
83 389 1
83 390 1
83 405 1
83 433 1
83 434 1
84 261 1
84 262 1
84 263 1
84 264 1
84 276 1
84 277 1
84 278 1
84 290 1
84 301 1
84 303 1
84 304 1
84 305 1
84 306 1
84 317 1
84 331 1
84 332 1
84 352 1
84 366 1
84 379 1
84 381 1
84 382 1
84 391 1
84 392 1
84 407 1
84 435 1
84 436 1
85 263 1
85 265 1
85 277 1
85 278 1
85 279 1
85 291 1
85 292 1
85 304 1
85 305 1
85 307 1
85 320 1
85 333 1
85 337 1
85 353 1
85 354 1
85 367 1
85 368 1
85 382 1
85 383 1
85 410 1
85 437 1
86 225 1
86 265 1
86 267 1
86 279 1
86 280 1
86 293 1
86 294 1
86 306 1
86 307 1
86 309 1
86 322 1
86 335 1
86 339 1
86 355 1
86 356 1
86 369 1
86 370 1
86 384 1
86 385 1
86 412 1
86 439 1
87 225 1
87 226 1
87 227 1
87 267 1
87 269 1
87 281 1
87 295 1
87 296 1
87 308 1
87 309 1
87 311 1
87 324 1
87 341 1
87 357 1
87 358 1
87 371 1
87 372 1
87 386 1
87 387 1
87 414 1
87 441 1
88 227 1
88 228 1
88 229 1
88 269 1
88 271 1
88 283 1
88 297 1
88 298 1
88 310 1
88 311 1
88 313 1
88 326 1
88 343 1
88 359 1
88 360 1
88 373 1
88 374 1
88 388 1
88 389 1
88 416 1
88 443 1
89 229 1
89 230 1
89 231 1
89 271 1
89 273 1
89 285 1
89 299 1
89 300 1
89 312 1
89 313 1
89 315 1
89 328 1
89 345 1
89 361 1
89 362 1
89 375 1
89 376 1
89 390 1
89 391 1
89 418 1
89 445 1
90 231 1
90 232 1
90 233 1
90 273 1
90 275 1
90 287 1
90 301 1
90 302 1
90 314 1
90 315 1
90 317 1
90 330 1
90 337 1
90 347 1
90 363 1
90 364 1
90 377 1
90 378 1
90 392 1
90 420 1
90 447 1
91 233 1
91 234 1
91 235 1
91 275 1
91 277 1
91 289 1
91 303 1
91 304 1
91 316 1
91 317 1
91 319 1
91 332 1
91 338 1
91 339 1
91 349 1
91 365 1
91 366 1
91 379 1
91 380 1
91 393 1
91 422 1
92 235 1
92 236 1
92 237 1
92 277 1
92 279 1
92 291 1
92 305 1
92 306 1
92 318 1
92 319 1
92 321 1
92 334 1
92 340 1
92 341 1
92 351 1
92 367 1
92 368 1
92 381 1
92 382 1
92 395 1
92 424 1
93 225 1
93 237 1
93 238 1
93 239 1
93 279 1
93 293 1
93 307 1
93 308 1
93 320 1
93 321 1
93 323 1
93 336 1
93 342 1
93 343 1
93 353 1
93 369 1
93 370 1
93 383 1
93 384 1
93 397 1
93 426 1
94 225 1
94 227 1
94 239 1
94 240 1
94 241 1
94 282 1
94 295 1
94 309 1
94 310 1
94 322 1
94 323 1
94 325 1
94 344 1
94 345 1
94 355 1
94 371 1
94 372 1
94 385 1
94 386 1
94 399 1
94 428 1
95 227 1
95 229 1
95 241 1
95 242 1
95 243 1
95 284 1
95 297 1
95 311 1
95 312 1
95 324 1
95 325 1
95 327 1
95 346 1
95 347 1
95 357 1
95 373 1
95 374 1
95 387 1
95 388 1
95 401 1
95 430 1
96 229 1
96 231 1
96 243 1
96 244 1
96 245 1
96 286 1
96 299 1
96 313 1
96 314 1
96 326 1
96 327 1
96 329 1
96 348 1
96 349 1
96 359 1
96 375 1
96 376 1
96 389 1
96 390 1
96 403 1
96 432 1
97 231 1
97 233 1
97 245 1
97 246 1
97 247 1
97 288 1
97 301 1
97 315 1
97 316 1
97 328 1
97 329 1
97 331 1
97 350 1
97 351 1
97 361 1
97 377 1
97 378 1
97 391 1
97 392 1
97 405 1
97 434 1
98 233 1
98 235 1
98 247 1
98 248 1
98 249 1
98 290 1
98 303 1
98 317 1
98 318 1
98 330 1
98 331 1
98 333 1
98 337 1
98 338 1
98 352 1
98 353 1
98 363 1
98 379 1
98 380 1
98 407 1
98 436 1
99 235 1
99 237 1
99 249 1
99 250 1
99 251 1
99 292 1
99 305 1
99 319 1
99 320 1
99 332 1
99 333 1
99 335 1
99 339 1
99 340 1
99 354 1
99 355 1
99 365 1
99 381 1
99 382 1
99 409 1
99 438 1
100 237 1
100 239 1
100 251 1
100 252 1
100 253 1
100 281 1
100 294 1
100 307 1
100 321 1
100 322 1
100 334 1
100 335 1
100 341 1
100 342 1
100 356 1
100 357 1
100 367 1
100 383 1
100 384 1
100 411 1
100 440 1
101 239 1
101 241 1
101 253 1
101 254 1
101 255 1
101 281 1
101 283 1
101 296 1
101 309 1
101 323 1
101 324 1
101 336 1
101 343 1
101 344 1
101 358 1
101 359 1
101 369 1
101 385 1
101 386 1
101 413 1
101 442 1
102 241 1
102 243 1
102 255 1
102 256 1
102 257 1
102 282 1
102 283 1
102 285 1
102 298 1
102 311 1
102 325 1
102 326 1
102 345 1
102 346 1
102 360 1
102 361 1
102 371 1
102 387 1
102 388 1
102 415 1
102 444 1
103 243 1
103 245 1
103 257 1
103 258 1
103 259 1
103 284 1
103 285 1
103 287 1
103 300 1
103 313 1
103 327 1
103 328 1
103 347 1
103 348 1
103 362 1
103 363 1
103 373 1
103 389 1
103 390 1
103 417 1
103 446 1
104 245 1
104 247 1
104 259 1
104 260 1
104 261 1
104 286 1
104 287 1
104 289 1
104 302 1
104 315 1
104 329 1
104 330 1
104 349 1
104 350 1
104 364 1
104 365 1
104 375 1
104 391 1
104 392 1
104 419 1
104 448 1
105 247 1
105 249 1
105 261 1
105 262 1
105 263 1
105 288 1
105 289 1
105 291 1
105 304 1
105 317 1
105 331 1
105 332 1
105 337 1
105 338 1
105 351 1
105 352 1
105 366 1
105 367 1
105 377 1
105 394 1
105 421 1
106 249 1
106 251 1
106 263 1
106 264 1
106 265 1
106 290 1
106 291 1
106 293 1
106 306 1
106 319 1
106 333 1
106 334 1
106 339 1
106 340 1
106 353 1
106 354 1
106 368 1
106 369 1
106 379 1
106 396 1
106 423 1
107 251 1
107 253 1
107 265 1
107 266 1
107 267 1
107 292 1
107 293 1
107 295 1
107 308 1
107 321 1
107 335 1
107 336 1
107 341 1
107 342 1
107 355 1
107 356 1
107 370 1
107 371 1
107 381 1
107 398 1
107 425 1
108 253 1
108 255 1
108 267 1
108 268 1
108 269 1
108 281 1
108 282 1
108 294 1
108 295 1
108 297 1
108 310 1
108 323 1
108 343 1
108 344 1
108 357 1
108 358 1
108 372 1
108 373 1
108 383 1
108 400 1
108 427 1
109 255 1
109 257 1
109 269 1
109 270 1
109 271 1
109 283 1
109 284 1
109 296 1
109 297 1
109 299 1
109 312 1
109 325 1
109 345 1
109 346 1
109 359 1
109 360 1
109 374 1
109 375 1
109 385 1
109 402 1
109 429 1
110 257 1
110 259 1
110 271 1
110 272 1
110 273 1
110 285 1
110 286 1
110 298 1
110 299 1
110 301 1
110 314 1
110 327 1
110 347 1
110 348 1
110 361 1
110 362 1
110 376 1
110 377 1
110 387 1
110 404 1
110 431 1
111 259 1
111 261 1
111 273 1
111 274 1
111 275 1
111 287 1
111 288 1
111 300 1
111 301 1
111 303 1
111 316 1
111 329 1
111 349 1
111 350 1
111 363 1
111 364 1
111 378 1
111 379 1
111 389 1
111 406 1
111 433 1
112 261 1
112 263 1
112 275 1
112 276 1
112 277 1
112 289 1
112 290 1
112 302 1
112 303 1
112 305 1
112 318 1
112 331 1
112 351 1
112 352 1
112 365 1
112 366 1
112 380 1
112 381 1
112 391 1
112 408 1
112 435 1
