%%MatrixMarket matrix coordinate integer general
% GF(4) labels 0,1,2=omega,3=omega+1; arithmetic is NOT integer arithmetic.
% Coordinate indices are 1-based; omitted entries are zero.
56 224 1036
1 93 2
1 107 1
1 114 1
1 121 3
1 125 2
1 126 2
1 132 1
1 140 1
1 145 3
1 153 1
1 160 2
1 162 2
1 163 1
1 167 1
1 177 1
1 179 1
1 184 3
1 187 2
1 190 2
1 191 1
2 94 2
2 108 1
2 113 1
2 115 1
2 122 3
2 126 2
2 127 2
2 133 1
2 146 3
2 154 1
2 161 2
2 163 2
2 164 1
2 168 1
2 178 1
2 180 1
2 185 3
2 188 2
2 191 2
2 192 1
3 95 2
3 109 1
3 114 1
3 116 1
3 123 3
3 127 2
3 128 2
3 134 1
3 141 1
3 147 3
3 155 1
3 162 2
3 164 2
3 165 1
3 179 1
3 181 1
3 186 3
3 189 2
3 192 2
3 193 1
4 96 2
4 110 1
4 115 1
4 117 1
4 124 3
4 128 2
4 129 2
4 135 1
4 142 1
4 148 3
4 156 1
4 163 2
4 165 2
4 166 1
4 180 1
4 182 1
4 187 3
4 190 2
4 193 2
4 194 1
5 97 2
5 111 1
5 116 1
5 118 1
5 125 3
5 129 2
5 130 2
5 136 1
5 143 1
5 149 3
5 157 1
5 164 2
5 166 2
5 167 1
5 181 1
5 183 1
5 188 3
5 191 2
5 194 2
5 195 1
6 98 2
6 112 1
6 117 1
6 119 1
6 126 3
6 130 2
6 131 2
6 137 1
6 144 1
6 150 3
6 158 1
6 165 2
6 167 2
6 168 1
6 182 1
6 184 1
6 189 3
6 192 2
6 195 2
6 196 1
7 85 1
7 99 2
7 118 1
7 120 1
7 127 3
7 131 2
7 132 2
7 138 1
7 141 1
7 145 1
7 151 3
7 159 1
7 166 2
7 168 2
7 169 1
7 183 1
7 185 1
7 190 3
7 193 2
7 196 2
8 86 1
8 100 2
8 119 1
8 121 1
8 128 3
8 132 2
8 133 2
8 139 1
8 141 2
8 142 1
8 146 1
8 152 3
8 160 1
8 167 2
8 169 2
8 170 1
8 184 1
8 186 1
8 191 3
8 194 2
9 87 1
9 101 2
9 120 1
9 122 1
9 129 3
9 133 2
9 134 2
9 140 1
9 142 2
9 143 1
9 147 1
9 153 3
9 161 1
9 168 2
9 170 2
9 171 1
9 185 1
9 187 1
9 192 3
9 195 2
10 88 1
10 102 2
10 113 1
10 121 1
10 123 1
10 130 3
10 134 2
10 135 2
10 141 2
10 143 2
10 144 1
10 148 1
10 154 3
10 162 1
10 171 2
10 172 1
10 186 1
10 188 1
10 193 3
10 196 2
11 89 1
11 103 2
11 114 1
11 122 1
11 124 1
11 131 3
11 135 2
11 136 2
11 142 2
11 144 2
11 145 1
11 149 1
11 155 3
11 163 1
11 169 2
11 172 2
11 173 1
11 187 1
11 189 1
11 194 3
12 90 1
12 104 2
12 115 1
12 123 1
12 125 1
12 132 3
12 136 2
12 137 2
12 143 2
12 145 2
12 146 1
12 150 1
12 156 3
12 164 1
12 170 2
12 173 2
12 174 1
12 188 1
12 190 1
12 195 3
13 91 1
13 105 2
13 116 1
13 124 1
13 126 1
13 133 3
13 137 2
13 138 2
13 144 2
13 146 2
13 147 1
13 151 1
13 157 3
13 165 1
13 171 2
13 174 2
13 175 1
13 189 1
13 191 1
13 196 3
14 92 1
14 106 2
14 117 1
14 125 1
14 127 1
14 134 3
14 138 2
14 139 2
14 145 2
14 147 2
14 148 1
14 152 1
14 158 3
14 166 1
14 169 3
14 172 2
14 175 2
14 176 1
14 190 1
14 192 1
15 93 1
15 107 2
15 118 1
15 126 1
15 128 1
15 135 3
15 139 2
15 140 2
15 146 2
15 148 2
15 149 1
15 153 1
15 159 3
15 167 1
15 170 3
15 173 2
15 176 2
15 177 1
15 191 1
15 193 1
16 94 1
16 108 2
16 113 2
16 119 1
16 127 1
16 129 1
16 136 3
16 140 2
16 147 2
16 149 2
16 150 1
16 154 1
16 160 3
16 168 1
16 171 3
16 174 2
16 177 2
16 178 1
16 192 1
16 194 1
17 95 1
17 109 2
17 113 2
17 114 2
17 120 1
17 128 1
17 130 1
17 137 3
17 141 1
17 148 2
17 150 2
17 151 1
17 155 1
17 161 3
17 172 3
17 175 2
17 178 2
17 179 1
17 193 1
17 195 1
18 96 1
18 110 2
18 114 2
18 115 2
18 121 1
18 129 1
18 131 1
18 138 3
18 142 1
18 149 2
18 151 2
18 152 1
18 156 1
18 162 3
18 173 3
18 176 2
18 179 2
18 180 1
18 194 1
18 196 1
19 97 1
19 111 2
19 115 2
19 116 2
19 122 1
19 130 1
19 132 1
19 139 3
19 143 1
19 150 2
19 152 2
19 153 1
19 157 1
19 163 3
19 169 1
19 174 3
19 177 2
19 180 2
19 181 1
19 195 1
20 98 1
20 112 2
20 116 2
20 117 2
20 123 1
20 131 1
20 133 1
20 140 3
20 144 1
20 151 2
20 153 2
20 154 1
20 158 1
20 164 3
20 170 1
20 175 3
20 178 2
20 181 2
20 182 1
20 196 1
21 85 2
21 99 1
21 113 3
21 117 2
21 118 2
21 124 1
21 132 1
21 134 1
21 145 1
21 152 2
21 154 2
21 155 1
21 159 1
21 165 3
21 169 1
21 171 1
21 176 3
21 179 2
21 182 2
21 183 1
22 86 2
22 100 1
22 114 3
22 118 2
22 119 2
22 125 1
22 133 1
22 135 1
22 146 1
22 153 2
22 155 2
22 156 1
22 160 1
22 166 3
22 170 1
22 172 1
22 177 3
22 180 2
22 183 2
22 184 1
23 87 2
23 101 1
23 115 3
23 119 2
23 120 2
23 126 1
23 134 1
23 136 1
23 147 1
23 154 2
23 156 2
23 157 1
23 161 1
23 167 3
23 171 1
23 173 1
23 178 3
23 181 2
23 184 2
23 185 1
24 88 2
24 102 1
24 116 3
24 120 2
24 121 2
24 127 1
24 135 1
24 137 1
24 148 1
24 155 2
24 157 2
24 158 1
24 162 1
24 168 3
24 172 1
24 174 1
24 179 3
24 182 2
24 185 2
24 186 1
25 89 2
25 103 1
25 117 3
25 121 2
25 122 2
25 128 1
25 136 1
25 138 1
25 141 3
25 149 1
25 156 2
25 158 2
25 159 1
25 163 1
25 173 1
25 175 1
25 180 3
25 183 2
25 186 2
25 187 1
26 90 2
26 104 1
26 118 3
26 122 2
26 123 2
26 129 1
26 137 1
26 139 1
26 142 3
26 150 1
26 157 2
26 159 2
26 160 1
26 164 1
26 174 1
26 176 1
26 181 3
26 184 2
26 187 2
26 188 1
27 91 2
27 105 1
27 119 3
27 123 2
27 124 2
27 130 1
27 138 1
27 140 1
27 143 3
27 151 1
27 158 2
27 160 2
27 161 1
27 165 1
27 175 1
27 177 1
27 182 3
27 185 2
27 188 2
27 189 1
28 92 2
28 106 1
28 113 1
28 120 3
28 124 2
28 125 2
28 131 1
28 139 1
28 144 3
28 152 1
28 159 2
28 161 2
28 162 1
28 166 1
28 176 1
28 178 1
28 183 3
28 186 2
28 189 2
28 190 1
29 132 3
29 133 3
29 139 2
29 140 3
29 146 2
29 152 1
29 153 3
29 154 3
29 160 1
29 167 3
29 169 3
29 177 2
29 184 2
29 191 1
29 192 3
29 205 1
29 219 3
30 113 3
30 133 3
30 134 3
30 140 2
30 147 2
30 153 1
30 154 3
30 155 3
30 161 1
30 168 3
30 170 3
30 178 2
30 185 2
30 192 1
30 193 3
30 206 1
30 220 3
31 113 2
31 114 3
31 134 3
31 135 3
31 141 3
31 148 2
31 154 1
31 155 3
31 156 3
31 162 1
31 171 3
31 179 2
31 186 2
31 193 1
31 194 3
31 207 1
31 221 3
32 114 2
32 115 3
32 135 3
32 136 3
32 142 3
32 149 2
32 155 1
32 156 3
32 157 3
32 163 1
32 172 3
32 180 2
32 187 2
32 194 1
32 195 3
32 208 1
32 222 3
33 115 2
33 116 3
33 136 3
33 137 3
33 143 3
33 150 2
33 156 1
33 157 3
33 158 3
33 164 1
33 173 3
33 181 2
33 188 2
33 195 1
33 196 3
33 209 1
33 223 3
34 116 2
34 117 3
34 137 3
34 138 3
34 144 3
34 151 2
34 157 1
34 158 3
34 159 3
34 165 1
34 169 3
34 174 3
34 182 2
34 189 2
34 196 1
34 210 1
34 224 3
35 117 2
35 118 3
35 138 3
35 139 3
35 145 3
35 152 2
35 158 1
35 159 3
35 160 3
35 166 1
35 169 1
35 170 3
35 175 3
35 183 2
35 190 2
35 197 3
35 211 1
36 118 2
36 119 3
36 139 3
36 140 3
36 146 3
36 153 2
36 159 1
36 160 3
36 161 3
36 167 1
36 170 1
36 171 3
36 176 3
36 184 2
36 191 2
36 198 3
36 212 1
37 113 3
37 119 2
37 120 3
37 140 3
37 147 3
37 154 2
37 160 1
37 161 3
37 162 3
37 168 1
37 171 1
37 172 3
37 177 3
37 185 2
37 192 2
37 199 3
37 213 1
38 113 3
38 114 3
38 120 2
38 121 3
38 141 1
38 148 3
38 155 2
38 161 1
38 162 3
38 163 3
38 172 1
38 173 3
38 178 3
38 186 2
38 193 2
38 200 3
38 214 1
39 114 3
39 115 3
39 121 2
39 122 3
39 142 1
39 149 3
39 156 2
39 162 1
39 163 3
39 164 3
39 173 1
39 174 3
39 179 3
39 187 2
39 194 2
39 201 3
39 215 1
40 115 3
40 116 3
40 122 2
40 123 3
40 143 1
40 150 3
40 157 2
40 163 1
40 164 3
40 165 3
40 174 1
40 175 3
40 180 3
40 188 2
40 195 2
40 202 3
40 216 1
41 116 3
41 117 3
41 123 2
41 124 3
41 144 1
41 151 3
41 158 2
41 164 1
41 165 3
41 166 3
41 175 1
41 176 3
41 181 3
41 189 2
41 196 2
41 203 3
41 217 1
42 117 3
42 118 3
42 124 2
42 125 3
42 145 1
42 152 3
42 159 2
42 165 1
42 166 3
42 167 3
42 169 2
42 176 1
42 177 3
42 182 3
42 190 2
42 204 3
42 218 1
43 118 3
43 119 3
43 125 2
43 126 3
43 146 1
43 153 3
43 160 2
43 166 1
43 167 3
43 168 3
43 170 2
43 177 1
43 178 3
43 183 3
43 191 2
43 205 3
43 219 1
44 119 3
44 120 3
44 126 2
44 127 3
44 141 3
44 147 1
44 154 3
44 161 2
44 167 1
44 168 3
44 171 2
44 178 1
44 179 3
44 184 3
44 192 2
44 206 3
44 220 1
45 120 3
45 121 3
45 127 2
45 128 3
45 141 3
45 142 3
45 148 1
45 155 3
45 162 2
45 168 1
45 172 2
45 179 1
45 180 3
45 185 3
45 193 2
45 207 3
45 221 1
46 121 3
46 122 3
46 128 2
46 129 3
46 141 1
46 142 3
46 143 3
46 149 1
46 156 3
46 163 2
46 173 2
46 180 1
46 181 3
46 186 3
46 194 2
46 208 3
46 222 1
47 122 3
47 123 3
47 129 2
47 130 3
47 142 1
47 143 3
47 144 3
47 150 1
47 157 3
47 164 2
47 174 2
47 181 1
47 182 3
47 187 3
47 195 2
47 209 3
47 223 1
48 123 3
48 124 3
48 130 2
48 131 3
48 143 1
48 144 3
48 145 3
48 151 1
48 158 3
48 165 2
48 175 2
48 182 1
48 183 3
48 188 3
48 196 2
48 210 3
48 224 1
49 124 3
49 125 3
49 131 2
49 132 3
49 144 1
49 145 3
49 146 3
49 152 1
49 159 3
49 166 2
49 169 2
49 176 2
49 183 1
49 184 3
49 189 3
49 197 1
49 211 3
50 125 3
50 126 3
50 132 2
50 133 3
50 145 1
50 146 3
50 147 3
50 153 1
50 160 3
50 167 2
50 170 2
50 177 2
50 184 1
50 185 3
50 190 3
50 198 1
50 212 3
51 126 3
51 127 3
51 133 2
51 134 3
51 146 1
51 147 3
51 148 3
51 154 1
51 161 3
51 168 2
51 171 2
51 178 2
51 185 1
51 186 3
51 191 3
51 199 1
51 213 3
52 127 3
52 128 3
52 134 2
52 135 3
52 141 2
52 147 1
52 148 3
52 149 3
52 155 1
52 162 3
52 172 2
52 179 2
52 186 1
52 187 3
52 192 3
52 200 1
52 214 3
53 128 3
53 129 3
53 135 2
53 136 3
53 142 2
53 148 1
53 149 3
53 150 3
53 156 1
53 163 3
53 173 2
53 180 2
53 187 1
53 188 3
53 193 3
53 201 1
53 215 3
54 129 3
54 130 3
54 136 2
54 137 3
54 143 2
54 149 1
54 150 3
54 151 3
54 157 1
54 164 3
54 174 2
54 181 2
54 188 1
54 189 3
54 194 3
54 202 1
54 216 3
55 130 3
55 131 3
55 137 2
55 138 3
55 144 2
55 150 1
55 151 3
55 152 3
55 158 1
55 165 3
55 175 2
55 182 2
55 189 1
55 190 3
55 195 3
55 203 1
55 217 3
56 131 3
56 132 3
56 138 2
56 139 3
56 145 2
56 151 1
56 152 3
56 153 3
56 159 1
56 166 3
56 176 2
56 183 2
56 190 1
56 191 3
56 196 3
56 204 1
56 218 3
