%%MatrixMarket matrix coordinate integer general
% GF(4) labels 0,1,2=omega,3=omega+1; arithmetic is NOT integer arithmetic.
% Coordinate indices are 1-based; omitted entries are zero.
56 224 1036
1 4 3
1 9 3
1 10 1
1 17 2
1 24 2
1 30 3
1 31 3
1 32 1
1 38 2
1 45 3
1 52 1
1 58 3
1 59 3
1 79 3
1 80 2
1 93 1
1 107 3
2 5 3
2 10 3
2 11 1
2 18 2
2 25 2
2 31 3
2 32 3
2 33 1
2 39 2
2 46 3
2 53 1
2 59 3
2 60 3
2 80 3
2 81 2
2 94 1
2 108 3
3 6 3
3 11 3
3 12 1
3 19 2
3 26 2
3 32 3
3 33 3
3 34 1
3 40 2
3 47 3
3 54 1
3 60 3
3 61 3
3 81 3
3 82 2
3 95 1
3 109 3
4 7 3
4 12 3
4 13 1
4 20 2
4 27 2
4 33 3
4 34 3
4 35 1
4 41 2
4 48 3
4 55 1
4 61 3
4 62 3
4 82 3
4 83 2
4 96 1
4 110 3
5 8 3
5 13 3
5 14 1
5 21 2
5 28 2
5 34 3
5 35 3
5 36 1
5 42 2
5 49 3
5 56 1
5 62 3
5 63 3
5 83 3
5 84 2
5 97 1
5 111 3
6 1 2
6 9 3
6 14 3
6 15 1
6 22 2
6 29 1
6 35 3
6 36 3
6 37 1
6 43 2
6 50 3
6 57 2
6 63 3
6 64 3
6 84 3
6 98 1
6 112 3
7 2 2
7 10 3
7 15 3
7 16 1
7 23 2
7 30 1
7 36 3
7 37 3
7 38 1
7 44 2
7 51 3
7 57 3
7 58 2
7 64 3
7 65 3
7 85 3
7 99 1
8 3 2
8 11 3
8 16 3
8 17 1
8 24 2
8 31 1
8 37 3
8 38 3
8 39 1
8 45 2
8 52 3
8 58 3
8 59 2
8 65 3
8 66 3
8 86 3
8 100 1
9 4 2
9 12 3
9 17 3
9 18 1
9 25 2
9 32 1
9 38 3
9 39 3
9 40 1
9 46 2
9 53 3
9 59 3
9 60 2
9 66 3
9 67 3
9 87 3
9 101 1
10 5 2
10 13 3
10 18 3
10 19 1
10 26 2
10 33 1
10 39 3
10 40 3
10 41 1
10 47 2
10 54 3
10 60 3
10 61 2
10 67 3
10 68 3
10 88 3
10 102 1
11 6 2
11 14 3
11 19 3
11 20 1
11 27 2
11 34 1
11 40 3
11 41 3
11 42 1
11 48 2
11 55 3
11 61 3
11 62 2
11 68 3
11 69 3
11 89 3
11 103 1
12 7 2
12 15 3
12 20 3
12 21 1
12 28 2
12 35 1
12 41 3
12 42 3
12 43 1
12 49 2
12 56 3
12 62 3
12 63 2
12 69 3
12 70 3
12 90 3
12 104 1
13 1 2
13 8 2
13 16 3
13 21 3
13 22 1
13 29 3
13 36 1
13 42 3
13 43 3
13 44 1
13 50 2
13 63 3
13 64 2
13 70 3
13 71 3
13 91 3
13 105 1
14 2 2
14 9 2
14 17 3
14 22 3
14 23 1
14 30 3
14 37 1
14 43 3
14 44 3
14 45 1
14 51 2
14 64 3
14 65 2
14 71 3
14 72 3
14 92 3
14 106 1
15 3 2
15 10 2
15 18 3
15 23 3
15 24 1
15 31 3
15 38 1
15 44 3
15 45 3
15 46 1
15 52 2
15 65 3
15 66 2
15 72 3
15 73 3
15 93 3
15 107 1
16 4 2
16 11 2
16 19 3
16 24 3
16 25 1
16 32 3
16 39 1
16 45 3
16 46 3
16 47 1
16 53 2
16 66 3
16 67 2
16 73 3
16 74 3
16 94 3
16 108 1
17 5 2
17 12 2
17 20 3
17 25 3
17 26 1
17 33 3
17 40 1
17 46 3
17 47 3
17 48 1
17 54 2
17 67 3
17 68 2
17 74 3
17 75 3
17 95 3
17 109 1
18 6 2
18 13 2
18 21 3
18 26 3
18 27 1
18 34 3
18 41 1
18 47 3
18 48 3
18 49 1
18 55 2
18 68 3
18 69 2
18 75 3
18 76 3
18 96 3
18 110 1
19 7 2
19 14 2
19 22 3
19 27 3
19 28 1
19 35 3
19 42 1
19 48 3
19 49 3
19 50 1
19 56 2
19 69 3
19 70 2
19 76 3
19 77 3
19 97 3
19 111 1
20 1 1
20 8 2
20 15 2
20 23 3
20 28 3
20 29 2
20 36 3
20 43 1
20 49 3
20 50 3
20 51 1
20 70 3
20 71 2
20 77 3
20 78 3
20 98 3
20 112 1
21 1 3
21 2 1
21 9 2
21 16 2
21 24 3
21 30 2
21 37 3
21 44 1
21 50 3
21 51 3
21 52 1
21 71 3
21 72 2
21 78 3
21 79 3
21 85 1
21 99 3
22 2 3
22 3 1
22 10 2
22 17 2
22 25 3
22 31 2
22 38 3
22 45 1
22 51 3
22 52 3
22 53 1
22 72 3
22 73 2
22 79 3
22 80 3
22 86 1
22 100 3
23 3 3
23 4 1
23 11 2
23 18 2
23 26 3
23 32 2
23 39 3
23 46 1
23 52 3
23 53 3
23 54 1
23 73 3
23 74 2
23 80 3
23 81 3
23 87 1
23 101 3
24 4 3
24 5 1
24 12 2
24 19 2
24 27 3
24 33 2
24 40 3
24 47 1
24 53 3
24 54 3
24 55 1
24 74 3
24 75 2
24 81 3
24 82 3
24 88 1
24 102 3
25 5 3
25 6 1
25 13 2
25 20 2
25 28 3
25 34 2
25 41 3
25 48 1
25 54 3
25 55 3
25 56 1
25 75 3
25 76 2
25 82 3
25 83 3
25 89 1
25 103 3
26 1 3
26 6 3
26 7 1
26 14 2
26 21 2
26 29 1
26 35 2
26 42 3
26 49 1
26 55 3
26 56 3
26 76 3
26 77 2
26 83 3
26 84 3
26 90 1
26 104 3
27 2 3
27 7 3
27 8 1
27 15 2
27 22 2
27 29 3
27 30 1
27 36 2
27 43 3
27 50 1
27 56 3
27 57 3
27 77 3
27 78 2
27 84 3
27 91 1
27 105 3
28 3 3
28 8 3
28 9 1
28 16 2
28 23 2
28 29 3
28 30 3
28 31 1
28 37 2
28 44 3
28 51 1
28 57 3
28 58 3
28 78 3
28 79 2
28 92 1
28 106 3
29 10 1
29 11 2
29 14 2
29 17 3
29 22 1
29 24 1
29 31 1
29 39 3
29 45 1
29 49 1
29 50 2
29 52 2
29 59 1
29 65 2
29 66 2
29 70 3
29 77 1
29 79 1
29 205 2
29 219 1
30 11 1
30 12 2
30 15 2
30 18 3
30 23 1
30 25 1
30 32 1
30 40 3
30 46 1
30 50 1
30 51 2
30 53 2
30 60 1
30 66 2
30 67 2
30 71 3
30 78 1
30 80 1
30 206 2
30 220 1
31 12 1
31 13 2
31 16 2
31 19 3
31 24 1
31 26 1
31 33 1
31 41 3
31 47 1
31 51 1
31 52 2
31 54 2
31 61 1
31 67 2
31 68 2
31 72 3
31 79 1
31 81 1
31 207 2
31 221 1
32 13 1
32 14 2
32 17 2
32 20 3
32 25 1
32 27 1
32 34 1
32 42 3
32 48 1
32 52 1
32 53 2
32 55 2
32 62 1
32 68 2
32 69 2
32 73 3
32 80 1
32 82 1
32 208 2
32 222 1
33 14 1
33 15 2
33 18 2
33 21 3
33 26 1
33 28 1
33 35 1
33 43 3
33 49 1
33 53 1
33 54 2
33 56 2
33 63 1
33 69 2
33 70 2
33 74 3
33 81 1
33 83 1
33 209 2
33 223 1
34 1 1
34 15 1
34 16 2
34 19 2
34 22 3
34 27 1
34 29 2
34 36 1
34 44 3
34 50 1
34 54 1
34 55 2
34 64 1
34 70 2
34 71 2
34 75 3
34 82 1
34 84 1
34 210 2
34 224 1
35 2 1
35 16 1
35 17 2
35 20 2
35 23 3
35 28 1
35 30 2
35 37 1
35 45 3
35 51 1
35 55 1
35 56 2
35 57 1
35 65 1
35 71 2
35 72 2
35 76 3
35 83 1
35 197 1
35 211 2
36 1 1
36 3 1
36 17 1
36 18 2
36 21 2
36 24 3
36 29 2
36 31 2
36 38 1
36 46 3
36 52 1
36 56 1
36 58 1
36 66 1
36 72 2
36 73 2
36 77 3
36 84 1
36 198 1
36 212 2
37 2 1
37 4 1
37 18 1
37 19 2
37 22 2
37 25 3
37 29 1
37 30 2
37 32 2
37 39 1
37 47 3
37 53 1
37 57 1
37 59 1
37 67 1
37 73 2
37 74 2
37 78 3
37 199 1
37 213 2
38 3 1
38 5 1
38 19 1
38 20 2
38 23 2
38 26 3
38 30 1
38 31 2
38 33 2
38 40 1
38 48 3
38 54 1
38 58 1
38 60 1
38 68 1
38 74 2
38 75 2
38 79 3
38 200 1
38 214 2
39 4 1
39 6 1
39 20 1
39 21 2
39 24 2
39 27 3
39 31 1
39 32 2
39 34 2
39 41 1
39 49 3
39 55 1
39 59 1
39 61 1
39 69 1
39 75 2
39 76 2
39 80 3
39 201 1
39 215 2
40 5 1
40 7 1
40 21 1
40 22 2
40 25 2
40 28 3
40 32 1
40 33 2
40 35 2
40 42 1
40 50 3
40 56 1
40 60 1
40 62 1
40 70 1
40 76 2
40 77 2
40 81 3
40 202 1
40 216 2
41 1 3
41 6 1
41 8 1
41 22 1
41 23 2
41 26 2
41 29 1
41 33 1
41 34 2
41 36 2
41 43 1
41 51 3
41 61 1
41 63 1
41 71 1
41 77 2
41 78 2
41 82 3
41 203 1
41 217 2
42 2 3
42 7 1
42 9 1
42 23 1
42 24 2
42 27 2
42 30 1
42 34 1
42 35 2
42 37 2
42 44 1
42 52 3
42 62 1
42 64 1
42 72 1
42 78 2
42 79 2
42 83 3
42 204 1
42 218 2
43 3 3
43 8 1
43 10 1
43 24 1
43 25 2
43 28 2
43 31 1
43 35 1
43 36 2
43 38 2
43 45 1
43 53 3
43 63 1
43 65 1
43 73 1
43 79 2
43 80 2
43 84 3
43 205 1
43 219 2
44 1 2
44 4 3
44 9 1
44 11 1
44 25 1
44 26 2
44 32 1
44 36 1
44 37 2
44 39 2
44 46 1
44 54 3
44 57 3
44 64 1
44 66 1
44 74 1
44 80 2
44 81 2
44 206 1
44 220 2
45 2 2
45 5 3
45 10 1
45 12 1
45 26 1
45 27 2
45 33 1
45 37 1
45 38 2
45 40 2
45 47 1
45 55 3
45 58 3
45 65 1
45 67 1
45 75 1
45 81 2
45 82 2
45 207 1
45 221 2
46 3 2
46 6 3
46 11 1
46 13 1
46 27 1
46 28 2
46 34 1
46 38 1
46 39 2
46 41 2
46 48 1
46 56 3
46 59 3
46 66 1
46 68 1
46 76 1
46 82 2
46 83 2
46 208 1
46 222 2
47 1 2
47 4 2
47 7 3
47 12 1
47 14 1
47 28 1
47 29 3
47 35 1
47 39 1
47 40 2
47 42 2
47 49 1
47 60 3
47 67 1
47 69 1
47 77 1
47 83 2
47 84 2
47 209 1
47 223 2
48 1 1
48 2 2
48 5 2
48 8 3
48 13 1
48 15 1
48 30 3
48 36 1
48 40 1
48 41 2
48 43 2
48 50 1
48 57 2
48 61 3
48 68 1
48 70 1
48 78 1
48 84 2
48 210 1
48 224 2
49 2 1
49 3 2
49 6 2
49 9 3
49 14 1
49 16 1
49 31 3
49 37 1
49 41 1
49 42 2
49 44 2
49 51 1
49 57 2
49 58 2
49 62 3
49 69 1
49 71 1
49 79 1
49 197 2
49 211 1
50 3 1
50 4 2
50 7 2
50 10 3
50 15 1
50 17 1
50 32 3
50 38 1
50 42 1
50 43 2
50 45 2
50 52 1
50 58 2
50 59 2
50 63 3
50 70 1
50 72 1
50 80 1
50 198 2
50 212 1
51 4 1
51 5 2
51 8 2
51 11 3
51 16 1
51 18 1
51 33 3
51 39 1
51 43 1
51 44 2
51 46 2
51 53 1
51 59 2
51 60 2
51 64 3
51 71 1
51 73 1
51 81 1
51 199 2
51 213 1
52 5 1
52 6 2
52 9 2
52 12 3
52 17 1
52 19 1
52 34 3
52 40 1
52 44 1
52 45 2
52 47 2
52 54 1
52 60 2
52 61 2
52 65 3
52 72 1
52 74 1
52 82 1
52 200 2
52 214 1
53 6 1
53 7 2
53 10 2
53 13 3
53 18 1
53 20 1
53 35 3
53 41 1
53 45 1
53 46 2
53 48 2
53 55 1
53 61 2
53 62 2
53 66 3
53 73 1
53 75 1
53 83 1
53 201 2
53 215 1
54 7 1
54 8 2
54 11 2
54 14 3
54 19 1
54 21 1
54 36 3
54 42 1
54 46 1
54 47 2
54 49 2
54 56 1
54 62 2
54 63 2
54 67 3
54 74 1
54 76 1
54 84 1
54 202 2
54 216 1
55 8 1
55 9 2
55 12 2
55 15 3
55 20 1
55 22 1
55 29 1
55 37 3
55 43 1
55 47 1
55 48 2
55 50 2
55 57 1
55 63 2
55 64 2
55 68 3
55 75 1
55 77 1
55 203 2
55 217 1
56 9 1
56 10 2
56 13 2
56 16 3
56 21 1
56 23 1
56 30 1
56 38 3
56 44 1
56 48 1
56 49 2
56 51 2
56 58 1
56 64 2
56 65 2
56 69 3
56 76 1
56 78 1
56 204 2
56 218 1
