%%MatrixMarket matrix coordinate integer general
% Binary matrix over GF(2).
% Coordinate indices are 1-based; omitted entries are zero.
180 480 1530
1 2 1
1 61 1
1 121 1
1 181 1
1 241 1
1 301 1
1 361 1
1 421 1
2 1 1
2 2 1
2 62 1
2 122 1
2 182 1
2 242 1
2 302 1
2 362 1
2 422 1
3 4 1
3 63 1
3 123 1
3 183 1
3 243 1
3 303 1
3 363 1
3 423 1
4 3 1
4 4 1
4 64 1
4 124 1
4 184 1
4 244 1
4 304 1
4 364 1
4 424 1
5 6 1
5 65 1
5 125 1
5 185 1
5 245 1
5 305 1
5 365 1
5 425 1
6 5 1
6 6 1
6 66 1
6 126 1
6 186 1
6 246 1
6 306 1
6 366 1
6 426 1
7 8 1
7 67 1
7 127 1
7 187 1
7 247 1
7 307 1
7 367 1
7 427 1
8 7 1
8 8 1
8 68 1
8 128 1
8 188 1
8 248 1
8 308 1
8 368 1
8 428 1
9 10 1
9 69 1
9 129 1
9 189 1
9 249 1
9 309 1
9 369 1
9 429 1
10 9 1
10 10 1
10 70 1
10 130 1
10 190 1
10 250 1
10 310 1
10 370 1
10 430 1
11 12 1
11 71 1
11 131 1
11 191 1
11 251 1
11 311 1
11 371 1
11 431 1
12 11 1
12 12 1
12 72 1
12 132 1
12 192 1
12 252 1
12 312 1
12 372 1
12 432 1
13 14 1
13 73 1
13 133 1
13 193 1
13 253 1
13 313 1
13 373 1
13 433 1
14 13 1
14 14 1
14 74 1
14 134 1
14 194 1
14 254 1
14 314 1
14 374 1
14 434 1
15 16 1
15 75 1
15 135 1
15 195 1
15 255 1
15 315 1
15 375 1
15 435 1
16 15 1
16 16 1
16 76 1
16 136 1
16 196 1
16 256 1
16 316 1
16 376 1
16 436 1
17 18 1
17 77 1
17 137 1
17 197 1
17 257 1
17 317 1
17 377 1
17 437 1
18 17 1
18 18 1
18 78 1
18 138 1
18 198 1
18 258 1
18 318 1
18 378 1
18 438 1
19 20 1
19 79 1
19 139 1
19 199 1
19 259 1
19 319 1
19 379 1
19 439 1
20 19 1
20 20 1
20 80 1
20 140 1
20 200 1
20 260 1
20 320 1
20 380 1
20 440 1
21 22 1
21 81 1
21 141 1
21 201 1
21 261 1
21 321 1
21 381 1
21 441 1
22 21 1
22 22 1
22 82 1
22 142 1
22 202 1
22 262 1
22 322 1
22 382 1
22 442 1
23 24 1
23 83 1
23 143 1
23 203 1
23 263 1
23 323 1
23 383 1
23 443 1
24 23 1
24 24 1
24 84 1
24 144 1
24 204 1
24 264 1
24 324 1
24 384 1
24 444 1
25 26 1
25 85 1
25 145 1
25 205 1
25 265 1
25 325 1
25 385 1
25 445 1
26 25 1
26 26 1
26 86 1
26 146 1
26 206 1
26 266 1
26 326 1
26 386 1
26 446 1
27 28 1
27 87 1
27 147 1
27 207 1
27 267 1
27 327 1
27 387 1
27 447 1
28 27 1
28 28 1
28 88 1
28 148 1
28 208 1
28 268 1
28 328 1
28 388 1
28 448 1
29 30 1
29 89 1
29 149 1
29 209 1
29 269 1
29 329 1
29 389 1
29 449 1
30 29 1
30 30 1
30 90 1
30 150 1
30 210 1
30 270 1
30 330 1
30 390 1
30 450 1
31 32 1
31 91 1
31 151 1
31 211 1
31 271 1
31 331 1
31 391 1
31 451 1
32 31 1
32 32 1
32 92 1
32 152 1
32 212 1
32 272 1
32 332 1
32 392 1
32 452 1
33 34 1
33 93 1
33 153 1
33 213 1
33 273 1
33 333 1
33 393 1
33 453 1
34 33 1
34 34 1
34 94 1
34 154 1
34 214 1
34 274 1
34 334 1
34 394 1
34 454 1
35 36 1
35 95 1
35 155 1
35 215 1
35 275 1
35 335 1
35 395 1
35 455 1
36 35 1
36 36 1
36 96 1
36 156 1
36 216 1
36 276 1
36 336 1
36 396 1
36 456 1
37 38 1
37 97 1
37 157 1
37 217 1
37 277 1
37 337 1
37 397 1
37 457 1
38 37 1
38 38 1
38 98 1
38 158 1
38 218 1
38 278 1
38 338 1
38 398 1
38 458 1
39 40 1
39 99 1
39 159 1
39 219 1
39 279 1
39 339 1
39 399 1
39 459 1
40 39 1
40 40 1
40 100 1
40 160 1
40 220 1
40 280 1
40 340 1
40 400 1
40 460 1
41 42 1
41 101 1
41 161 1
41 221 1
41 281 1
41 341 1
41 401 1
41 461 1
42 41 1
42 42 1
42 102 1
42 162 1
42 222 1
42 282 1
42 342 1
42 402 1
42 462 1
43 44 1
43 103 1
43 163 1
43 223 1
43 283 1
43 343 1
43 403 1
43 463 1
44 43 1
44 44 1
44 104 1
44 164 1
44 224 1
44 284 1
44 344 1
44 404 1
44 464 1
45 46 1
45 105 1
45 165 1
45 225 1
45 285 1
45 345 1
45 405 1
45 465 1
46 45 1
46 46 1
46 106 1
46 166 1
46 226 1
46 286 1
46 346 1
46 406 1
46 466 1
47 48 1
47 107 1
47 167 1
47 227 1
47 287 1
47 347 1
47 407 1
47 467 1
48 47 1
48 48 1
48 108 1
48 168 1
48 228 1
48 288 1
48 348 1
48 408 1
48 468 1
49 50 1
49 109 1
49 169 1
49 229 1
49 289 1
49 349 1
49 409 1
49 469 1
50 49 1
50 50 1
50 110 1
50 170 1
50 230 1
50 290 1
50 350 1
50 410 1
50 470 1
51 52 1
51 111 1
51 171 1
51 231 1
51 291 1
51 351 1
51 411 1
51 471 1
52 51 1
52 52 1
52 112 1
52 172 1
52 232 1
52 292 1
52 352 1
52 412 1
52 472 1
53 54 1
53 113 1
53 173 1
53 233 1
53 293 1
53 353 1
53 413 1
53 473 1
54 53 1
54 54 1
54 114 1
54 174 1
54 234 1
54 294 1
54 354 1
54 414 1
54 474 1
55 56 1
55 115 1
55 175 1
55 235 1
55 295 1
55 355 1
55 415 1
55 475 1
56 55 1
56 56 1
56 116 1
56 176 1
56 236 1
56 296 1
56 356 1
56 416 1
56 476 1
57 58 1
57 117 1
57 177 1
57 237 1
57 297 1
57 357 1
57 417 1
57 477 1
58 57 1
58 58 1
58 118 1
58 178 1
58 238 1
58 298 1
58 358 1
58 418 1
58 478 1
59 60 1
59 119 1
59 179 1
59 239 1
59 299 1
59 359 1
59 419 1
59 479 1
60 59 1
60 60 1
60 120 1
60 180 1
60 240 1
60 300 1
60 360 1
60 420 1
60 480 1
61 1 1
61 120 1
61 149 1
61 237 1
61 265 1
61 327 1
61 375 1
61 439 1
62 2 1
62 119 1
62 120 1
62 150 1
62 238 1
62 266 1
62 328 1
62 376 1
62 440 1
63 3 1
63 62 1
63 151 1
63 239 1
63 267 1
63 329 1
63 377 1
63 441 1
64 4 1
64 61 1
64 62 1
64 152 1
64 240 1
64 268 1
64 330 1
64 378 1
64 442 1
65 5 1
65 64 1
65 153 1
65 181 1
65 269 1
65 331 1
65 379 1
65 443 1
66 6 1
66 63 1
66 64 1
66 154 1
66 182 1
66 270 1
66 332 1
66 380 1
66 444 1
67 7 1
67 66 1
67 155 1
67 183 1
67 271 1
67 333 1
67 381 1
67 445 1
68 8 1
68 65 1
68 66 1
68 156 1
68 184 1
68 272 1
68 334 1
68 382 1
68 446 1
69 9 1
69 68 1
69 157 1
69 185 1
69 273 1
69 335 1
69 383 1
69 447 1
70 10 1
70 67 1
70 68 1
70 158 1
70 186 1
70 274 1
70 336 1
70 384 1
70 448 1
71 11 1
71 70 1
71 159 1
71 187 1
71 275 1
71 337 1
71 385 1
71 449 1
72 12 1
72 69 1
72 70 1
72 160 1
72 188 1
72 276 1
72 338 1
72 386 1
72 450 1
73 13 1
73 72 1
73 161 1
73 189 1
73 277 1
73 339 1
73 387 1
73 451 1
74 14 1
74 71 1
74 72 1
74 162 1
74 190 1
74 278 1
74 340 1
74 388 1
74 452 1
75 15 1
75 74 1
75 163 1
75 191 1
75 279 1
75 341 1
75 389 1
75 453 1
76 16 1
76 73 1
76 74 1
76 164 1
76 192 1
76 280 1
76 342 1
76 390 1
76 454 1
77 17 1
77 76 1
77 165 1
77 193 1
77 281 1
77 343 1
77 391 1
77 455 1
78 18 1
78 75 1
78 76 1
78 166 1
78 194 1
78 282 1
78 344 1
78 392 1
78 456 1
79 19 1
79 78 1
79 167 1
79 195 1
79 283 1
79 345 1
79 393 1
79 457 1
80 20 1
80 77 1
80 78 1
80 168 1
80 196 1
80 284 1
80 346 1
80 394 1
80 458 1
81 21 1
81 80 1
81 169 1
81 197 1
81 285 1
81 347 1
81 395 1
81 459 1
82 22 1
82 79 1
82 80 1
82 170 1
82 198 1
82 286 1
82 348 1
82 396 1
82 460 1
83 23 1
83 82 1
83 171 1
83 199 1
83 287 1
83 349 1
83 397 1
83 461 1
84 24 1
84 81 1
84 82 1
84 172 1
84 200 1
84 288 1
84 350 1
84 398 1
84 462 1
85 25 1
85 84 1
85 173 1
85 201 1
85 289 1
85 351 1
85 399 1
85 463 1
86 26 1
86 83 1
86 84 1
86 174 1
86 202 1
86 290 1
86 352 1
86 400 1
86 464 1
87 27 1
87 86 1
87 175 1
87 203 1
87 291 1
87 353 1
87 401 1
87 465 1
88 28 1
88 85 1
88 86 1
88 176 1
88 204 1
88 292 1
88 354 1
88 402 1
88 466 1
89 29 1
89 88 1
89 177 1
89 205 1
89 293 1
89 355 1
89 403 1
89 467 1
90 30 1
90 87 1
90 88 1
90 178 1
90 206 1
90 294 1
90 356 1
90 404 1
90 468 1
91 31 1
91 90 1
91 179 1
91 207 1
91 295 1
91 357 1
91 405 1
91 469 1
92 32 1
92 89 1
92 90 1
92 180 1
92 208 1
92 296 1
92 358 1
92 406 1
92 470 1
93 33 1
93 92 1
93 121 1
93 209 1
93 297 1
93 359 1
93 407 1
93 471 1
94 34 1
94 91 1
94 92 1
94 122 1
94 210 1
94 298 1
94 360 1
94 408 1
94 472 1
95 35 1
95 94 1
95 123 1
95 211 1
95 299 1
95 301 1
95 409 1
95 473 1
96 36 1
96 93 1
96 94 1
96 124 1
96 212 1
96 300 1
96 302 1
96 410 1
96 474 1
97 37 1
97 96 1
97 125 1
97 213 1
97 241 1
97 303 1
97 411 1
97 475 1
98 38 1
98 95 1
98 96 1
98 126 1
98 214 1
98 242 1
98 304 1
98 412 1
98 476 1
99 39 1
99 98 1
99 127 1
99 215 1
99 243 1
99 305 1
99 413 1
99 477 1
100 40 1
100 97 1
100 98 1
100 128 1
100 216 1
100 244 1
100 306 1
100 414 1
100 478 1
101 41 1
101 100 1
101 129 1
101 217 1
101 245 1
101 307 1
101 415 1
101 479 1
102 42 1
102 99 1
102 100 1
102 130 1
102 218 1
102 246 1
102 308 1
102 416 1
102 480 1
103 43 1
103 102 1
103 131 1
103 219 1
103 247 1
103 309 1
103 417 1
103 421 1
104 44 1
104 101 1
104 102 1
104 132 1
104 220 1
104 248 1
104 310 1
104 418 1
104 422 1
105 45 1
105 104 1
105 133 1
105 221 1
105 249 1
105 311 1
105 419 1
105 423 1
106 46 1
106 103 1
106 104 1
106 134 1
106 222 1
106 250 1
106 312 1
106 420 1
106 424 1
107 47 1
107 106 1
107 135 1
107 223 1
107 251 1
107 313 1
107 361 1
107 425 1
108 48 1
108 105 1
108 106 1
108 136 1
108 224 1
108 252 1
108 314 1
108 362 1
108 426 1
109 49 1
109 108 1
109 137 1
109 225 1
109 253 1
109 315 1
109 363 1
109 427 1
110 50 1
110 107 1
110 108 1
110 138 1
110 226 1
110 254 1
110 316 1
110 364 1
110 428 1
111 51 1
111 110 1
111 139 1
111 227 1
111 255 1
111 317 1
111 365 1
111 429 1
112 52 1
112 109 1
112 110 1
112 140 1
112 228 1
112 256 1
112 318 1
112 366 1
112 430 1
113 53 1
113 112 1
113 141 1
113 229 1
113 257 1
113 319 1
113 367 1
113 431 1
114 54 1
114 111 1
114 112 1
114 142 1
114 230 1
114 258 1
114 320 1
114 368 1
114 432 1
115 55 1
115 114 1
115 143 1
115 231 1
115 259 1
115 321 1
115 369 1
115 433 1
116 56 1
116 113 1
116 114 1
116 144 1
116 232 1
116 260 1
116 322 1
116 370 1
116 434 1
117 57 1
117 116 1
117 145 1
117 233 1
117 261 1
117 323 1
117 371 1
117 435 1
118 58 1
118 115 1
118 116 1
118 146 1
118 234 1
118 262 1
118 324 1
118 372 1
118 436 1
119 59 1
119 118 1
119 147 1
119 235 1
119 263 1
119 325 1
119 373 1
119 437 1
120 60 1
120 117 1
120 118 1
120 148 1
120 236 1
120 264 1
120 326 1
120 374 1
120 438 1
121 1 1
121 93 1
121 152 1
121 209 1
121 287 1
121 355 1
121 405 1
121 427 1
122 2 1
122 94 1
122 151 1
122 152 1
122 210 1
122 288 1
122 356 1
122 406 1
122 428 1
123 3 1
123 95 1
123 154 1
123 211 1
123 289 1
123 357 1
123 407 1
123 429 1
124 4 1
124 96 1
124 153 1
124 154 1
124 212 1
124 290 1
124 358 1
124 408 1
124 430 1
125 5 1
125 97 1
125 156 1
125 213 1
125 291 1
125 359 1
125 409 1
125 431 1
126 6 1
126 98 1
126 155 1
126 156 1
126 214 1
126 292 1
126 360 1
126 410 1
126 432 1
127 7 1
127 99 1
127 158 1
127 215 1
127 293 1
127 301 1
127 411 1
127 433 1
128 8 1
128 100 1
128 157 1
128 158 1
128 216 1
128 294 1
128 302 1
128 412 1
128 434 1
129 9 1
129 101 1
129 160 1
129 217 1
129 295 1
129 303 1
129 413 1
129 435 1
130 10 1
130 102 1
130 159 1
130 160 1
130 218 1
130 296 1
130 304 1
130 414 1
130 436 1
131 11 1
131 103 1
131 162 1
131 219 1
131 297 1
131 305 1
131 415 1
131 437 1
132 12 1
132 104 1
132 161 1
132 162 1
132 220 1
132 298 1
132 306 1
132 416 1
132 438 1
133 13 1
133 105 1
133 164 1
133 221 1
133 299 1
133 307 1
133 417 1
133 439 1
134 14 1
134 106 1
134 163 1
134 164 1
134 222 1
134 300 1
134 308 1
134 418 1
134 440 1
135 15 1
135 107 1
135 166 1
135 223 1
135 241 1
135 309 1
135 419 1
135 441 1
136 16 1
136 108 1
136 165 1
136 166 1
136 224 1
136 242 1
136 310 1
136 420 1
136 442 1
137 17 1
137 109 1
137 168 1
137 225 1
137 243 1
137 311 1
137 361 1
137 443 1
138 18 1
138 110 1
138 167 1
138 168 1
138 226 1
138 244 1
138 312 1
138 362 1
138 444 1
139 19 1
139 111 1
139 170 1
139 227 1
139 245 1
139 313 1
139 363 1
139 445 1
140 20 1
140 112 1
140 169 1
140 170 1
140 228 1
140 246 1
140 314 1
140 364 1
140 446 1
141 21 1
141 113 1
141 172 1
141 229 1
141 247 1
141 315 1
141 365 1
141 447 1
142 22 1
142 114 1
142 171 1
142 172 1
142 230 1
142 248 1
142 316 1
142 366 1
142 448 1
143 23 1
143 115 1
143 174 1
143 231 1
143 249 1
143 317 1
143 367 1
143 449 1
144 24 1
144 116 1
144 173 1
144 174 1
144 232 1
144 250 1
144 318 1
144 368 1
144 450 1
145 25 1
145 117 1
145 176 1
145 233 1
145 251 1
145 319 1
145 369 1
145 451 1
146 26 1
146 118 1
146 175 1
146 176 1
146 234 1
146 252 1
146 320 1
146 370 1
146 452 1
147 27 1
147 119 1
147 178 1
147 235 1
147 253 1
147 321 1
147 371 1
147 453 1
148 28 1
148 120 1
148 177 1
148 178 1
148 236 1
148 254 1
148 322 1
148 372 1
148 454 1
149 29 1
149 61 1
149 180 1
149 237 1
149 255 1
149 323 1
149 373 1
149 455 1
150 30 1
150 62 1
150 179 1
150 180 1
150 238 1
150 256 1
150 324 1
150 374 1
150 456 1
151 31 1
151 63 1
151 122 1
151 239 1
151 257 1
151 325 1
151 375 1
151 457 1
152 32 1
152 64 1
152 121 1
152 122 1
152 240 1
152 258 1
152 326 1
152 376 1
152 458 1
153 33 1
153 65 1
153 124 1
153 181 1
153 259 1
153 327 1
153 377 1
153 459 1
154 34 1
154 66 1
154 123 1
154 124 1
154 182 1
154 260 1
154 328 1
154 378 1
154 460 1
155 35 1
155 67 1
155 126 1
155 183 1
155 261 1
155 329 1
155 379 1
155 461 1
156 36 1
156 68 1
156 125 1
156 126 1
156 184 1
156 262 1
156 330 1
156 380 1
156 462 1
157 37 1
157 69 1
157 128 1
157 185 1
157 263 1
157 331 1
157 381 1
157 463 1
158 38 1
158 70 1
158 127 1
158 128 1
158 186 1
158 264 1
158 332 1
158 382 1
158 464 1
159 39 1
159 71 1
159 130 1
159 187 1
159 265 1
159 333 1
159 383 1
159 465 1
160 40 1
160 72 1
160 129 1
160 130 1
160 188 1
160 266 1
160 334 1
160 384 1
160 466 1
161 41 1
161 73 1
161 132 1
161 189 1
161 267 1
161 335 1
161 385 1
161 467 1
162 42 1
162 74 1
162 131 1
162 132 1
162 190 1
162 268 1
162 336 1
162 386 1
162 468 1
163 43 1
163 75 1
163 134 1
163 191 1
163 269 1
163 337 1
163 387 1
163 469 1
164 44 1
164 76 1
164 133 1
164 134 1
164 192 1
164 270 1
164 338 1
164 388 1
164 470 1
165 45 1
165 77 1
165 136 1
165 193 1
165 271 1
165 339 1
165 389 1
165 471 1
166 46 1
166 78 1
166 135 1
166 136 1
166 194 1
166 272 1
166 340 1
166 390 1
166 472 1
167 47 1
167 79 1
167 138 1
167 195 1
167 273 1
167 341 1
167 391 1
167 473 1
168 48 1
168 80 1
168 137 1
168 138 1
168 196 1
168 274 1
168 342 1
168 392 1
168 474 1
169 49 1
169 81 1
169 140 1
169 197 1
169 275 1
169 343 1
169 393 1
169 475 1
170 50 1
170 82 1
170 139 1
170 140 1
170 198 1
170 276 1
170 344 1
170 394 1
170 476 1
171 51 1
171 83 1
171 142 1
171 199 1
171 277 1
171 345 1
171 395 1
171 477 1
172 52 1
172 84 1
172 141 1
172 142 1
172 200 1
172 278 1
172 346 1
172 396 1
172 478 1
173 53 1
173 85 1
173 144 1
173 201 1
173 279 1
173 347 1
173 397 1
173 479 1
174 54 1
174 86 1
174 143 1
174 144 1
174 202 1
174 280 1
174 348 1
174 398 1
174 480 1
175 55 1
175 87 1
175 146 1
175 203 1
175 281 1
175 349 1
175 399 1
175 421 1
176 56 1
176 88 1
176 145 1
176 146 1
176 204 1
176 282 1
176 350 1
176 400 1
176 422 1
177 57 1
177 89 1
177 148 1
177 205 1
177 283 1
177 351 1
177 401 1
177 423 1
178 58 1
178 90 1
178 147 1
178 148 1
178 206 1
178 284 1
178 352 1
178 402 1
178 424 1
179 59 1
179 91 1
179 150 1
179 207 1
179 285 1
179 353 1
179 403 1
179 425 1
180 60 1
180 92 1
180 149 1
180 150 1
180 208 1
180 286 1
180 354 1
180 404 1
180 426 1
