%%MatrixMarket matrix coordinate integer general
% GF(4) labels 0,1,2=omega,3=omega+1; arithmetic is NOT integer arithmetic.
% Coordinate indices are 1-based; omitted entries are zero.
90 240 720
1 1 2
1 31 1
1 61 1
1 91 1
1 121 1
1 151 1
1 181 1
1 211 1
2 2 2
2 32 1
2 62 1
2 92 1
2 122 1
2 152 1
2 182 1
2 212 1
3 3 2
3 33 1
3 63 1
3 93 1
3 123 1
3 153 1
3 183 1
3 213 1
4 4 2
4 34 1
4 64 1
4 94 1
4 124 1
4 154 1
4 184 1
4 214 1
5 5 2
5 35 1
5 65 1
5 95 1
5 125 1
5 155 1
5 185 1
5 215 1
6 6 2
6 36 1
6 66 1
6 96 1
6 126 1
6 156 1
6 186 1
6 216 1
7 7 2
7 37 1
7 67 1
7 97 1
7 127 1
7 157 1
7 187 1
7 217 1
8 8 2
8 38 1
8 68 1
8 98 1
8 128 1
8 158 1
8 188 1
8 218 1
9 9 2
9 39 1
9 69 1
9 99 1
9 129 1
9 159 1
9 189 1
9 219 1
10 10 2
10 40 1
10 70 1
10 100 1
10 130 1
10 160 1
10 190 1
10 220 1
11 11 2
11 41 1
11 71 1
11 101 1
11 131 1
11 161 1
11 191 1
11 221 1
12 12 2
12 42 1
12 72 1
12 102 1
12 132 1
12 162 1
12 192 1
12 222 1
13 13 2
13 43 1
13 73 1
13 103 1
13 133 1
13 163 1
13 193 1
13 223 1
14 14 2
14 44 1
14 74 1
14 104 1
14 134 1
14 164 1
14 194 1
14 224 1
15 15 2
15 45 1
15 75 1
15 105 1
15 135 1
15 165 1
15 195 1
15 225 1
16 16 2
16 46 1
16 76 1
16 106 1
16 136 1
16 166 1
16 196 1
16 226 1
17 17 2
17 47 1
17 77 1
17 107 1
17 137 1
17 167 1
17 197 1
17 227 1
18 18 2
18 48 1
18 78 1
18 108 1
18 138 1
18 168 1
18 198 1
18 228 1
19 19 2
19 49 1
19 79 1
19 109 1
19 139 1
19 169 1
19 199 1
19 229 1
20 20 2
20 50 1
20 80 1
20 110 1
20 140 1
20 170 1
20 200 1
20 230 1
21 21 2
21 51 1
21 81 1
21 111 1
21 141 1
21 171 1
21 201 1
21 231 1
22 22 2
22 52 1
22 82 1
22 112 1
22 142 1
22 172 1
22 202 1
22 232 1
23 23 2
23 53 1
23 83 1
23 113 1
23 143 1
23 173 1
23 203 1
23 233 1
24 24 2
24 54 1
24 84 1
24 114 1
24 144 1
24 174 1
24 204 1
24 234 1
25 25 2
25 55 1
25 85 1
25 115 1
25 145 1
25 175 1
25 205 1
25 235 1
26 26 2
26 56 1
26 86 1
26 116 1
26 146 1
26 176 1
26 206 1
26 236 1
27 27 2
27 57 1
27 87 1
27 117 1
27 147 1
27 177 1
27 207 1
27 237 1
28 28 2
28 58 1
28 88 1
28 118 1
28 148 1
28 178 1
28 208 1
28 238 1
29 29 2
29 59 1
29 89 1
29 119 1
29 149 1
29 179 1
29 209 1
29 239 1
30 30 2
30 60 1
30 90 1
30 120 1
30 150 1
30 180 1
30 210 1
30 240 1
31 1 1
31 60 2
31 75 1
31 119 1
31 133 1
31 164 1
31 188 1
31 220 1
32 2 1
32 31 2
32 76 1
32 120 1
32 134 1
32 165 1
32 189 1
32 221 1
33 3 1
33 32 2
33 77 1
33 91 1
33 135 1
33 166 1
33 190 1
33 222 1
34 4 1
34 33 2
34 78 1
34 92 1
34 136 1
34 167 1
34 191 1
34 223 1
35 5 1
35 34 2
35 79 1
35 93 1
35 137 1
35 168 1
35 192 1
35 224 1
36 6 1
36 35 2
36 80 1
36 94 1
36 138 1
36 169 1
36 193 1
36 225 1
37 7 1
37 36 2
37 81 1
37 95 1
37 139 1
37 170 1
37 194 1
37 226 1
38 8 1
38 37 2
38 82 1
38 96 1
38 140 1
38 171 1
38 195 1
38 227 1
39 9 1
39 38 2
39 83 1
39 97 1
39 141 1
39 172 1
39 196 1
39 228 1
40 10 1
40 39 2
40 84 1
40 98 1
40 142 1
40 173 1
40 197 1
40 229 1
41 11 1
41 40 2
41 85 1
41 99 1
41 143 1
41 174 1
41 198 1
41 230 1
42 12 1
42 41 2
42 86 1
42 100 1
42 144 1
42 175 1
42 199 1
42 231 1
43 13 1
43 42 2
43 87 1
43 101 1
43 145 1
43 176 1
43 200 1
43 232 1
44 14 1
44 43 2
44 88 1
44 102 1
44 146 1
44 177 1
44 201 1
44 233 1
45 15 1
45 44 2
45 89 1
45 103 1
45 147 1
45 178 1
45 202 1
45 234 1
46 16 1
46 45 2
46 90 1
46 104 1
46 148 1
46 179 1
46 203 1
46 235 1
47 17 1
47 46 2
47 61 1
47 105 1
47 149 1
47 180 1
47 204 1
47 236 1
48 18 1
48 47 2
48 62 1
48 106 1
48 150 1
48 151 1
48 205 1
48 237 1
49 19 1
49 48 2
49 63 1
49 107 1
49 121 1
49 152 1
49 206 1
49 238 1
50 20 1
50 49 2
50 64 1
50 108 1
50 122 1
50 153 1
50 207 1
50 239 1
51 21 1
51 50 2
51 65 1
51 109 1
51 123 1
51 154 1
51 208 1
51 240 1
52 22 1
52 51 2
52 66 1
52 110 1
52 124 1
52 155 1
52 209 1
52 211 1
53 23 1
53 52 2
53 67 1
53 111 1
53 125 1
53 156 1
53 210 1
53 212 1
54 24 1
54 53 2
54 68 1
54 112 1
54 126 1
54 157 1
54 181 1
54 213 1
55 25 1
55 54 2
55 69 1
55 113 1
55 127 1
55 158 1
55 182 1
55 214 1
56 26 1
56 55 2
56 70 1
56 114 1
56 128 1
56 159 1
56 183 1
56 215 1
57 27 1
57 56 2
57 71 1
57 115 1
57 129 1
57 160 1
57 184 1
57 216 1
58 28 1
58 57 2
58 72 1
58 116 1
58 130 1
58 161 1
58 185 1
58 217 1
59 29 1
59 58 2
59 73 1
59 117 1
59 131 1
59 162 1
59 186 1
59 218 1
60 30 1
60 59 2
60 74 1
60 118 1
60 132 1
60 163 1
60 187 1
60 219 1
61 1 1
61 47 1
61 76 2
61 105 1
61 144 1
61 178 1
61 203 1
61 214 1
62 2 1
62 48 1
62 77 2
62 106 1
62 145 1
62 179 1
62 204 1
62 215 1
63 3 1
63 49 1
63 78 2
63 107 1
63 146 1
63 180 1
63 205 1
63 216 1
64 4 1
64 50 1
64 79 2
64 108 1
64 147 1
64 151 1
64 206 1
64 217 1
65 5 1
65 51 1
65 80 2
65 109 1
65 148 1
65 152 1
65 207 1
65 218 1
66 6 1
66 52 1
66 81 2
66 110 1
66 149 1
66 153 1
66 208 1
66 219 1
67 7 1
67 53 1
67 82 2
67 111 1
67 150 1
67 154 1
67 209 1
67 220 1
68 8 1
68 54 1
68 83 2
68 112 1
68 121 1
68 155 1
68 210 1
68 221 1
69 9 1
69 55 1
69 84 2
69 113 1
69 122 1
69 156 1
69 181 1
69 222 1
70 10 1
70 56 1
70 85 2
70 114 1
70 123 1
70 157 1
70 182 1
70 223 1
71 11 1
71 57 1
71 86 2
71 115 1
71 124 1
71 158 1
71 183 1
71 224 1
72 12 1
72 58 1
72 87 2
72 116 1
72 125 1
72 159 1
72 184 1
72 225 1
73 13 1
73 59 1
73 88 2
73 117 1
73 126 1
73 160 1
73 185 1
73 226 1
74 14 1
74 60 1
74 89 2
74 118 1
74 127 1
74 161 1
74 186 1
74 227 1
75 15 1
75 31 1
75 90 2
75 119 1
75 128 1
75 162 1
75 187 1
75 228 1
76 16 1
76 32 1
76 61 2
76 120 1
76 129 1
76 163 1
76 188 1
76 229 1
77 17 1
77 33 1
77 62 2
77 91 1
77 130 1
77 164 1
77 189 1
77 230 1
78 18 1
78 34 1
78 63 2
78 92 1
78 131 1
78 165 1
78 190 1
78 231 1
79 19 1
79 35 1
79 64 2
79 93 1
79 132 1
79 166 1
79 191 1
79 232 1
80 20 1
80 36 1
80 65 2
80 94 1
80 133 1
80 167 1
80 192 1
80 233 1
81 21 1
81 37 1
81 66 2
81 95 1
81 134 1
81 168 1
81 193 1
81 234 1
82 22 1
82 38 1
82 67 2
82 96 1
82 135 1
82 169 1
82 194 1
82 235 1
83 23 1
83 39 1
83 68 2
83 97 1
83 136 1
83 170 1
83 195 1
83 236 1
84 24 1
84 40 1
84 69 2
84 98 1
84 137 1
84 171 1
84 196 1
84 237 1
85 25 1
85 41 1
85 70 2
85 99 1
85 138 1
85 172 1
85 197 1
85 238 1
86 26 1
86 42 1
86 71 2
86 100 1
86 139 1
86 173 1
86 198 1
86 239 1
87 27 1
87 43 1
87 72 2
87 101 1
87 140 1
87 174 1
87 199 1
87 240 1
88 28 1
88 44 1
88 73 2
88 102 1
88 141 1
88 175 1
88 200 1
88 211 1
89 29 1
89 45 1
89 74 2
89 103 1
89 142 1
89 176 1
89 201 1
89 212 1
90 30 1
90 46 1
90 75 2
90 104 1
90 143 1
90 177 1
90 202 1
90 213 1
