%%MatrixMarket matrix coordinate integer general
% Binary matrix over GF(2).
% Coordinate indices are 1-based; omitted entries are zero.
180 480 1530
1 1 1
1 95 1
1 165 1
1 237 1
1 242 1
1 357 1
1 405 1
1 455 1
2 2 1
2 96 1
2 166 1
2 238 1
2 241 1
2 242 1
2 358 1
2 406 1
2 456 1
3 3 1
3 97 1
3 167 1
3 239 1
3 244 1
3 359 1
3 407 1
3 457 1
4 4 1
4 98 1
4 168 1
4 240 1
4 243 1
4 244 1
4 360 1
4 408 1
4 458 1
5 5 1
5 99 1
5 169 1
5 181 1
5 246 1
5 301 1
5 409 1
5 459 1
6 6 1
6 100 1
6 170 1
6 182 1
6 245 1
6 246 1
6 302 1
6 410 1
6 460 1
7 7 1
7 101 1
7 171 1
7 183 1
7 248 1
7 303 1
7 411 1
7 461 1
8 8 1
8 102 1
8 172 1
8 184 1
8 247 1
8 248 1
8 304 1
8 412 1
8 462 1
9 9 1
9 103 1
9 173 1
9 185 1
9 250 1
9 305 1
9 413 1
9 463 1
10 10 1
10 104 1
10 174 1
10 186 1
10 249 1
10 250 1
10 306 1
10 414 1
10 464 1
11 11 1
11 105 1
11 175 1
11 187 1
11 252 1
11 307 1
11 415 1
11 465 1
12 12 1
12 106 1
12 176 1
12 188 1
12 251 1
12 252 1
12 308 1
12 416 1
12 466 1
13 13 1
13 107 1
13 177 1
13 189 1
13 254 1
13 309 1
13 417 1
13 467 1
14 14 1
14 108 1
14 178 1
14 190 1
14 253 1
14 254 1
14 310 1
14 418 1
14 468 1
15 15 1
15 109 1
15 179 1
15 191 1
15 256 1
15 311 1
15 419 1
15 469 1
16 16 1
16 110 1
16 180 1
16 192 1
16 255 1
16 256 1
16 312 1
16 420 1
16 470 1
17 17 1
17 111 1
17 121 1
17 193 1
17 258 1
17 313 1
17 361 1
17 471 1
18 18 1
18 112 1
18 122 1
18 194 1
18 257 1
18 258 1
18 314 1
18 362 1
18 472 1
19 19 1
19 113 1
19 123 1
19 195 1
19 260 1
19 315 1
19 363 1
19 473 1
20 20 1
20 114 1
20 124 1
20 196 1
20 259 1
20 260 1
20 316 1
20 364 1
20 474 1
21 21 1
21 115 1
21 125 1
21 197 1
21 262 1
21 317 1
21 365 1
21 475 1
22 22 1
22 116 1
22 126 1
22 198 1
22 261 1
22 262 1
22 318 1
22 366 1
22 476 1
23 23 1
23 117 1
23 127 1
23 199 1
23 264 1
23 319 1
23 367 1
23 477 1
24 24 1
24 118 1
24 128 1
24 200 1
24 263 1
24 264 1
24 320 1
24 368 1
24 478 1
25 25 1
25 119 1
25 129 1
25 201 1
25 266 1
25 321 1
25 369 1
25 479 1
26 26 1
26 120 1
26 130 1
26 202 1
26 265 1
26 266 1
26 322 1
26 370 1
26 480 1
27 27 1
27 61 1
27 131 1
27 203 1
27 268 1
27 323 1
27 371 1
27 421 1
28 28 1
28 62 1
28 132 1
28 204 1
28 267 1
28 268 1
28 324 1
28 372 1
28 422 1
29 29 1
29 63 1
29 133 1
29 205 1
29 270 1
29 325 1
29 373 1
29 423 1
30 30 1
30 64 1
30 134 1
30 206 1
30 269 1
30 270 1
30 326 1
30 374 1
30 424 1
31 31 1
31 65 1
31 135 1
31 207 1
31 272 1
31 327 1
31 375 1
31 425 1
32 32 1
32 66 1
32 136 1
32 208 1
32 271 1
32 272 1
32 328 1
32 376 1
32 426 1
33 33 1
33 67 1
33 137 1
33 209 1
33 274 1
33 329 1
33 377 1
33 427 1
34 34 1
34 68 1
34 138 1
34 210 1
34 273 1
34 274 1
34 330 1
34 378 1
34 428 1
35 35 1
35 69 1
35 139 1
35 211 1
35 276 1
35 331 1
35 379 1
35 429 1
36 36 1
36 70 1
36 140 1
36 212 1
36 275 1
36 276 1
36 332 1
36 380 1
36 430 1
37 37 1
37 71 1
37 141 1
37 213 1
37 278 1
37 333 1
37 381 1
37 431 1
38 38 1
38 72 1
38 142 1
38 214 1
38 277 1
38 278 1
38 334 1
38 382 1
38 432 1
39 39 1
39 73 1
39 143 1
39 215 1
39 280 1
39 335 1
39 383 1
39 433 1
40 40 1
40 74 1
40 144 1
40 216 1
40 279 1
40 280 1
40 336 1
40 384 1
40 434 1
41 41 1
41 75 1
41 145 1
41 217 1
41 282 1
41 337 1
41 385 1
41 435 1
42 42 1
42 76 1
42 146 1
42 218 1
42 281 1
42 282 1
42 338 1
42 386 1
42 436 1
43 43 1
43 77 1
43 147 1
43 219 1
43 284 1
43 339 1
43 387 1
43 437 1
44 44 1
44 78 1
44 148 1
44 220 1
44 283 1
44 284 1
44 340 1
44 388 1
44 438 1
45 45 1
45 79 1
45 149 1
45 221 1
45 286 1
45 341 1
45 389 1
45 439 1
46 46 1
46 80 1
46 150 1
46 222 1
46 285 1
46 286 1
46 342 1
46 390 1
46 440 1
47 47 1
47 81 1
47 151 1
47 223 1
47 288 1
47 343 1
47 391 1
47 441 1
48 48 1
48 82 1
48 152 1
48 224 1
48 287 1
48 288 1
48 344 1
48 392 1
48 442 1
49 49 1
49 83 1
49 153 1
49 225 1
49 290 1
49 345 1
49 393 1
49 443 1
50 50 1
50 84 1
50 154 1
50 226 1
50 289 1
50 290 1
50 346 1
50 394 1
50 444 1
51 51 1
51 85 1
51 155 1
51 227 1
51 292 1
51 347 1
51 395 1
51 445 1
52 52 1
52 86 1
52 156 1
52 228 1
52 291 1
52 292 1
52 348 1
52 396 1
52 446 1
53 53 1
53 87 1
53 157 1
53 229 1
53 294 1
53 349 1
53 397 1
53 447 1
54 54 1
54 88 1
54 158 1
54 230 1
54 293 1
54 294 1
54 350 1
54 398 1
54 448 1
55 55 1
55 89 1
55 159 1
55 231 1
55 296 1
55 351 1
55 399 1
55 449 1
56 56 1
56 90 1
56 160 1
56 232 1
56 295 1
56 296 1
56 352 1
56 400 1
56 450 1
57 57 1
57 91 1
57 161 1
57 233 1
57 298 1
57 353 1
57 401 1
57 451 1
58 58 1
58 92 1
58 162 1
58 234 1
58 297 1
58 298 1
58 354 1
58 402 1
58 452 1
59 59 1
59 93 1
59 163 1
59 235 1
59 300 1
59 355 1
59 403 1
59 453 1
60 60 1
60 94 1
60 164 1
60 236 1
60 299 1
60 300 1
60 356 1
60 404 1
60 454 1
61 1 1
61 93 1
61 157 1
61 195 1
61 273 1
61 302 1
61 375 1
61 457 1
62 2 1
62 94 1
62 158 1
62 196 1
62 274 1
62 301 1
62 302 1
62 376 1
62 458 1
63 3 1
63 95 1
63 159 1
63 197 1
63 275 1
63 304 1
63 377 1
63 459 1
64 4 1
64 96 1
64 160 1
64 198 1
64 276 1
64 303 1
64 304 1
64 378 1
64 460 1
65 5 1
65 97 1
65 161 1
65 199 1
65 277 1
65 306 1
65 379 1
65 461 1
66 6 1
66 98 1
66 162 1
66 200 1
66 278 1
66 305 1
66 306 1
66 380 1
66 462 1
67 7 1
67 99 1
67 163 1
67 201 1
67 279 1
67 308 1
67 381 1
67 463 1
68 8 1
68 100 1
68 164 1
68 202 1
68 280 1
68 307 1
68 308 1
68 382 1
68 464 1
69 9 1
69 101 1
69 165 1
69 203 1
69 281 1
69 310 1
69 383 1
69 465 1
70 10 1
70 102 1
70 166 1
70 204 1
70 282 1
70 309 1
70 310 1
70 384 1
70 466 1
71 11 1
71 103 1
71 167 1
71 205 1
71 283 1
71 312 1
71 385 1
71 467 1
72 12 1
72 104 1
72 168 1
72 206 1
72 284 1
72 311 1
72 312 1
72 386 1
72 468 1
73 13 1
73 105 1
73 169 1
73 207 1
73 285 1
73 314 1
73 387 1
73 469 1
74 14 1
74 106 1
74 170 1
74 208 1
74 286 1
74 313 1
74 314 1
74 388 1
74 470 1
75 15 1
75 107 1
75 171 1
75 209 1
75 287 1
75 316 1
75 389 1
75 471 1
76 16 1
76 108 1
76 172 1
76 210 1
76 288 1
76 315 1
76 316 1
76 390 1
76 472 1
77 17 1
77 109 1
77 173 1
77 211 1
77 289 1
77 318 1
77 391 1
77 473 1
78 18 1
78 110 1
78 174 1
78 212 1
78 290 1
78 317 1
78 318 1
78 392 1
78 474 1
79 19 1
79 111 1
79 175 1
79 213 1
79 291 1
79 320 1
79 393 1
79 475 1
80 20 1
80 112 1
80 176 1
80 214 1
80 292 1
80 319 1
80 320 1
80 394 1
80 476 1
81 21 1
81 113 1
81 177 1
81 215 1
81 293 1
81 322 1
81 395 1
81 477 1
82 22 1
82 114 1
82 178 1
82 216 1
82 294 1
82 321 1
82 322 1
82 396 1
82 478 1
83 23 1
83 115 1
83 179 1
83 217 1
83 295 1
83 324 1
83 397 1
83 479 1
84 24 1
84 116 1
84 180 1
84 218 1
84 296 1
84 323 1
84 324 1
84 398 1
84 480 1
85 25 1
85 117 1
85 121 1
85 219 1
85 297 1
85 326 1
85 399 1
85 421 1
86 26 1
86 118 1
86 122 1
86 220 1
86 298 1
86 325 1
86 326 1
86 400 1
86 422 1
87 27 1
87 119 1
87 123 1
87 221 1
87 299 1
87 328 1
87 401 1
87 423 1
88 28 1
88 120 1
88 124 1
88 222 1
88 300 1
88 327 1
88 328 1
88 402 1
88 424 1
89 29 1
89 61 1
89 125 1
89 223 1
89 241 1
89 330 1
89 403 1
89 425 1
90 30 1
90 62 1
90 126 1
90 224 1
90 242 1
90 329 1
90 330 1
90 404 1
90 426 1
91 31 1
91 63 1
91 127 1
91 225 1
91 243 1
91 332 1
91 405 1
91 427 1
92 32 1
92 64 1
92 128 1
92 226 1
92 244 1
92 331 1
92 332 1
92 406 1
92 428 1
93 33 1
93 65 1
93 129 1
93 227 1
93 245 1
93 334 1
93 407 1
93 429 1
94 34 1
94 66 1
94 130 1
94 228 1
94 246 1
94 333 1
94 334 1
94 408 1
94 430 1
95 35 1
95 67 1
95 131 1
95 229 1
95 247 1
95 336 1
95 409 1
95 431 1
96 36 1
96 68 1
96 132 1
96 230 1
96 248 1
96 335 1
96 336 1
96 410 1
96 432 1
97 37 1
97 69 1
97 133 1
97 231 1
97 249 1
97 338 1
97 411 1
97 433 1
98 38 1
98 70 1
98 134 1
98 232 1
98 250 1
98 337 1
98 338 1
98 412 1
98 434 1
99 39 1
99 71 1
99 135 1
99 233 1
99 251 1
99 340 1
99 413 1
99 435 1
100 40 1
100 72 1
100 136 1
100 234 1
100 252 1
100 339 1
100 340 1
100 414 1
100 436 1
101 41 1
101 73 1
101 137 1
101 235 1
101 253 1
101 342 1
101 415 1
101 437 1
102 42 1
102 74 1
102 138 1
102 236 1
102 254 1
102 341 1
102 342 1
102 416 1
102 438 1
103 43 1
103 75 1
103 139 1
103 237 1
103 255 1
103 344 1
103 417 1
103 439 1
104 44 1
104 76 1
104 140 1
104 238 1
104 256 1
104 343 1
104 344 1
104 418 1
104 440 1
105 45 1
105 77 1
105 141 1
105 239 1
105 257 1
105 346 1
105 419 1
105 441 1
106 46 1
106 78 1
106 142 1
106 240 1
106 258 1
106 345 1
106 346 1
106 420 1
106 442 1
107 47 1
107 79 1
107 143 1
107 181 1
107 259 1
107 348 1
107 361 1
107 443 1
108 48 1
108 80 1
108 144 1
108 182 1
108 260 1
108 347 1
108 348 1
108 362 1
108 444 1
109 49 1
109 81 1
109 145 1
109 183 1
109 261 1
109 350 1
109 363 1
109 445 1
110 50 1
110 82 1
110 146 1
110 184 1
110 262 1
110 349 1
110 350 1
110 364 1
110 446 1
111 51 1
111 83 1
111 147 1
111 185 1
111 263 1
111 352 1
111 365 1
111 447 1
112 52 1
112 84 1
112 148 1
112 186 1
112 264 1
112 351 1
112 352 1
112 366 1
112 448 1
113 53 1
113 85 1
113 149 1
113 187 1
113 265 1
113 354 1
113 367 1
113 449 1
114 54 1
114 86 1
114 150 1
114 188 1
114 266 1
114 353 1
114 354 1
114 368 1
114 450 1
115 55 1
115 87 1
115 151 1
115 189 1
115 267 1
115 356 1
115 369 1
115 451 1
116 56 1
116 88 1
116 152 1
116 190 1
116 268 1
116 355 1
116 356 1
116 370 1
116 452 1
117 57 1
117 89 1
117 153 1
117 191 1
117 269 1
117 358 1
117 371 1
117 453 1
118 58 1
118 90 1
118 154 1
118 192 1
118 270 1
118 357 1
118 358 1
118 372 1
118 454 1
119 59 1
119 91 1
119 155 1
119 193 1
119 271 1
119 360 1
119 373 1
119 455 1
120 60 1
120 92 1
120 156 1
120 194 1
120 272 1
120 359 1
120 360 1
120 374 1
120 456 1
121 1 1
121 105 1
121 167 1
121 199 1
121 287 1
121 345 1
121 362 1
121 439 1
122 2 1
122 106 1
122 168 1
122 200 1
122 288 1
122 346 1
122 361 1
122 362 1
122 440 1
123 3 1
123 107 1
123 169 1
123 201 1
123 289 1
123 347 1
123 364 1
123 441 1
124 4 1
124 108 1
124 170 1
124 202 1
124 290 1
124 348 1
124 363 1
124 364 1
124 442 1
125 5 1
125 109 1
125 171 1
125 203 1
125 291 1
125 349 1
125 366 1
125 443 1
126 6 1
126 110 1
126 172 1
126 204 1
126 292 1
126 350 1
126 365 1
126 366 1
126 444 1
127 7 1
127 111 1
127 173 1
127 205 1
127 293 1
127 351 1
127 368 1
127 445 1
128 8 1
128 112 1
128 174 1
128 206 1
128 294 1
128 352 1
128 367 1
128 368 1
128 446 1
129 9 1
129 113 1
129 175 1
129 207 1
129 295 1
129 353 1
129 370 1
129 447 1
130 10 1
130 114 1
130 176 1
130 208 1
130 296 1
130 354 1
130 369 1
130 370 1
130 448 1
131 11 1
131 115 1
131 177 1
131 209 1
131 297 1
131 355 1
131 372 1
131 449 1
132 12 1
132 116 1
132 178 1
132 210 1
132 298 1
132 356 1
132 371 1
132 372 1
132 450 1
133 13 1
133 117 1
133 179 1
133 211 1
133 299 1
133 357 1
133 374 1
133 451 1
134 14 1
134 118 1
134 180 1
134 212 1
134 300 1
134 358 1
134 373 1
134 374 1
134 452 1
135 15 1
135 119 1
135 121 1
135 213 1
135 241 1
135 359 1
135 376 1
135 453 1
136 16 1
136 120 1
136 122 1
136 214 1
136 242 1
136 360 1
136 375 1
136 376 1
136 454 1
137 17 1
137 61 1
137 123 1
137 215 1
137 243 1
137 301 1
137 378 1
137 455 1
138 18 1
138 62 1
138 124 1
138 216 1
138 244 1
138 302 1
138 377 1
138 378 1
138 456 1
139 19 1
139 63 1
139 125 1
139 217 1
139 245 1
139 303 1
139 380 1
139 457 1
140 20 1
140 64 1
140 126 1
140 218 1
140 246 1
140 304 1
140 379 1
140 380 1
140 458 1
141 21 1
141 65 1
141 127 1
141 219 1
141 247 1
141 305 1
141 382 1
141 459 1
142 22 1
142 66 1
142 128 1
142 220 1
142 248 1
142 306 1
142 381 1
142 382 1
142 460 1
143 23 1
143 67 1
143 129 1
143 221 1
143 249 1
143 307 1
143 384 1
143 461 1
144 24 1
144 68 1
144 130 1
144 222 1
144 250 1
144 308 1
144 383 1
144 384 1
144 462 1
145 25 1
145 69 1
145 131 1
145 223 1
145 251 1
145 309 1
145 386 1
145 463 1
146 26 1
146 70 1
146 132 1
146 224 1
146 252 1
146 310 1
146 385 1
146 386 1
146 464 1
147 27 1
147 71 1
147 133 1
147 225 1
147 253 1
147 311 1
147 388 1
147 465 1
148 28 1
148 72 1
148 134 1
148 226 1
148 254 1
148 312 1
148 387 1
148 388 1
148 466 1
149 29 1
149 73 1
149 135 1
149 227 1
149 255 1
149 313 1
149 390 1
149 467 1
150 30 1
150 74 1
150 136 1
150 228 1
150 256 1
150 314 1
150 389 1
150 390 1
150 468 1
151 31 1
151 75 1
151 137 1
151 229 1
151 257 1
151 315 1
151 392 1
151 469 1
152 32 1
152 76 1
152 138 1
152 230 1
152 258 1
152 316 1
152 391 1
152 392 1
152 470 1
153 33 1
153 77 1
153 139 1
153 231 1
153 259 1
153 317 1
153 394 1
153 471 1
154 34 1
154 78 1
154 140 1
154 232 1
154 260 1
154 318 1
154 393 1
154 394 1
154 472 1
155 35 1
155 79 1
155 141 1
155 233 1
155 261 1
155 319 1
155 396 1
155 473 1
156 36 1
156 80 1
156 142 1
156 234 1
156 262 1
156 320 1
156 395 1
156 396 1
156 474 1
157 37 1
157 81 1
157 143 1
157 235 1
157 263 1
157 321 1
157 398 1
157 475 1
158 38 1
158 82 1
158 144 1
158 236 1
158 264 1
158 322 1
158 397 1
158 398 1
158 476 1
159 39 1
159 83 1
159 145 1
159 237 1
159 265 1
159 323 1
159 400 1
159 477 1
160 40 1
160 84 1
160 146 1
160 238 1
160 266 1
160 324 1
160 399 1
160 400 1
160 478 1
161 41 1
161 85 1
161 147 1
161 239 1
161 267 1
161 325 1
161 402 1
161 479 1
162 42 1
162 86 1
162 148 1
162 240 1
162 268 1
162 326 1
162 401 1
162 402 1
162 480 1
163 43 1
163 87 1
163 149 1
163 181 1
163 269 1
163 327 1
163 404 1
163 421 1
164 44 1
164 88 1
164 150 1
164 182 1
164 270 1
164 328 1
164 403 1
164 404 1
164 422 1
165 45 1
165 89 1
165 151 1
165 183 1
165 271 1
165 329 1
165 406 1
165 423 1
166 46 1
166 90 1
166 152 1
166 184 1
166 272 1
166 330 1
166 405 1
166 406 1
166 424 1
167 47 1
167 91 1
167 153 1
167 185 1
167 273 1
167 331 1
167 408 1
167 425 1
168 48 1
168 92 1
168 154 1
168 186 1
168 274 1
168 332 1
168 407 1
168 408 1
168 426 1
169 49 1
169 93 1
169 155 1
169 187 1
169 275 1
169 333 1
169 410 1
169 427 1
170 50 1
170 94 1
170 156 1
170 188 1
170 276 1
170 334 1
170 409 1
170 410 1
170 428 1
171 51 1
171 95 1
171 157 1
171 189 1
171 277 1
171 335 1
171 412 1
171 429 1
172 52 1
172 96 1
172 158 1
172 190 1
172 278 1
172 336 1
172 411 1
172 412 1
172 430 1
173 53 1
173 97 1
173 159 1
173 191 1
173 279 1
173 337 1
173 414 1
173 431 1
174 54 1
174 98 1
174 160 1
174 192 1
174 280 1
174 338 1
174 413 1
174 414 1
174 432 1
175 55 1
175 99 1
175 161 1
175 193 1
175 281 1
175 339 1
175 416 1
175 433 1
176 56 1
176 100 1
176 162 1
176 194 1
176 282 1
176 340 1
176 415 1
176 416 1
176 434 1
177 57 1
177 101 1
177 163 1
177 195 1
177 283 1
177 341 1
177 418 1
177 435 1
178 58 1
178 102 1
178 164 1
178 196 1
178 284 1
178 342 1
178 417 1
178 418 1
178 436 1
179 59 1
179 103 1
179 165 1
179 197 1
179 285 1
179 343 1
179 420 1
179 437 1
180 60 1
180 104 1
180 166 1
180 198 1
180 286 1
180 344 1
180 419 1
180 420 1
180 438 1
