%%MatrixMarket matrix coordinate integer general
% GF(4) labels 0,1,2=omega,3=omega+1; arithmetic is NOT integer arithmetic.
% Coordinate indices are 1-based; omitted entries are zero.
90 240 720
1 1 1
1 48 1
1 83 1
1 119 1
1 121 2
1 179 1
1 203 1
1 228 1
2 2 1
2 49 1
2 84 1
2 120 1
2 122 2
2 180 1
2 204 1
2 229 1
3 3 1
3 50 1
3 85 1
3 91 1
3 123 2
3 151 1
3 205 1
3 230 1
4 4 1
4 51 1
4 86 1
4 92 1
4 124 2
4 152 1
4 206 1
4 231 1
5 5 1
5 52 1
5 87 1
5 93 1
5 125 2
5 153 1
5 207 1
5 232 1
6 6 1
6 53 1
6 88 1
6 94 1
6 126 2
6 154 1
6 208 1
6 233 1
7 7 1
7 54 1
7 89 1
7 95 1
7 127 2
7 155 1
7 209 1
7 234 1
8 8 1
8 55 1
8 90 1
8 96 1
8 128 2
8 156 1
8 210 1
8 235 1
9 9 1
9 56 1
9 61 1
9 97 1
9 129 2
9 157 1
9 181 1
9 236 1
10 10 1
10 57 1
10 62 1
10 98 1
10 130 2
10 158 1
10 182 1
10 237 1
11 11 1
11 58 1
11 63 1
11 99 1
11 131 2
11 159 1
11 183 1
11 238 1
12 12 1
12 59 1
12 64 1
12 100 1
12 132 2
12 160 1
12 184 1
12 239 1
13 13 1
13 60 1
13 65 1
13 101 1
13 133 2
13 161 1
13 185 1
13 240 1
14 14 1
14 31 1
14 66 1
14 102 1
14 134 2
14 162 1
14 186 1
14 211 1
15 15 1
15 32 1
15 67 1
15 103 1
15 135 2
15 163 1
15 187 1
15 212 1
16 16 1
16 33 1
16 68 1
16 104 1
16 136 2
16 164 1
16 188 1
16 213 1
17 17 1
17 34 1
17 69 1
17 105 1
17 137 2
17 165 1
17 189 1
17 214 1
18 18 1
18 35 1
18 70 1
18 106 1
18 138 2
18 166 1
18 190 1
18 215 1
19 19 1
19 36 1
19 71 1
19 107 1
19 139 2
19 167 1
19 191 1
19 216 1
20 20 1
20 37 1
20 72 1
20 108 1
20 140 2
20 168 1
20 192 1
20 217 1
21 21 1
21 38 1
21 73 1
21 109 1
21 141 2
21 169 1
21 193 1
21 218 1
22 22 1
22 39 1
22 74 1
22 110 1
22 142 2
22 170 1
22 194 1
22 219 1
23 23 1
23 40 1
23 75 1
23 111 1
23 143 2
23 171 1
23 195 1
23 220 1
24 24 1
24 41 1
24 76 1
24 112 1
24 144 2
24 172 1
24 196 1
24 221 1
25 25 1
25 42 1
25 77 1
25 113 1
25 145 2
25 173 1
25 197 1
25 222 1
26 26 1
26 43 1
26 78 1
26 114 1
26 146 2
26 174 1
26 198 1
26 223 1
27 27 1
27 44 1
27 79 1
27 115 1
27 147 2
27 175 1
27 199 1
27 224 1
28 28 1
28 45 1
28 80 1
28 116 1
28 148 2
28 176 1
28 200 1
28 225 1
29 29 1
29 46 1
29 81 1
29 117 1
29 149 2
29 177 1
29 201 1
29 226 1
30 30 1
30 47 1
30 82 1
30 118 1
30 150 2
30 178 1
30 202 1
30 227 1
31 1 1
31 47 1
31 79 1
31 98 1
31 137 1
31 151 2
31 188 1
31 229 1
32 2 1
32 48 1
32 80 1
32 99 1
32 138 1
32 152 2
32 189 1
32 230 1
33 3 1
33 49 1
33 81 1
33 100 1
33 139 1
33 153 2
33 190 1
33 231 1
34 4 1
34 50 1
34 82 1
34 101 1
34 140 1
34 154 2
34 191 1
34 232 1
35 5 1
35 51 1
35 83 1
35 102 1
35 141 1
35 155 2
35 192 1
35 233 1
36 6 1
36 52 1
36 84 1
36 103 1
36 142 1
36 156 2
36 193 1
36 234 1
37 7 1
37 53 1
37 85 1
37 104 1
37 143 1
37 157 2
37 194 1
37 235 1
38 8 1
38 54 1
38 86 1
38 105 1
38 144 1
38 158 2
38 195 1
38 236 1
39 9 1
39 55 1
39 87 1
39 106 1
39 145 1
39 159 2
39 196 1
39 237 1
40 10 1
40 56 1
40 88 1
40 107 1
40 146 1
40 160 2
40 197 1
40 238 1
41 11 1
41 57 1
41 89 1
41 108 1
41 147 1
41 161 2
41 198 1
41 239 1
42 12 1
42 58 1
42 90 1
42 109 1
42 148 1
42 162 2
42 199 1
42 240 1
43 13 1
43 59 1
43 61 1
43 110 1
43 149 1
43 163 2
43 200 1
43 211 1
44 14 1
44 60 1
44 62 1
44 111 1
44 150 1
44 164 2
44 201 1
44 212 1
45 15 1
45 31 1
45 63 1
45 112 1
45 121 1
45 165 2
45 202 1
45 213 1
46 16 1
46 32 1
46 64 1
46 113 1
46 122 1
46 166 2
46 203 1
46 214 1
47 17 1
47 33 1
47 65 1
47 114 1
47 123 1
47 167 2
47 204 1
47 215 1
48 18 1
48 34 1
48 66 1
48 115 1
48 124 1
48 168 2
48 205 1
48 216 1
49 19 1
49 35 1
49 67 1
49 116 1
49 125 1
49 169 2
49 206 1
49 217 1
50 20 1
50 36 1
50 68 1
50 117 1
50 126 1
50 170 2
50 207 1
50 218 1
51 21 1
51 37 1
51 69 1
51 118 1
51 127 1
51 171 2
51 208 1
51 219 1
52 22 1
52 38 1
52 70 1
52 119 1
52 128 1
52 172 2
52 209 1
52 220 1
53 23 1
53 39 1
53 71 1
53 120 1
53 129 1
53 173 2
53 210 1
53 221 1
54 24 1
54 40 1
54 72 1
54 91 1
54 130 1
54 174 2
54 181 1
54 222 1
55 25 1
55 41 1
55 73 1
55 92 1
55 131 1
55 175 2
55 182 1
55 223 1
56 26 1
56 42 1
56 74 1
56 93 1
56 132 1
56 176 2
56 183 1
56 224 1
57 27 1
57 43 1
57 75 1
57 94 1
57 133 1
57 177 2
57 184 1
57 225 1
58 28 1
58 44 1
58 76 1
58 95 1
58 134 1
58 178 2
58 185 1
58 226 1
59 29 1
59 45 1
59 77 1
59 96 1
59 135 1
59 179 2
59 186 1
59 227 1
60 30 1
60 46 1
60 78 1
60 97 1
60 136 1
60 180 2
60 187 1
60 228 1
61 1 1
61 53 1
61 84 1
61 100 1
61 144 1
61 173 1
61 181 2
61 220 1
62 2 1
62 54 1
62 85 1
62 101 1
62 145 1
62 174 1
62 182 2
62 221 1
63 3 1
63 55 1
63 86 1
63 102 1
63 146 1
63 175 1
63 183 2
63 222 1
64 4 1
64 56 1
64 87 1
64 103 1
64 147 1
64 176 1
64 184 2
64 223 1
65 5 1
65 57 1
65 88 1
65 104 1
65 148 1
65 177 1
65 185 2
65 224 1
66 6 1
66 58 1
66 89 1
66 105 1
66 149 1
66 178 1
66 186 2
66 225 1
67 7 1
67 59 1
67 90 1
67 106 1
67 150 1
67 179 1
67 187 2
67 226 1
68 8 1
68 60 1
68 61 1
68 107 1
68 121 1
68 180 1
68 188 2
68 227 1
69 9 1
69 31 1
69 62 1
69 108 1
69 122 1
69 151 1
69 189 2
69 228 1
70 10 1
70 32 1
70 63 1
70 109 1
70 123 1
70 152 1
70 190 2
70 229 1
71 11 1
71 33 1
71 64 1
71 110 1
71 124 1
71 153 1
71 191 2
71 230 1
72 12 1
72 34 1
72 65 1
72 111 1
72 125 1
72 154 1
72 192 2
72 231 1
73 13 1
73 35 1
73 66 1
73 112 1
73 126 1
73 155 1
73 193 2
73 232 1
74 14 1
74 36 1
74 67 1
74 113 1
74 127 1
74 156 1
74 194 2
74 233 1
75 15 1
75 37 1
75 68 1
75 114 1
75 128 1
75 157 1
75 195 2
75 234 1
76 16 1
76 38 1
76 69 1
76 115 1
76 129 1
76 158 1
76 196 2
76 235 1
77 17 1
77 39 1
77 70 1
77 116 1
77 130 1
77 159 1
77 197 2
77 236 1
78 18 1
78 40 1
78 71 1
78 117 1
78 131 1
78 160 1
78 198 2
78 237 1
79 19 1
79 41 1
79 72 1
79 118 1
79 132 1
79 161 1
79 199 2
79 238 1
80 20 1
80 42 1
80 73 1
80 119 1
80 133 1
80 162 1
80 200 2
80 239 1
81 21 1
81 43 1
81 74 1
81 120 1
81 134 1
81 163 1
81 201 2
81 240 1
82 22 1
82 44 1
82 75 1
82 91 1
82 135 1
82 164 1
82 202 2
82 211 1
83 23 1
83 45 1
83 76 1
83 92 1
83 136 1
83 165 1
83 203 2
83 212 1
84 24 1
84 46 1
84 77 1
84 93 1
84 137 1
84 166 1
84 204 2
84 213 1
85 25 1
85 47 1
85 78 1
85 94 1
85 138 1
85 167 1
85 205 2
85 214 1
86 26 1
86 48 1
86 79 1
86 95 1
86 139 1
86 168 1
86 206 2
86 215 1
87 27 1
87 49 1
87 80 1
87 96 1
87 140 1
87 169 1
87 207 2
87 216 1
88 28 1
88 50 1
88 81 1
88 97 1
88 141 1
88 170 1
88 208 2
88 217 1
89 29 1
89 51 1
89 82 1
89 98 1
89 142 1
89 171 1
89 209 2
89 218 1
90 30 1
90 52 1
90 83 1
90 99 1
90 143 1
90 172 1
90 210 2
90 219 1
