%%MatrixMarket matrix coordinate integer general
% Binary matrix over GF(2).
% Coordinate indices are 1-based; omitted entries are zero.
120 480 2670
1 85 1
1 86 1
1 90 1
1 115 1
1 116 1
1 267 1
1 269 1
1 292 1
1 295 1
1 296 1
1 297 1
1 365 1
1 369 1
1 371 1
1 372 1
1 397 1
1 402 1
1 421 1
1 424 1
1 447 1
1 449 1
1 450 1
1 476 1
1 479 1
2 87 1
2 88 1
2 92 1
2 117 1
2 118 1
2 269 1
2 271 1
2 294 1
2 297 1
2 298 1
2 299 1
2 367 1
2 371 1
2 373 1
2 374 1
2 399 1
2 404 1
2 421 1
2 423 1
2 426 1
2 449 1
2 451 1
2 452 1
2 478 1
3 89 1
3 90 1
3 94 1
3 119 1
3 120 1
3 241 1
3 271 1
3 273 1
3 296 1
3 299 1
3 300 1
3 369 1
3 373 1
3 375 1
3 376 1
3 401 1
3 406 1
3 423 1
3 425 1
3 428 1
3 451 1
3 453 1
3 454 1
3 480 1
4 61 1
4 62 1
4 91 1
4 92 1
4 96 1
4 241 1
4 242 1
4 243 1
4 273 1
4 275 1
4 298 1
4 371 1
4 375 1
4 377 1
4 378 1
4 403 1
4 408 1
4 422 1
4 425 1
4 427 1
4 430 1
4 453 1
4 455 1
4 456 1
5 63 1
5 64 1
5 93 1
5 94 1
5 98 1
5 243 1
5 244 1
5 245 1
5 275 1
5 277 1
5 300 1
5 373 1
5 377 1
5 379 1
5 380 1
5 405 1
5 410 1
5 424 1
5 427 1
5 429 1
5 432 1
5 455 1
5 457 1
5 458 1
6 65 1
6 66 1
6 95 1
6 96 1
6 100 1
6 242 1
6 245 1
6 246 1
6 247 1
6 277 1
6 279 1
6 375 1
6 379 1
6 381 1
6 382 1
6 407 1
6 412 1
6 426 1
6 429 1
6 431 1
6 434 1
6 457 1
6 459 1
6 460 1
7 67 1
7 68 1
7 97 1
7 98 1
7 102 1
7 244 1
7 247 1
7 248 1
7 249 1
7 279 1
7 281 1
7 377 1
7 381 1
7 383 1
7 384 1
7 409 1
7 414 1
7 428 1
7 431 1
7 433 1
7 436 1
7 459 1
7 461 1
7 462 1
8 69 1
8 70 1
8 99 1
8 100 1
8 104 1
8 246 1
8 249 1
8 250 1
8 251 1
8 281 1
8 283 1
8 379 1
8 383 1
8 385 1
8 386 1
8 411 1
8 416 1
8 430 1
8 433 1
8 435 1
8 438 1
8 461 1
8 463 1
8 464 1
9 71 1
9 72 1
9 101 1
9 102 1
9 106 1
9 248 1
9 251 1
9 252 1
9 253 1
9 283 1
9 285 1
9 381 1
9 385 1
9 387 1
9 388 1
9 413 1
9 418 1
9 432 1
9 435 1
9 437 1
9 440 1
9 463 1
9 465 1
9 466 1
10 73 1
10 74 1
10 103 1
10 104 1
10 108 1
10 250 1
10 253 1
10 254 1
10 255 1
10 285 1
10 287 1
10 383 1
10 387 1
10 389 1
10 390 1
10 415 1
10 420 1
10 434 1
10 437 1
10 439 1
10 442 1
10 465 1
10 467 1
10 468 1
11 75 1
11 76 1
11 105 1
11 106 1
11 110 1
11 252 1
11 255 1
11 256 1
11 257 1
11 287 1
11 289 1
11 362 1
11 385 1
11 389 1
11 391 1
11 392 1
11 417 1
11 436 1
11 439 1
11 441 1
11 444 1
11 467 1
11 469 1
11 470 1
12 77 1
12 78 1
12 107 1
12 108 1
12 112 1
12 254 1
12 257 1
12 258 1
12 259 1
12 289 1
12 291 1
12 364 1
12 387 1
12 391 1
12 393 1
12 394 1
12 419 1
12 438 1
12 441 1
12 443 1
12 446 1
12 469 1
12 471 1
12 472 1
13 79 1
13 80 1
13 109 1
13 110 1
13 114 1
13 256 1
13 259 1
13 260 1
13 261 1
13 291 1
13 293 1
13 361 1
13 366 1
13 389 1
13 393 1
13 395 1
13 396 1
13 440 1
13 443 1
13 445 1
13 448 1
13 471 1
13 473 1
13 474 1
14 81 1
14 82 1
14 111 1
14 112 1
14 116 1
14 258 1
14 261 1
14 262 1
14 263 1
14 293 1
14 295 1
14 363 1
14 368 1
14 391 1
14 395 1
14 397 1
14 398 1
14 442 1
14 445 1
14 447 1
14 450 1
14 473 1
14 475 1
14 476 1
15 83 1
15 84 1
15 113 1
15 114 1
15 118 1
15 260 1
15 263 1
15 264 1
15 265 1
15 295 1
15 297 1
15 365 1
15 370 1
15 393 1
15 397 1
15 399 1
15 400 1
15 444 1
15 447 1
15 449 1
15 452 1
15 475 1
15 477 1
15 478 1
16 85 1
16 86 1
16 115 1
16 116 1
16 120 1
16 262 1
16 265 1
16 266 1
16 267 1
16 297 1
16 299 1
16 367 1
16 372 1
16 395 1
16 399 1
16 401 1
16 402 1
16 446 1
16 449 1
16 451 1
16 454 1
16 477 1
16 479 1
16 480 1
17 62 1
17 87 1
17 88 1
17 117 1
17 118 1
17 241 1
17 264 1
17 267 1
17 268 1
17 269 1
17 299 1
17 369 1
17 374 1
17 397 1
17 401 1
17 403 1
17 404 1
17 421 1
17 422 1
17 448 1
17 451 1
17 453 1
17 456 1
17 479 1
18 64 1
18 89 1
18 90 1
18 119 1
18 120 1
18 241 1
18 243 1
18 266 1
18 269 1
18 270 1
18 271 1
18 371 1
18 376 1
18 399 1
18 403 1
18 405 1
18 406 1
18 421 1
18 423 1
18 424 1
18 450 1
18 453 1
18 455 1
18 458 1
19 61 1
19 62 1
19 66 1
19 91 1
19 92 1
19 243 1
19 245 1
19 268 1
19 271 1
19 272 1
19 273 1
19 373 1
19 378 1
19 401 1
19 405 1
19 407 1
19 408 1
19 423 1
19 425 1
19 426 1
19 452 1
19 455 1
19 457 1
19 460 1
20 63 1
20 64 1
20 68 1
20 93 1
20 94 1
20 245 1
20 247 1
20 270 1
20 273 1
20 274 1
20 275 1
20 375 1
20 380 1
20 403 1
20 407 1
20 409 1
20 410 1
20 425 1
20 427 1
20 428 1
20 454 1
20 457 1
20 459 1
20 462 1
21 65 1
21 66 1
21 70 1
21 95 1
21 96 1
21 247 1
21 249 1
21 272 1
21 275 1
21 276 1
21 277 1
21 377 1
21 382 1
21 405 1
21 409 1
21 411 1
21 412 1
21 427 1
21 429 1
21 430 1
21 456 1
21 459 1
21 461 1
21 464 1
22 67 1
22 68 1
22 72 1
22 97 1
22 98 1
22 249 1
22 251 1
22 274 1
22 277 1
22 278 1
22 279 1
22 379 1
22 384 1
22 407 1
22 411 1
22 413 1
22 414 1
22 429 1
22 431 1
22 432 1
22 458 1
22 461 1
22 463 1
22 466 1
23 69 1
23 70 1
23 74 1
23 99 1
23 100 1
23 251 1
23 253 1
23 276 1
23 279 1
23 280 1
23 281 1
23 381 1
23 386 1
23 409 1
23 413 1
23 415 1
23 416 1
23 431 1
23 433 1
23 434 1
23 460 1
23 463 1
23 465 1
23 468 1
24 71 1
24 72 1
24 76 1
24 101 1
24 102 1
24 253 1
24 255 1
24 278 1
24 281 1
24 282 1
24 283 1
24 383 1
24 388 1
24 411 1
24 415 1
24 417 1
24 418 1
24 433 1
24 435 1
24 436 1
24 462 1
24 465 1
24 467 1
24 470 1
25 73 1
25 74 1
25 78 1
25 103 1
25 104 1
25 255 1
25 257 1
25 280 1
25 283 1
25 284 1
25 285 1
25 385 1
25 390 1
25 413 1
25 417 1
25 419 1
25 420 1
25 435 1
25 437 1
25 438 1
25 464 1
25 467 1
25 469 1
25 472 1
26 75 1
26 76 1
26 80 1
26 105 1
26 106 1
26 257 1
26 259 1
26 282 1
26 285 1
26 286 1
26 287 1
26 361 1
26 362 1
26 387 1
26 392 1
26 415 1
26 419 1
26 437 1
26 439 1
26 440 1
26 466 1
26 469 1
26 471 1
26 474 1
27 77 1
27 78 1
27 82 1
27 107 1
27 108 1
27 259 1
27 261 1
27 284 1
27 287 1
27 288 1
27 289 1
27 361 1
27 363 1
27 364 1
27 389 1
27 394 1
27 417 1
27 439 1
27 441 1
27 442 1
27 468 1
27 471 1
27 473 1
27 476 1
28 79 1
28 80 1
28 84 1
28 109 1
28 110 1
28 261 1
28 263 1
28 286 1
28 289 1
28 290 1
28 291 1
28 363 1
28 365 1
28 366 1
28 391 1
28 396 1
28 419 1
28 441 1
28 443 1
28 444 1
28 470 1
28 473 1
28 475 1
28 478 1
29 81 1
29 82 1
29 86 1
29 111 1
29 112 1
29 263 1
29 265 1
29 288 1
29 291 1
29 292 1
29 293 1
29 361 1
29 365 1
29 367 1
29 368 1
29 393 1
29 398 1
29 443 1
29 445 1
29 446 1
29 472 1
29 475 1
29 477 1
29 480 1
30 83 1
30 84 1
30 88 1
30 113 1
30 114 1
30 265 1
30 267 1
30 290 1
30 293 1
30 294 1
30 295 1
30 363 1
30 367 1
30 369 1
30 370 1
30 395 1
30 400 1
30 422 1
30 445 1
30 447 1
30 448 1
30 474 1
30 477 1
30 479 1
31 85 1
31 89 1
31 90 1
31 115 1
31 268 1
31 270 1
31 291 1
31 292 1
31 295 1
31 298 1
31 366 1
31 370 1
31 371 1
31 398 1
31 401 1
31 402 1
31 422 1
31 423 1
31 424 1
31 448 1
31 449 1
31 475 1
31 476 1
31 480 1
32 87 1
32 91 1
32 92 1
32 117 1
32 270 1
32 272 1
32 293 1
32 294 1
32 297 1
32 300 1
32 368 1
32 372 1
32 373 1
32 400 1
32 403 1
32 404 1
32 422 1
32 424 1
32 425 1
32 426 1
32 450 1
32 451 1
32 477 1
32 478 1
33 89 1
33 93 1
33 94 1
33 119 1
33 242 1
33 272 1
33 274 1
33 295 1
33 296 1
33 299 1
33 370 1
33 374 1
33 375 1
33 402 1
33 405 1
33 406 1
33 424 1
33 426 1
33 427 1
33 428 1
33 452 1
33 453 1
33 479 1
33 480 1
34 61 1
34 91 1
34 95 1
34 96 1
34 241 1
34 244 1
34 274 1
34 276 1
34 297 1
34 298 1
34 372 1
34 376 1
34 377 1
34 404 1
34 407 1
34 408 1
34 421 1
34 422 1
34 426 1
34 428 1
34 429 1
34 430 1
34 454 1
34 455 1
35 63 1
35 93 1
35 97 1
35 98 1
35 243 1
35 246 1
35 276 1
35 278 1
35 299 1
35 300 1
35 374 1
35 378 1
35 379 1
35 406 1
35 409 1
35 410 1
35 423 1
35 424 1
35 428 1
35 430 1
35 431 1
35 432 1
35 456 1
35 457 1
36 65 1
36 95 1
36 99 1
36 100 1
36 241 1
36 242 1
36 245 1
36 248 1
36 278 1
36 280 1
36 376 1
36 380 1
36 381 1
36 408 1
36 411 1
36 412 1
36 425 1
36 426 1
36 430 1
36 432 1
36 433 1
36 434 1
36 458 1
36 459 1
37 67 1
37 97 1
37 101 1
37 102 1
37 243 1
37 244 1
37 247 1
37 250 1
37 280 1
37 282 1
37 378 1
37 382 1
37 383 1
37 410 1
37 413 1
37 414 1
37 427 1
37 428 1
37 432 1
37 434 1
37 435 1
37 436 1
37 460 1
37 461 1
38 69 1
38 99 1
38 103 1
38 104 1
38 245 1
38 246 1
38 249 1
38 252 1
38 282 1
38 284 1
38 380 1
38 384 1
38 385 1
38 412 1
38 415 1
38 416 1
38 429 1
38 430 1
38 434 1
38 436 1
38 437 1
38 438 1
38 462 1
38 463 1
39 71 1
39 101 1
39 105 1
39 106 1
39 247 1
39 248 1
39 251 1
39 254 1
39 284 1
39 286 1
39 382 1
39 386 1
39 387 1
39 414 1
39 417 1
39 418 1
39 431 1
39 432 1
39 436 1
39 438 1
39 439 1
39 440 1
39 464 1
39 465 1
40 73 1
40 103 1
40 107 1
40 108 1
40 249 1
40 250 1
40 253 1
40 256 1
40 286 1
40 288 1
40 384 1
40 388 1
40 389 1
40 416 1
40 419 1
40 420 1
40 433 1
40 434 1
40 438 1
40 440 1
40 441 1
40 442 1
40 466 1
40 467 1
41 75 1
41 105 1
41 109 1
41 110 1
41 251 1
41 252 1
41 255 1
41 258 1
41 288 1
41 290 1
41 361 1
41 362 1
41 386 1
41 390 1
41 391 1
41 418 1
41 435 1
41 436 1
41 440 1
41 442 1
41 443 1
41 444 1
41 468 1
41 469 1
42 77 1
42 107 1
42 111 1
42 112 1
42 253 1
42 254 1
42 257 1
42 260 1
42 290 1
42 292 1
42 363 1
42 364 1
42 388 1
42 392 1
42 393 1
42 420 1
42 437 1
42 438 1
42 442 1
42 444 1
42 445 1
42 446 1
42 470 1
42 471 1
43 79 1
43 109 1
43 113 1
43 114 1
43 255 1
43 256 1
43 259 1
43 262 1
43 292 1
43 294 1
43 362 1
43 365 1
43 366 1
43 390 1
43 394 1
43 395 1
43 439 1
43 440 1
43 444 1
43 446 1
43 447 1
43 448 1
43 472 1
43 473 1
44 81 1
44 111 1
44 115 1
44 116 1
44 257 1
44 258 1
44 261 1
44 264 1
44 294 1
44 296 1
44 364 1
44 367 1
44 368 1
44 392 1
44 396 1
44 397 1
44 441 1
44 442 1
44 446 1
44 448 1
44 449 1
44 450 1
44 474 1
44 475 1
45 83 1
45 113 1
45 117 1
45 118 1
45 259 1
45 260 1
45 263 1
45 266 1
45 296 1
45 298 1
45 366 1
45 369 1
45 370 1
45 394 1
45 398 1
45 399 1
45 443 1
45 444 1
45 448 1
45 450 1
45 451 1
45 452 1
45 476 1
45 477 1
46 85 1
46 115 1
46 119 1
46 120 1
46 261 1
46 262 1
46 265 1
46 268 1
46 298 1
46 300 1
46 368 1
46 371 1
46 372 1
46 396 1
46 400 1
46 401 1
46 445 1
46 446 1
46 450 1
46 452 1
46 453 1
46 454 1
46 478 1
46 479 1
47 61 1
47 62 1
47 87 1
47 117 1
47 242 1
47 263 1
47 264 1
47 267 1
47 270 1
47 300 1
47 370 1
47 373 1
47 374 1
47 398 1
47 402 1
47 403 1
47 421 1
47 447 1
47 448 1
47 452 1
47 454 1
47 455 1
47 456 1
47 480 1
48 63 1
48 64 1
48 89 1
48 119 1
48 242 1
48 244 1
48 265 1
48 266 1
48 269 1
48 272 1
48 372 1
48 375 1
48 376 1
48 400 1
48 404 1
48 405 1
48 422 1
48 423 1
48 449 1
48 450 1
48 454 1
48 456 1
48 457 1
48 458 1
49 61 1
49 65 1
49 66 1
49 91 1
49 244 1
49 246 1
49 267 1
49 268 1
49 271 1
49 274 1
49 374 1
49 377 1
49 378 1
49 402 1
49 406 1
49 407 1
49 424 1
49 425 1
49 451 1
49 452 1
49 456 1
49 458 1
49 459 1
49 460 1
50 63 1
50 67 1
50 68 1
50 93 1
50 246 1
50 248 1
50 269 1
50 270 1
50 273 1
50 276 1
50 376 1
50 379 1
50 380 1
50 404 1
50 408 1
50 409 1
50 426 1
50 427 1
50 453 1
50 454 1
50 458 1
50 460 1
50 461 1
50 462 1
51 65 1
51 69 1
51 70 1
51 95 1
51 248 1
51 250 1
51 271 1
51 272 1
51 275 1
51 278 1
51 378 1
51 381 1
51 382 1
51 406 1
51 410 1
51 411 1
51 428 1
51 429 1
51 455 1
51 456 1
51 460 1
51 462 1
51 463 1
51 464 1
52 67 1
52 71 1
52 72 1
52 97 1
52 250 1
52 252 1
52 273 1
52 274 1
52 277 1
52 280 1
52 380 1
52 383 1
52 384 1
52 408 1
52 412 1
52 413 1
52 430 1
52 431 1
52 457 1
52 458 1
52 462 1
52 464 1
52 465 1
52 466 1
53 69 1
53 73 1
53 74 1
53 99 1
53 252 1
53 254 1
53 275 1
53 276 1
53 279 1
53 282 1
53 382 1
53 385 1
53 386 1
53 410 1
53 414 1
53 415 1
53 432 1
53 433 1
53 459 1
53 460 1
53 464 1
53 466 1
53 467 1
53 468 1
54 71 1
54 75 1
54 76 1
54 101 1
54 254 1
54 256 1
54 277 1
54 278 1
54 281 1
54 284 1
54 384 1
54 387 1
54 388 1
54 412 1
54 416 1
54 417 1
54 434 1
54 435 1
54 461 1
54 462 1
54 466 1
54 468 1
54 469 1
54 470 1
55 73 1
55 77 1
55 78 1
55 103 1
55 256 1
55 258 1
55 279 1
55 280 1
55 283 1
55 286 1
55 386 1
55 389 1
55 390 1
55 414 1
55 418 1
55 419 1
55 436 1
55 437 1
55 463 1
55 464 1
55 468 1
55 470 1
55 471 1
55 472 1
56 75 1
56 79 1
56 80 1
56 105 1
56 258 1
56 260 1
56 281 1
56 282 1
56 285 1
56 288 1
56 361 1
56 388 1
56 391 1
56 392 1
56 416 1
56 420 1
56 438 1
56 439 1
56 465 1
56 466 1
56 470 1
56 472 1
56 473 1
56 474 1
57 77 1
57 81 1
57 82 1
57 107 1
57 260 1
57 262 1
57 283 1
57 284 1
57 287 1
57 290 1
57 362 1
57 363 1
57 390 1
57 393 1
57 394 1
57 418 1
57 440 1
57 441 1
57 467 1
57 468 1
57 472 1
57 474 1
57 475 1
57 476 1
58 79 1
58 83 1
58 84 1
58 109 1
58 262 1
58 264 1
58 285 1
58 286 1
58 289 1
58 292 1
58 364 1
58 365 1
58 392 1
58 395 1
58 396 1
58 420 1
58 442 1
58 443 1
58 469 1
58 470 1
58 474 1
58 476 1
58 477 1
58 478 1
59 81 1
59 85 1
59 86 1
59 111 1
59 264 1
59 266 1
59 287 1
59 288 1
59 291 1
59 294 1
59 362 1
59 366 1
59 367 1
59 394 1
59 397 1
59 398 1
59 444 1
59 445 1
59 471 1
59 472 1
59 476 1
59 478 1
59 479 1
59 480 1
60 83 1
60 87 1
60 88 1
60 113 1
60 266 1
60 268 1
60 289 1
60 290 1
60 293 1
60 296 1
60 364 1
60 368 1
60 369 1
60 396 1
60 399 1
60 400 1
60 421 1
60 422 1
60 446 1
60 447 1
60 473 1
60 474 1
60 478 1
60 480 1
61 267 1
61 269 1
61 274 1
61 298 1
61 299 1
61 300 1
61 325 1
61 329 1
61 330 1
61 355 1
61 372 1
61 376 1
61 403 1
61 404 1
61 423 1
61 424 1
61 426 1
61 451 1
61 452 1
61 453 1
61 454 1
62 241 1
62 242 1
62 269 1
62 271 1
62 276 1
62 300 1
62 327 1
62 331 1
62 332 1
62 357 1
62 374 1
62 378 1
62 405 1
62 406 1
62 425 1
62 426 1
62 428 1
62 453 1
62 454 1
62 455 1
62 456 1
63 242 1
63 243 1
63 244 1
63 271 1
63 273 1
63 278 1
63 329 1
63 333 1
63 334 1
63 359 1
63 376 1
63 380 1
63 407 1
63 408 1
63 427 1
63 428 1
63 430 1
63 455 1
63 456 1
63 457 1
63 458 1
64 244 1
64 245 1
64 246 1
64 273 1
64 275 1
64 280 1
64 301 1
64 331 1
64 335 1
64 336 1
64 378 1
64 382 1
64 409 1
64 410 1
64 429 1
64 430 1
64 432 1
64 457 1
64 458 1
64 459 1
64 460 1
65 246 1
65 247 1
65 248 1
65 275 1
65 277 1
65 282 1
65 303 1
65 333 1
65 337 1
65 338 1
65 380 1
65 384 1
65 411 1
65 412 1
65 431 1
65 432 1
65 434 1
65 459 1
65 460 1
65 461 1
65 462 1
66 248 1
66 249 1
66 250 1
66 277 1
66 279 1
66 284 1
66 305 1
66 335 1
66 339 1
66 340 1
66 382 1
66 386 1
66 413 1
66 414 1
66 433 1
66 434 1
66 436 1
66 461 1
66 462 1
66 463 1
66 464 1
67 250 1
67 251 1
67 252 1
67 279 1
67 281 1
67 286 1
67 307 1
67 337 1
67 341 1
67 342 1
67 384 1
67 388 1
67 415 1
67 416 1
67 435 1
67 436 1
67 438 1
67 463 1
67 464 1
67 465 1
67 466 1
68 252 1
68 253 1
68 254 1
68 281 1
68 283 1
68 288 1
68 309 1
68 339 1
68 343 1
68 344 1
68 386 1
68 390 1
68 417 1
68 418 1
68 437 1
68 438 1
68 440 1
68 465 1
68 466 1
68 467 1
68 468 1
69 254 1
69 255 1
69 256 1
69 283 1
69 285 1
69 290 1
69 311 1
69 341 1
69 345 1
69 346 1
69 388 1
69 392 1
69 419 1
69 420 1
69 439 1
69 440 1
69 442 1
69 467 1
69 468 1
69 469 1
69 470 1
70 256 1
70 257 1
70 258 1
70 285 1
70 287 1
70 292 1
70 313 1
70 343 1
70 347 1
70 348 1
70 361 1
70 362 1
70 390 1
70 394 1
70 441 1
70 442 1
70 444 1
70 469 1
70 470 1
70 471 1
70 472 1
71 258 1
71 259 1
71 260 1
71 287 1
71 289 1
71 294 1
71 315 1
71 345 1
71 349 1
71 350 1
71 363 1
71 364 1
71 392 1
71 396 1
71 443 1
71 444 1
71 446 1
71 471 1
71 472 1
71 473 1
71 474 1
72 260 1
72 261 1
72 262 1
72 289 1
72 291 1
72 296 1
72 317 1
72 347 1
72 351 1
72 352 1
72 365 1
72 366 1
72 394 1
72 398 1
72 445 1
72 446 1
72 448 1
72 473 1
72 474 1
72 475 1
72 476 1
73 262 1
73 263 1
73 264 1
73 291 1
73 293 1
73 298 1
73 319 1
73 349 1
73 353 1
73 354 1
73 367 1
73 368 1
73 396 1
73 400 1
73 447 1
73 448 1
73 450 1
73 475 1
73 476 1
73 477 1
73 478 1
74 264 1
74 265 1
74 266 1
74 293 1
74 295 1
74 300 1
74 321 1
74 351 1
74 355 1
74 356 1
74 369 1
74 370 1
74 398 1
74 402 1
74 449 1
74 450 1
74 452 1
74 477 1
74 478 1
74 479 1
74 480 1
75 242 1
75 266 1
75 267 1
75 268 1
75 295 1
75 297 1
75 323 1
75 353 1
75 357 1
75 358 1
75 371 1
75 372 1
75 400 1
75 404 1
75 421 1
75 422 1
75 451 1
75 452 1
75 454 1
75 479 1
75 480 1
76 244 1
76 268 1
76 269 1
76 270 1
76 297 1
76 299 1
76 325 1
76 355 1
76 359 1
76 360 1
76 373 1
76 374 1
76 402 1
76 406 1
76 421 1
76 422 1
76 423 1
76 424 1
76 453 1
76 454 1
76 456 1
77 241 1
77 246 1
77 270 1
77 271 1
77 272 1
77 299 1
77 301 1
77 302 1
77 327 1
77 357 1
77 375 1
77 376 1
77 404 1
77 408 1
77 423 1
77 424 1
77 425 1
77 426 1
77 455 1
77 456 1
77 458 1
78 241 1
78 243 1
78 248 1
78 272 1
78 273 1
78 274 1
78 303 1
78 304 1
78 329 1
78 359 1
78 377 1
78 378 1
78 406 1
78 410 1
78 425 1
78 426 1
78 427 1
78 428 1
78 457 1
78 458 1
78 460 1
79 243 1
79 245 1
79 250 1
79 274 1
79 275 1
79 276 1
79 301 1
79 305 1
79 306 1
79 331 1
79 379 1
79 380 1
79 408 1
79 412 1
79 427 1
79 428 1
79 429 1
79 430 1
79 459 1
79 460 1
79 462 1
80 245 1
80 247 1
80 252 1
80 276 1
80 277 1
80 278 1
80 303 1
80 307 1
80 308 1
80 333 1
80 381 1
80 382 1
80 410 1
80 414 1
80 429 1
80 430 1
80 431 1
80 432 1
80 461 1
80 462 1
80 464 1
81 247 1
81 249 1
81 254 1
81 278 1
81 279 1
81 280 1
81 305 1
81 309 1
81 310 1
81 335 1
81 383 1
81 384 1
81 412 1
81 416 1
81 431 1
81 432 1
81 433 1
81 434 1
81 463 1
81 464 1
81 466 1
82 249 1
82 251 1
82 256 1
82 280 1
82 281 1
82 282 1
82 307 1
82 311 1
82 312 1
82 337 1
82 385 1
82 386 1
82 414 1
82 418 1
82 433 1
82 434 1
82 435 1
82 436 1
82 465 1
82 466 1
82 468 1
83 251 1
83 253 1
83 258 1
83 282 1
83 283 1
83 284 1
83 309 1
83 313 1
83 314 1
83 339 1
83 387 1
83 388 1
83 416 1
83 420 1
83 435 1
83 436 1
83 437 1
83 438 1
83 467 1
83 468 1
83 470 1
84 253 1
84 255 1
84 260 1
84 284 1
84 285 1
84 286 1
84 311 1
84 315 1
84 316 1
84 341 1
84 362 1
84 389 1
84 390 1
84 418 1
84 437 1
84 438 1
84 439 1
84 440 1
84 469 1
84 470 1
84 472 1
85 255 1
85 257 1
85 262 1
85 286 1
85 287 1
85 288 1
85 313 1
85 317 1
85 318 1
85 343 1
85 364 1
85 391 1
85 392 1
85 420 1
85 439 1
85 440 1
85 441 1
85 442 1
85 471 1
85 472 1
85 474 1
86 257 1
86 259 1
86 264 1
86 288 1
86 289 1
86 290 1
86 315 1
86 319 1
86 320 1
86 345 1
86 362 1
86 366 1
86 393 1
86 394 1
86 441 1
86 442 1
86 443 1
86 444 1
86 473 1
86 474 1
86 476 1
87 259 1
87 261 1
87 266 1
87 290 1
87 291 1
87 292 1
87 317 1
87 321 1
87 322 1
87 347 1
87 364 1
87 368 1
87 395 1
87 396 1
87 443 1
87 444 1
87 445 1
87 446 1
87 475 1
87 476 1
87 478 1
88 261 1
88 263 1
88 268 1
88 292 1
88 293 1
88 294 1
88 319 1
88 323 1
88 324 1
88 349 1
88 366 1
88 370 1
88 397 1
88 398 1
88 445 1
88 446 1
88 447 1
88 448 1
88 477 1
88 478 1
88 480 1
89 263 1
89 265 1
89 270 1
89 294 1
89 295 1
89 296 1
89 321 1
89 325 1
89 326 1
89 351 1
89 368 1
89 372 1
89 399 1
89 400 1
89 422 1
89 447 1
89 448 1
89 449 1
89 450 1
89 479 1
89 480 1
90 265 1
90 267 1
90 272 1
90 296 1
90 297 1
90 298 1
90 323 1
90 327 1
90 328 1
90 353 1
90 370 1
90 374 1
90 401 1
90 402 1
90 421 1
90 422 1
90 424 1
90 449 1
90 450 1
90 451 1
90 452 1
91 268 1
91 270 1
91 273 1
91 274 1
91 297 1
91 298 1
91 299 1
91 326 1
91 329 1
91 356 1
91 371 1
91 372 1
91 375 1
91 376 1
91 403 1
91 423 1
91 425 1
91 426 1
91 451 1
91 453 1
92 241 1
92 270 1
92 272 1
92 275 1
92 276 1
92 299 1
92 300 1
92 328 1
92 331 1
92 358 1
92 373 1
92 374 1
92 377 1
92 378 1
92 405 1
92 425 1
92 427 1
92 428 1
92 453 1
92 455 1
93 241 1
93 242 1
93 243 1
93 272 1
93 274 1
93 277 1
93 278 1
93 330 1
93 333 1
93 360 1
93 375 1
93 376 1
93 379 1
93 380 1
93 407 1
93 427 1
93 429 1
93 430 1
93 455 1
93 457 1
94 243 1
94 244 1
94 245 1
94 274 1
94 276 1
94 279 1
94 280 1
94 302 1
94 332 1
94 335 1
94 377 1
94 378 1
94 381 1
94 382 1
94 409 1
94 429 1
94 431 1
94 432 1
94 457 1
94 459 1
95 245 1
95 246 1
95 247 1
95 276 1
95 278 1
95 281 1
95 282 1
95 304 1
95 334 1
95 337 1
95 379 1
95 380 1
95 383 1
95 384 1
95 411 1
95 431 1
95 433 1
95 434 1
95 459 1
95 461 1
96 247 1
96 248 1
96 249 1
96 278 1
96 280 1
96 283 1
96 284 1
96 306 1
96 336 1
96 339 1
96 381 1
96 382 1
96 385 1
96 386 1
96 413 1
96 433 1
96 435 1
96 436 1
96 461 1
96 463 1
97 249 1
97 250 1
97 251 1
97 280 1
97 282 1
97 285 1
97 286 1
97 308 1
97 338 1
97 341 1
97 383 1
97 384 1
97 387 1
97 388 1
97 415 1
97 435 1
97 437 1
97 438 1
97 463 1
97 465 1
98 251 1
98 252 1
98 253 1
98 282 1
98 284 1
98 287 1
98 288 1
98 310 1
98 340 1
98 343 1
98 385 1
98 386 1
98 389 1
98 390 1
98 417 1
98 437 1
98 439 1
98 440 1
98 465 1
98 467 1
99 253 1
99 254 1
99 255 1
99 284 1
99 286 1
99 289 1
99 290 1
99 312 1
99 342 1
99 345 1
99 387 1
99 388 1
99 391 1
99 392 1
99 419 1
99 439 1
99 441 1
99 442 1
99 467 1
99 469 1
100 255 1
100 256 1
100 257 1
100 286 1
100 288 1
100 291 1
100 292 1
100 314 1
100 344 1
100 347 1
100 361 1
100 389 1
100 390 1
100 393 1
100 394 1
100 441 1
100 443 1
100 444 1
100 469 1
100 471 1
101 257 1
101 258 1
101 259 1
101 288 1
101 290 1
101 293 1
101 294 1
101 316 1
101 346 1
101 349 1
101 363 1
101 391 1
101 392 1
101 395 1
101 396 1
101 443 1
101 445 1
101 446 1
101 471 1
101 473 1
102 259 1
102 260 1
102 261 1
102 290 1
102 292 1
102 295 1
102 296 1
102 318 1
102 348 1
102 351 1
102 365 1
102 393 1
102 394 1
102 397 1
102 398 1
102 445 1
102 447 1
102 448 1
102 473 1
102 475 1
103 261 1
103 262 1
103 263 1
103 292 1
103 294 1
103 297 1
103 298 1
103 320 1
103 350 1
103 353 1
103 367 1
103 395 1
103 396 1
103 399 1
103 400 1
103 447 1
103 449 1
103 450 1
103 475 1
103 477 1
104 263 1
104 264 1
104 265 1
104 294 1
104 296 1
104 299 1
104 300 1
104 322 1
104 352 1
104 355 1
104 369 1
104 397 1
104 398 1
104 401 1
104 402 1
104 449 1
104 451 1
104 452 1
104 477 1
104 479 1
105 241 1
105 242 1
105 265 1
105 266 1
105 267 1
105 296 1
105 298 1
105 324 1
105 354 1
105 357 1
105 371 1
105 399 1
105 400 1
105 403 1
105 404 1
105 421 1
105 451 1
105 453 1
105 454 1
105 479 1
106 243 1
106 244 1
106 267 1
106 268 1
106 269 1
106 298 1
106 300 1
106 326 1
106 356 1
106 359 1
106 373 1
106 401 1
106 402 1
106 405 1
106 406 1
106 421 1
106 423 1
106 453 1
106 455 1
106 456 1
107 242 1
107 245 1
107 246 1
107 269 1
107 270 1
107 271 1
107 300 1
107 301 1
107 328 1
107 358 1
107 375 1
107 403 1
107 404 1
107 407 1
107 408 1
107 423 1
107 425 1
107 455 1
107 457 1
107 458 1
108 242 1
108 244 1
108 247 1
108 248 1
108 271 1
108 272 1
108 273 1
108 303 1
108 330 1
108 360 1
108 377 1
108 405 1
108 406 1
108 409 1
108 410 1
108 425 1
108 427 1
108 457 1
108 459 1
108 460 1
109 244 1
109 246 1
109 249 1
109 250 1
109 273 1
109 274 1
109 275 1
109 302 1
109 305 1
109 332 1
109 379 1
109 407 1
109 408 1
109 411 1
109 412 1
109 427 1
109 429 1
109 459 1
109 461 1
109 462 1
110 246 1
110 248 1
110 251 1
110 252 1
110 275 1
110 276 1
110 277 1
110 304 1
110 307 1
110 334 1
110 381 1
110 409 1
110 410 1
110 413 1
110 414 1
110 429 1
110 431 1
110 461 1
110 463 1
110 464 1
111 248 1
111 250 1
111 253 1
111 254 1
111 277 1
111 278 1
111 279 1
111 306 1
111 309 1
111 336 1
111 383 1
111 411 1
111 412 1
111 415 1
111 416 1
111 431 1
111 433 1
111 463 1
111 465 1
111 466 1
112 250 1
112 252 1
112 255 1
112 256 1
112 279 1
112 280 1
112 281 1
112 308 1
112 311 1
112 338 1
112 385 1
112 413 1
112 414 1
112 417 1
112 418 1
112 433 1
112 435 1
112 465 1
112 467 1
112 468 1
113 252 1
113 254 1
113 257 1
113 258 1
113 281 1
113 282 1
113 283 1
113 310 1
113 313 1
113 340 1
113 387 1
113 415 1
113 416 1
113 419 1
113 420 1
113 435 1
113 437 1
113 467 1
113 469 1
113 470 1
114 254 1
114 256 1
114 259 1
114 260 1
114 283 1
114 284 1
114 285 1
114 312 1
114 315 1
114 342 1
114 361 1
114 362 1
114 389 1
114 417 1
114 418 1
114 437 1
114 439 1
114 469 1
114 471 1
114 472 1
115 256 1
115 258 1
115 261 1
115 262 1
115 285 1
115 286 1
115 287 1
115 314 1
115 317 1
115 344 1
115 363 1
115 364 1
115 391 1
115 419 1
115 420 1
115 439 1
115 441 1
115 471 1
115 473 1
115 474 1
116 258 1
116 260 1
116 263 1
116 264 1
116 287 1
116 288 1
116 289 1
116 316 1
116 319 1
116 346 1
116 361 1
116 362 1
116 365 1
116 366 1
116 393 1
116 441 1
116 443 1
116 473 1
116 475 1
116 476 1
117 260 1
117 262 1
117 265 1
117 266 1
117 289 1
117 290 1
117 291 1
117 318 1
117 321 1
117 348 1
117 363 1
117 364 1
117 367 1
117 368 1
117 395 1
117 443 1
117 445 1
117 475 1
117 477 1
117 478 1
118 262 1
118 264 1
118 267 1
118 268 1
118 291 1
118 292 1
118 293 1
118 320 1
118 323 1
118 350 1
118 365 1
118 366 1
118 369 1
118 370 1
118 397 1
118 445 1
118 447 1
118 477 1
118 479 1
118 480 1
119 264 1
119 266 1
119 269 1
119 270 1
119 293 1
119 294 1
119 295 1
119 322 1
119 325 1
119 352 1
119 367 1
119 368 1
119 371 1
119 372 1
119 399 1
119 421 1
119 422 1
119 447 1
119 449 1
119 479 1
120 266 1
120 268 1
120 271 1
120 272 1
120 295 1
120 296 1
120 297 1
120 324 1
120 327 1
120 354 1
120 369 1
120 370 1
120 373 1
120 374 1
120 401 1
120 421 1
120 423 1
120 424 1
120 449 1
120 451 1
