%%MatrixMarket matrix coordinate integer general
% GF(4) labels 0,1,2=omega,3=omega+1; arithmetic is NOT integer arithmetic.
% Coordinate indices are 1-based; omitted entries are zero.
60 240 1020
1 43 3
1 45 2
1 58 3
1 134 1
1 135 1
1 146 2
1 148 3
1 149 1
1 183 1
1 185 1
1 186 3
1 199 1
1 201 2
1 211 1
1 212 2
1 224 1
1 225 3
1 238 2
1 240 1
2 44 3
2 46 2
2 59 3
2 135 1
2 136 1
2 147 2
2 149 3
2 150 1
2 184 1
2 186 1
2 187 3
2 200 1
2 202 2
2 211 1
2 212 1
2 213 2
2 225 1
2 226 3
2 239 2
3 45 3
3 47 2
3 60 3
3 121 1
3 136 1
3 137 1
3 148 2
3 150 3
3 185 1
3 187 1
3 188 3
3 201 1
3 203 2
3 212 1
3 213 1
3 214 2
3 226 1
3 227 3
3 240 2
4 31 3
4 46 3
4 48 2
4 121 3
4 122 1
4 137 1
4 138 1
4 149 2
4 186 1
4 188 1
4 189 3
4 202 1
4 204 2
4 211 2
4 213 1
4 214 1
4 215 2
4 227 1
4 228 3
5 32 3
5 47 3
5 49 2
5 122 3
5 123 1
5 138 1
5 139 1
5 150 2
5 187 1
5 189 1
5 190 3
5 203 1
5 205 2
5 212 2
5 214 1
5 215 1
5 216 2
5 228 1
5 229 3
6 33 3
6 48 3
6 50 2
6 121 2
6 123 3
6 124 1
6 139 1
6 140 1
6 188 1
6 190 1
6 191 3
6 204 1
6 206 2
6 213 2
6 215 1
6 216 1
6 217 2
6 229 1
6 230 3
7 34 3
7 49 3
7 51 2
7 122 2
7 124 3
7 125 1
7 140 1
7 141 1
7 189 1
7 191 1
7 192 3
7 205 1
7 207 2
7 214 2
7 216 1
7 217 1
7 218 2
7 230 1
7 231 3
8 35 3
8 50 3
8 52 2
8 123 2
8 125 3
8 126 1
8 141 1
8 142 1
8 190 1
8 192 1
8 193 3
8 206 1
8 208 2
8 215 2
8 217 1
8 218 1
8 219 2
8 231 1
8 232 3
9 36 3
9 51 3
9 53 2
9 124 2
9 126 3
9 127 1
9 142 1
9 143 1
9 191 1
9 193 1
9 194 3
9 207 1
9 209 2
9 216 2
9 218 1
9 219 1
9 220 2
9 232 1
9 233 3
10 37 3
10 52 3
10 54 2
10 125 2
10 127 3
10 128 1
10 143 1
10 144 1
10 192 1
10 194 1
10 195 3
10 208 1
10 210 2
10 217 2
10 219 1
10 220 1
10 221 2
10 233 1
10 234 3
11 38 3
11 53 3
11 55 2
11 126 2
11 128 3
11 129 1
11 144 1
11 145 1
11 181 2
11 193 1
11 195 1
11 196 3
11 209 1
11 218 2
11 220 1
11 221 1
11 222 2
11 234 1
11 235 3
12 39 3
12 54 3
12 56 2
12 127 2
12 129 3
12 130 1
12 145 1
12 146 1
12 182 2
12 194 1
12 196 1
12 197 3
12 210 1
12 219 2
12 221 1
12 222 1
12 223 2
12 235 1
12 236 3
13 40 3
13 55 3
13 57 2
13 128 2
13 130 3
13 131 1
13 146 1
13 147 1
13 181 1
13 183 2
13 195 1
13 197 1
13 198 3
13 220 2
13 222 1
13 223 1
13 224 2
13 236 1
13 237 3
14 41 3
14 56 3
14 58 2
14 129 2
14 131 3
14 132 1
14 147 1
14 148 1
14 182 1
14 184 2
14 196 1
14 198 1
14 199 3
14 221 2
14 223 1
14 224 1
14 225 2
14 237 1
14 238 3
15 42 3
15 57 3
15 59 2
15 130 2
15 132 3
15 133 1
15 148 1
15 149 1
15 183 1
15 185 2
15 197 1
15 199 1
15 200 3
15 222 2
15 224 1
15 225 1
15 226 2
15 238 1
15 239 3
16 43 3
16 58 3
16 60 2
16 131 2
16 133 3
16 134 1
16 149 1
16 150 1
16 184 1
16 186 2
16 198 1
16 200 1
16 201 3
16 223 2
16 225 1
16 226 1
16 227 2
16 239 1
16 240 3
17 31 2
17 44 3
17 59 3
17 121 1
17 132 2
17 134 3
17 135 1
17 150 1
17 185 1
17 187 2
17 199 1
17 201 1
17 202 3
17 211 3
17 224 2
17 226 1
17 227 1
17 228 2
17 240 1
18 32 2
18 45 3
18 60 3
18 121 1
18 122 1
18 133 2
18 135 3
18 136 1
18 186 1
18 188 2
18 200 1
18 202 1
18 203 3
18 211 1
18 212 3
18 225 2
18 227 1
18 228 1
18 229 2
19 31 3
19 33 2
19 46 3
19 122 1
19 123 1
19 134 2
19 136 3
19 137 1
19 187 1
19 189 2
19 201 1
19 203 1
19 204 3
19 212 1
19 213 3
19 226 2
19 228 1
19 229 1
19 230 2
20 32 3
20 34 2
20 47 3
20 123 1
20 124 1
20 135 2
20 137 3
20 138 1
20 188 1
20 190 2
20 202 1
20 204 1
20 205 3
20 213 1
20 214 3
20 227 2
20 229 1
20 230 1
20 231 2
21 33 3
21 35 2
21 48 3
21 124 1
21 125 1
21 136 2
21 138 3
21 139 1
21 189 1
21 191 2
21 203 1
21 205 1
21 206 3
21 214 1
21 215 3
21 228 2
21 230 1
21 231 1
21 232 2
22 34 3
22 36 2
22 49 3
22 125 1
22 126 1
22 137 2
22 139 3
22 140 1
22 190 1
22 192 2
22 204 1
22 206 1
22 207 3
22 215 1
22 216 3
22 229 2
22 231 1
22 232 1
22 233 2
23 35 3
23 37 2
23 50 3
23 126 1
23 127 1
23 138 2
23 140 3
23 141 1
23 191 1
23 193 2
23 205 1
23 207 1
23 208 3
23 216 1
23 217 3
23 230 2
23 232 1
23 233 1
23 234 2
24 36 3
24 38 2
24 51 3
24 127 1
24 128 1
24 139 2
24 141 3
24 142 1
24 192 1
24 194 2
24 206 1
24 208 1
24 209 3
24 217 1
24 218 3
24 231 2
24 233 1
24 234 1
24 235 2
25 37 3
25 39 2
25 52 3
25 128 1
25 129 1
25 140 2
25 142 3
25 143 1
25 193 1
25 195 2
25 207 1
25 209 1
25 210 3
25 218 1
25 219 3
25 232 2
25 234 1
25 235 1
25 236 2
26 38 3
26 40 2
26 53 3
26 129 1
26 130 1
26 141 2
26 143 3
26 144 1
26 181 3
26 194 1
26 196 2
26 208 1
26 210 1
26 219 1
26 220 3
26 233 2
26 235 1
26 236 1
26 237 2
27 39 3
27 41 2
27 54 3
27 130 1
27 131 1
27 142 2
27 144 3
27 145 1
27 181 1
27 182 3
27 195 1
27 197 2
27 209 1
27 220 1
27 221 3
27 234 2
27 236 1
27 237 1
27 238 2
28 40 3
28 42 2
28 55 3
28 131 1
28 132 1
28 143 2
28 145 3
28 146 1
28 182 1
28 183 3
28 196 1
28 198 2
28 210 1
28 221 1
28 222 3
28 235 2
28 237 1
28 238 1
28 239 2
29 41 3
29 43 2
29 56 3
29 132 1
29 133 1
29 144 2
29 146 3
29 147 1
29 181 1
29 183 1
29 184 3
29 197 1
29 199 2
29 222 1
29 223 3
29 236 2
29 238 1
29 239 1
29 240 2
30 42 3
30 44 2
30 57 3
30 133 1
30 134 1
30 145 2
30 147 3
30 148 1
30 182 1
30 184 1
30 185 3
30 198 1
30 200 2
30 211 2
30 223 1
30 224 3
30 237 2
30 239 1
30 240 1
31 134 1
31 135 1
31 137 2
31 149 2
31 150 3
31 163 1
31 165 3
31 178 1
31 186 2
31 188 2
31 202 3
31 212 3
31 213 2
31 226 3
31 227 3
32 121 3
32 135 1
32 136 1
32 138 2
32 150 2
32 164 1
32 166 3
32 179 1
32 187 2
32 189 2
32 203 3
32 213 3
32 214 2
32 227 3
32 228 3
33 121 2
33 122 3
33 136 1
33 137 1
33 139 2
33 165 1
33 167 3
33 180 1
33 188 2
33 190 2
33 204 3
33 214 3
33 215 2
33 228 3
33 229 3
34 122 2
34 123 3
34 137 1
34 138 1
34 140 2
34 151 1
34 166 1
34 168 3
34 189 2
34 191 2
34 205 3
34 215 3
34 216 2
34 229 3
34 230 3
35 123 2
35 124 3
35 138 1
35 139 1
35 141 2
35 152 1
35 167 1
35 169 3
35 190 2
35 192 2
35 206 3
35 216 3
35 217 2
35 230 3
35 231 3
36 124 2
36 125 3
36 139 1
36 140 1
36 142 2
36 153 1
36 168 1
36 170 3
36 191 2
36 193 2
36 207 3
36 217 3
36 218 2
36 231 3
36 232 3
37 125 2
37 126 3
37 140 1
37 141 1
37 143 2
37 154 1
37 169 1
37 171 3
37 192 2
37 194 2
37 208 3
37 218 3
37 219 2
37 232 3
37 233 3
38 126 2
38 127 3
38 141 1
38 142 1
38 144 2
38 155 1
38 170 1
38 172 3
38 193 2
38 195 2
38 209 3
38 219 3
38 220 2
38 233 3
38 234 3
39 127 2
39 128 3
39 142 1
39 143 1
39 145 2
39 156 1
39 171 1
39 173 3
39 194 2
39 196 2
39 210 3
39 220 3
39 221 2
39 234 3
39 235 3
40 128 2
40 129 3
40 143 1
40 144 1
40 146 2
40 157 1
40 172 1
40 174 3
40 181 3
40 195 2
40 197 2
40 221 3
40 222 2
40 235 3
40 236 3
41 129 2
41 130 3
41 144 1
41 145 1
41 147 2
41 158 1
41 173 1
41 175 3
41 182 3
41 196 2
41 198 2
41 222 3
41 223 2
41 236 3
41 237 3
42 130 2
42 131 3
42 145 1
42 146 1
42 148 2
42 159 1
42 174 1
42 176 3
42 183 3
42 197 2
42 199 2
42 223 3
42 224 2
42 237 3
42 238 3
43 131 2
43 132 3
43 146 1
43 147 1
43 149 2
43 160 1
43 175 1
43 177 3
43 184 3
43 198 2
43 200 2
43 224 3
43 225 2
43 238 3
43 239 3
44 132 2
44 133 3
44 147 1
44 148 1
44 150 2
44 161 1
44 176 1
44 178 3
44 185 3
44 199 2
44 201 2
44 225 3
44 226 2
44 239 3
44 240 3
45 121 2
45 133 2
45 134 3
45 148 1
45 149 1
45 162 1
45 177 1
45 179 3
45 186 3
45 200 2
45 202 2
45 211 3
45 226 3
45 227 2
45 240 3
46 122 2
46 134 2
46 135 3
46 149 1
46 150 1
46 163 1
46 178 1
46 180 3
46 187 3
46 201 2
46 203 2
46 211 3
46 212 3
46 227 3
46 228 2
47 121 1
47 123 2
47 135 2
47 136 3
47 150 1
47 151 3
47 164 1
47 179 1
47 188 3
47 202 2
47 204 2
47 212 3
47 213 3
47 228 3
47 229 2
48 121 1
48 122 1
48 124 2
48 136 2
48 137 3
48 152 3
48 165 1
48 180 1
48 189 3
48 203 2
48 205 2
48 213 3
48 214 3
48 229 3
48 230 2
49 122 1
49 123 1
49 125 2
49 137 2
49 138 3
49 151 1
49 153 3
49 166 1
49 190 3
49 204 2
49 206 2
49 214 3
49 215 3
49 230 3
49 231 2
50 123 1
50 124 1
50 126 2
50 138 2
50 139 3
50 152 1
50 154 3
50 167 1
50 191 3
50 205 2
50 207 2
50 215 3
50 216 3
50 231 3
50 232 2
51 124 1
51 125 1
51 127 2
51 139 2
51 140 3
51 153 1
51 155 3
51 168 1
51 192 3
51 206 2
51 208 2
51 216 3
51 217 3
51 232 3
51 233 2
52 125 1
52 126 1
52 128 2
52 140 2
52 141 3
52 154 1
52 156 3
52 169 1
52 193 3
52 207 2
52 209 2
52 217 3
52 218 3
52 233 3
52 234 2
53 126 1
53 127 1
53 129 2
53 141 2
53 142 3
53 155 1
53 157 3
53 170 1
53 194 3
53 208 2
53 210 2
53 218 3
53 219 3
53 234 3
53 235 2
54 127 1
54 128 1
54 130 2
54 142 2
54 143 3
54 156 1
54 158 3
54 171 1
54 181 2
54 195 3
54 209 2
54 219 3
54 220 3
54 235 3
54 236 2
55 128 1
55 129 1
55 131 2
55 143 2
55 144 3
55 157 1
55 159 3
55 172 1
55 182 2
55 196 3
55 210 2
55 220 3
55 221 3
55 236 3
55 237 2
56 129 1
56 130 1
56 132 2
56 144 2
56 145 3
56 158 1
56 160 3
56 173 1
56 181 2
56 183 2
56 197 3
56 221 3
56 222 3
56 237 3
56 238 2
57 130 1
57 131 1
57 133 2
57 145 2
57 146 3
57 159 1
57 161 3
57 174 1
57 182 2
57 184 2
57 198 3
57 222 3
57 223 3
57 238 3
57 239 2
58 131 1
58 132 1
58 134 2
58 146 2
58 147 3
58 160 1
58 162 3
58 175 1
58 183 2
58 185 2
58 199 3
58 223 3
58 224 3
58 239 3
58 240 2
59 132 1
59 133 1
59 135 2
59 147 2
59 148 3
59 161 1
59 163 3
59 176 1
59 184 2
59 186 2
59 200 3
59 211 2
59 224 3
59 225 3
59 240 3
60 133 1
60 134 1
60 136 2
60 148 2
60 149 3
60 162 1
60 164 3
60 177 1
60 185 2
60 187 2
60 201 3
60 211 3
60 212 2
60 225 3
60 226 3
