%%MatrixMarket matrix coordinate integer general
% Binary matrix over GF(2).
% Coordinate indices are 1-based; omitted entries are zero.
120 480 2670
1 4 1
1 31 1
1 32 1
1 60 1
1 63 1
1 89 1
1 90 1
1 93 1
1 121 1
1 122 1
1 124 1
1 148 1
1 151 1
1 153 1
1 181 1
1 182 1
1 208 1
1 209 1
1 210 1
1 239 1
1 240 1
2 2 1
2 6 1
2 33 1
2 34 1
2 65 1
2 91 1
2 92 1
2 95 1
2 123 1
2 124 1
2 126 1
2 150 1
2 153 1
2 155 1
2 181 1
2 182 1
2 183 1
2 184 1
2 210 1
2 211 1
2 212 1
3 4 1
3 8 1
3 35 1
3 36 1
3 67 1
3 93 1
3 94 1
3 97 1
3 125 1
3 126 1
3 128 1
3 152 1
3 155 1
3 157 1
3 183 1
3 184 1
3 185 1
3 186 1
3 212 1
3 213 1
3 214 1
4 6 1
4 10 1
4 37 1
4 38 1
4 69 1
4 95 1
4 96 1
4 99 1
4 127 1
4 128 1
4 130 1
4 154 1
4 157 1
4 159 1
4 185 1
4 186 1
4 187 1
4 188 1
4 214 1
4 215 1
4 216 1
5 8 1
5 12 1
5 39 1
5 40 1
5 71 1
5 97 1
5 98 1
5 101 1
5 129 1
5 130 1
5 132 1
5 156 1
5 159 1
5 161 1
5 187 1
5 188 1
5 189 1
5 190 1
5 216 1
5 217 1
5 218 1
6 10 1
6 14 1
6 41 1
6 42 1
6 73 1
6 99 1
6 100 1
6 103 1
6 131 1
6 132 1
6 134 1
6 158 1
6 161 1
6 163 1
6 189 1
6 190 1
6 191 1
6 192 1
6 218 1
6 219 1
6 220 1
7 12 1
7 16 1
7 43 1
7 44 1
7 75 1
7 101 1
7 102 1
7 105 1
7 133 1
7 134 1
7 136 1
7 160 1
7 163 1
7 165 1
7 191 1
7 192 1
7 193 1
7 194 1
7 220 1
7 221 1
7 222 1
8 14 1
8 18 1
8 45 1
8 46 1
8 77 1
8 103 1
8 104 1
8 107 1
8 135 1
8 136 1
8 138 1
8 162 1
8 165 1
8 167 1
8 193 1
8 194 1
8 195 1
8 196 1
8 222 1
8 223 1
8 224 1
9 16 1
9 20 1
9 47 1
9 48 1
9 79 1
9 105 1
9 106 1
9 109 1
9 137 1
9 138 1
9 140 1
9 164 1
9 167 1
9 169 1
9 195 1
9 196 1
9 197 1
9 198 1
9 224 1
9 225 1
9 226 1
10 18 1
10 22 1
10 49 1
10 50 1
10 81 1
10 107 1
10 108 1
10 111 1
10 139 1
10 140 1
10 142 1
10 166 1
10 169 1
10 171 1
10 197 1
10 198 1
10 199 1
10 200 1
10 226 1
10 227 1
10 228 1
11 20 1
11 24 1
11 51 1
11 52 1
11 83 1
11 109 1
11 110 1
11 113 1
11 141 1
11 142 1
11 144 1
11 168 1
11 171 1
11 173 1
11 199 1
11 200 1
11 201 1
11 202 1
11 228 1
11 229 1
11 230 1
12 22 1
12 26 1
12 53 1
12 54 1
12 85 1
12 111 1
12 112 1
12 115 1
12 143 1
12 144 1
12 146 1
12 170 1
12 173 1
12 175 1
12 201 1
12 202 1
12 203 1
12 204 1
12 230 1
12 231 1
12 232 1
13 24 1
13 28 1
13 55 1
13 56 1
13 87 1
13 113 1
13 114 1
13 117 1
13 145 1
13 146 1
13 148 1
13 172 1
13 175 1
13 177 1
13 203 1
13 204 1
13 205 1
13 206 1
13 232 1
13 233 1
13 234 1
14 26 1
14 30 1
14 57 1
14 58 1
14 89 1
14 115 1
14 116 1
14 119 1
14 147 1
14 148 1
14 150 1
14 174 1
14 177 1
14 179 1
14 205 1
14 206 1
14 207 1
14 208 1
14 234 1
14 235 1
14 236 1
15 28 1
15 32 1
15 59 1
15 60 1
15 61 1
15 91 1
15 117 1
15 118 1
15 121 1
15 149 1
15 150 1
15 152 1
15 176 1
15 179 1
15 207 1
15 208 1
15 209 1
15 210 1
15 236 1
15 237 1
15 238 1
16 1 1
16 2 1
16 30 1
16 34 1
16 63 1
16 93 1
16 119 1
16 120 1
16 121 1
16 123 1
16 151 1
16 152 1
16 154 1
16 178 1
16 209 1
16 210 1
16 211 1
16 212 1
16 238 1
16 239 1
16 240 1
17 3 1
17 4 1
17 32 1
17 36 1
17 61 1
17 62 1
17 65 1
17 95 1
17 123 1
17 125 1
17 153 1
17 154 1
17 156 1
17 180 1
17 181 1
17 182 1
17 211 1
17 212 1
17 213 1
17 214 1
17 240 1
18 5 1
18 6 1
18 34 1
18 38 1
18 63 1
18 64 1
18 67 1
18 97 1
18 122 1
18 125 1
18 127 1
18 155 1
18 156 1
18 158 1
18 182 1
18 183 1
18 184 1
18 213 1
18 214 1
18 215 1
18 216 1
19 7 1
19 8 1
19 36 1
19 40 1
19 65 1
19 66 1
19 69 1
19 99 1
19 124 1
19 127 1
19 129 1
19 157 1
19 158 1
19 160 1
19 184 1
19 185 1
19 186 1
19 215 1
19 216 1
19 217 1
19 218 1
20 9 1
20 10 1
20 38 1
20 42 1
20 67 1
20 68 1
20 71 1
20 101 1
20 126 1
20 129 1
20 131 1
20 159 1
20 160 1
20 162 1
20 186 1
20 187 1
20 188 1
20 217 1
20 218 1
20 219 1
20 220 1
21 11 1
21 12 1
21 40 1
21 44 1
21 69 1
21 70 1
21 73 1
21 103 1
21 128 1
21 131 1
21 133 1
21 161 1
21 162 1
21 164 1
21 188 1
21 189 1
21 190 1
21 219 1
21 220 1
21 221 1
21 222 1
22 13 1
22 14 1
22 42 1
22 46 1
22 71 1
22 72 1
22 75 1
22 105 1
22 130 1
22 133 1
22 135 1
22 163 1
22 164 1
22 166 1
22 190 1
22 191 1
22 192 1
22 221 1
22 222 1
22 223 1
22 224 1
23 15 1
23 16 1
23 44 1
23 48 1
23 73 1
23 74 1
23 77 1
23 107 1
23 132 1
23 135 1
23 137 1
23 165 1
23 166 1
23 168 1
23 192 1
23 193 1
23 194 1
23 223 1
23 224 1
23 225 1
23 226 1
24 17 1
24 18 1
24 46 1
24 50 1
24 75 1
24 76 1
24 79 1
24 109 1
24 134 1
24 137 1
24 139 1
24 167 1
24 168 1
24 170 1
24 194 1
24 195 1
24 196 1
24 225 1
24 226 1
24 227 1
24 228 1
25 19 1
25 20 1
25 48 1
25 52 1
25 77 1
25 78 1
25 81 1
25 111 1
25 136 1
25 139 1
25 141 1
25 169 1
25 170 1
25 172 1
25 196 1
25 197 1
25 198 1
25 227 1
25 228 1
25 229 1
25 230 1
26 21 1
26 22 1
26 50 1
26 54 1
26 79 1
26 80 1
26 83 1
26 113 1
26 138 1
26 141 1
26 143 1
26 171 1
26 172 1
26 174 1
26 198 1
26 199 1
26 200 1
26 229 1
26 230 1
26 231 1
26 232 1
27 23 1
27 24 1
27 52 1
27 56 1
27 81 1
27 82 1
27 85 1
27 115 1
27 140 1
27 143 1
27 145 1
27 173 1
27 174 1
27 176 1
27 200 1
27 201 1
27 202 1
27 231 1
27 232 1
27 233 1
27 234 1
28 25 1
28 26 1
28 54 1
28 58 1
28 83 1
28 84 1
28 87 1
28 117 1
28 142 1
28 145 1
28 147 1
28 175 1
28 176 1
28 178 1
28 202 1
28 203 1
28 204 1
28 233 1
28 234 1
28 235 1
28 236 1
29 27 1
29 28 1
29 56 1
29 60 1
29 85 1
29 86 1
29 89 1
29 119 1
29 144 1
29 147 1
29 149 1
29 177 1
29 178 1
29 180 1
29 204 1
29 205 1
29 206 1
29 235 1
29 236 1
29 237 1
29 238 1
30 2 1
30 29 1
30 30 1
30 58 1
30 61 1
30 87 1
30 88 1
30 91 1
30 122 1
30 146 1
30 149 1
30 151 1
30 179 1
30 180 1
30 206 1
30 207 1
30 208 1
30 237 1
30 238 1
30 239 1
30 240 1
31 3 1
31 4 1
31 31 1
31 59 1
31 60 1
31 64 1
31 89 1
31 94 1
31 121 1
31 123 1
31 124 1
31 147 1
31 148 1
31 152 1
31 154 1
31 181 1
31 207 1
31 208 1
31 209 1
31 239 1
32 1 1
32 2 1
32 5 1
32 6 1
32 33 1
32 66 1
32 91 1
32 96 1
32 123 1
32 125 1
32 126 1
32 149 1
32 150 1
32 154 1
32 156 1
32 181 1
32 183 1
32 209 1
32 210 1
32 211 1
33 3 1
33 4 1
33 7 1
33 8 1
33 35 1
33 68 1
33 93 1
33 98 1
33 125 1
33 127 1
33 128 1
33 151 1
33 152 1
33 156 1
33 158 1
33 183 1
33 185 1
33 211 1
33 212 1
33 213 1
34 5 1
34 6 1
34 9 1
34 10 1
34 37 1
34 70 1
34 95 1
34 100 1
34 127 1
34 129 1
34 130 1
34 153 1
34 154 1
34 158 1
34 160 1
34 185 1
34 187 1
34 213 1
34 214 1
34 215 1
35 7 1
35 8 1
35 11 1
35 12 1
35 39 1
35 72 1
35 97 1
35 102 1
35 129 1
35 131 1
35 132 1
35 155 1
35 156 1
35 160 1
35 162 1
35 187 1
35 189 1
35 215 1
35 216 1
35 217 1
36 9 1
36 10 1
36 13 1
36 14 1
36 41 1
36 74 1
36 99 1
36 104 1
36 131 1
36 133 1
36 134 1
36 157 1
36 158 1
36 162 1
36 164 1
36 189 1
36 191 1
36 217 1
36 218 1
36 219 1
37 11 1
37 12 1
37 15 1
37 16 1
37 43 1
37 76 1
37 101 1
37 106 1
37 133 1
37 135 1
37 136 1
37 159 1
37 160 1
37 164 1
37 166 1
37 191 1
37 193 1
37 219 1
37 220 1
37 221 1
38 13 1
38 14 1
38 17 1
38 18 1
38 45 1
38 78 1
38 103 1
38 108 1
38 135 1
38 137 1
38 138 1
38 161 1
38 162 1
38 166 1
38 168 1
38 193 1
38 195 1
38 221 1
38 222 1
38 223 1
39 15 1
39 16 1
39 19 1
39 20 1
39 47 1
39 80 1
39 105 1
39 110 1
39 137 1
39 139 1
39 140 1
39 163 1
39 164 1
39 168 1
39 170 1
39 195 1
39 197 1
39 223 1
39 224 1
39 225 1
40 17 1
40 18 1
40 21 1
40 22 1
40 49 1
40 82 1
40 107 1
40 112 1
40 139 1
40 141 1
40 142 1
40 165 1
40 166 1
40 170 1
40 172 1
40 197 1
40 199 1
40 225 1
40 226 1
40 227 1
41 19 1
41 20 1
41 23 1
41 24 1
41 51 1
41 84 1
41 109 1
41 114 1
41 141 1
41 143 1
41 144 1
41 167 1
41 168 1
41 172 1
41 174 1
41 199 1
41 201 1
41 227 1
41 228 1
41 229 1
42 21 1
42 22 1
42 25 1
42 26 1
42 53 1
42 86 1
42 111 1
42 116 1
42 143 1
42 145 1
42 146 1
42 169 1
42 170 1
42 174 1
42 176 1
42 201 1
42 203 1
42 229 1
42 230 1
42 231 1
43 23 1
43 24 1
43 27 1
43 28 1
43 55 1
43 88 1
43 113 1
43 118 1
43 145 1
43 147 1
43 148 1
43 171 1
43 172 1
43 176 1
43 178 1
43 203 1
43 205 1
43 231 1
43 232 1
43 233 1
44 25 1
44 26 1
44 29 1
44 30 1
44 57 1
44 90 1
44 115 1
44 120 1
44 147 1
44 149 1
44 150 1
44 173 1
44 174 1
44 178 1
44 180 1
44 205 1
44 207 1
44 233 1
44 234 1
44 235 1
45 27 1
45 28 1
45 31 1
45 32 1
45 59 1
45 62 1
45 92 1
45 117 1
45 122 1
45 149 1
45 151 1
45 152 1
45 175 1
45 176 1
45 180 1
45 207 1
45 209 1
45 235 1
45 236 1
45 237 1
46 1 1
46 29 1
46 30 1
46 33 1
46 34 1
46 64 1
46 94 1
46 119 1
46 122 1
46 124 1
46 151 1
46 153 1
46 154 1
46 177 1
46 178 1
46 209 1
46 211 1
46 237 1
46 238 1
46 239 1
47 3 1
47 31 1
47 32 1
47 35 1
47 36 1
47 61 1
47 66 1
47 96 1
47 124 1
47 126 1
47 153 1
47 155 1
47 156 1
47 179 1
47 180 1
47 181 1
47 211 1
47 213 1
47 239 1
47 240 1
48 5 1
48 33 1
48 34 1
48 37 1
48 38 1
48 63 1
48 68 1
48 98 1
48 121 1
48 122 1
48 126 1
48 128 1
48 155 1
48 157 1
48 158 1
48 181 1
48 182 1
48 183 1
48 213 1
48 215 1
49 7 1
49 35 1
49 36 1
49 39 1
49 40 1
49 65 1
49 70 1
49 100 1
49 123 1
49 124 1
49 128 1
49 130 1
49 157 1
49 159 1
49 160 1
49 183 1
49 184 1
49 185 1
49 215 1
49 217 1
50 9 1
50 37 1
50 38 1
50 41 1
50 42 1
50 67 1
50 72 1
50 102 1
50 125 1
50 126 1
50 130 1
50 132 1
50 159 1
50 161 1
50 162 1
50 185 1
50 186 1
50 187 1
50 217 1
50 219 1
51 11 1
51 39 1
51 40 1
51 43 1
51 44 1
51 69 1
51 74 1
51 104 1
51 127 1
51 128 1
51 132 1
51 134 1
51 161 1
51 163 1
51 164 1
51 187 1
51 188 1
51 189 1
51 219 1
51 221 1
52 13 1
52 41 1
52 42 1
52 45 1
52 46 1
52 71 1
52 76 1
52 106 1
52 129 1
52 130 1
52 134 1
52 136 1
52 163 1
52 165 1
52 166 1
52 189 1
52 190 1
52 191 1
52 221 1
52 223 1
53 15 1
53 43 1
53 44 1
53 47 1
53 48 1
53 73 1
53 78 1
53 108 1
53 131 1
53 132 1
53 136 1
53 138 1
53 165 1
53 167 1
53 168 1
53 191 1
53 192 1
53 193 1
53 223 1
53 225 1
54 17 1
54 45 1
54 46 1
54 49 1
54 50 1
54 75 1
54 80 1
54 110 1
54 133 1
54 134 1
54 138 1
54 140 1
54 167 1
54 169 1
54 170 1
54 193 1
54 194 1
54 195 1
54 225 1
54 227 1
55 19 1
55 47 1
55 48 1
55 51 1
55 52 1
55 77 1
55 82 1
55 112 1
55 135 1
55 136 1
55 140 1
55 142 1
55 169 1
55 171 1
55 172 1
55 195 1
55 196 1
55 197 1
55 227 1
55 229 1
56 21 1
56 49 1
56 50 1
56 53 1
56 54 1
56 79 1
56 84 1
56 114 1
56 137 1
56 138 1
56 142 1
56 144 1
56 171 1
56 173 1
56 174 1
56 197 1
56 198 1
56 199 1
56 229 1
56 231 1
57 23 1
57 51 1
57 52 1
57 55 1
57 56 1
57 81 1
57 86 1
57 116 1
57 139 1
57 140 1
57 144 1
57 146 1
57 173 1
57 175 1
57 176 1
57 199 1
57 200 1
57 201 1
57 231 1
57 233 1
58 25 1
58 53 1
58 54 1
58 57 1
58 58 1
58 83 1
58 88 1
58 118 1
58 141 1
58 142 1
58 146 1
58 148 1
58 175 1
58 177 1
58 178 1
58 201 1
58 202 1
58 203 1
58 233 1
58 235 1
59 27 1
59 55 1
59 56 1
59 59 1
59 60 1
59 85 1
59 90 1
59 120 1
59 143 1
59 144 1
59 148 1
59 150 1
59 177 1
59 179 1
59 180 1
59 203 1
59 204 1
59 205 1
59 235 1
59 237 1
60 1 1
60 2 1
60 29 1
60 57 1
60 58 1
60 62 1
60 87 1
60 92 1
60 121 1
60 122 1
60 145 1
60 146 1
60 150 1
60 152 1
60 179 1
60 205 1
60 206 1
60 207 1
60 237 1
60 239 1
61 3 1
61 4 1
61 5 1
61 9 1
61 34 1
61 37 1
61 123 1
61 125 1
61 126 1
61 130 1
61 151 1
61 153 1
61 183 1
61 184 1
61 185 1
61 210 1
61 211 1
61 213 1
61 218 1
61 303 1
61 304 1
61 330 1
61 333 1
61 334 1
62 5 1
62 6 1
62 7 1
62 11 1
62 36 1
62 39 1
62 125 1
62 127 1
62 128 1
62 132 1
62 153 1
62 155 1
62 185 1
62 186 1
62 187 1
62 212 1
62 213 1
62 215 1
62 220 1
62 305 1
62 306 1
62 332 1
62 335 1
62 336 1
63 7 1
63 8 1
63 9 1
63 13 1
63 38 1
63 41 1
63 127 1
63 129 1
63 130 1
63 134 1
63 155 1
63 157 1
63 187 1
63 188 1
63 189 1
63 214 1
63 215 1
63 217 1
63 222 1
63 307 1
63 308 1
63 334 1
63 337 1
63 338 1
64 9 1
64 10 1
64 11 1
64 15 1
64 40 1
64 43 1
64 129 1
64 131 1
64 132 1
64 136 1
64 157 1
64 159 1
64 189 1
64 190 1
64 191 1
64 216 1
64 217 1
64 219 1
64 224 1
64 309 1
64 310 1
64 336 1
64 339 1
64 340 1
65 11 1
65 12 1
65 13 1
65 17 1
65 42 1
65 45 1
65 131 1
65 133 1
65 134 1
65 138 1
65 159 1
65 161 1
65 191 1
65 192 1
65 193 1
65 218 1
65 219 1
65 221 1
65 226 1
65 311 1
65 312 1
65 338 1
65 341 1
65 342 1
66 13 1
66 14 1
66 15 1
66 19 1
66 44 1
66 47 1
66 133 1
66 135 1
66 136 1
66 140 1
66 161 1
66 163 1
66 193 1
66 194 1
66 195 1
66 220 1
66 221 1
66 223 1
66 228 1
66 313 1
66 314 1
66 340 1
66 343 1
66 344 1
67 15 1
67 16 1
67 17 1
67 21 1
67 46 1
67 49 1
67 135 1
67 137 1
67 138 1
67 142 1
67 163 1
67 165 1
67 195 1
67 196 1
67 197 1
67 222 1
67 223 1
67 225 1
67 230 1
67 315 1
67 316 1
67 342 1
67 345 1
67 346 1
68 17 1
68 18 1
68 19 1
68 23 1
68 48 1
68 51 1
68 137 1
68 139 1
68 140 1
68 144 1
68 165 1
68 167 1
68 197 1
68 198 1
68 199 1
68 224 1
68 225 1
68 227 1
68 232 1
68 317 1
68 318 1
68 344 1
68 347 1
68 348 1
69 19 1
69 20 1
69 21 1
69 25 1
69 50 1
69 53 1
69 139 1
69 141 1
69 142 1
69 146 1
69 167 1
69 169 1
69 199 1
69 200 1
69 201 1
69 226 1
69 227 1
69 229 1
69 234 1
69 319 1
69 320 1
69 346 1
69 349 1
69 350 1
70 21 1
70 22 1
70 23 1
70 27 1
70 52 1
70 55 1
70 141 1
70 143 1
70 144 1
70 148 1
70 169 1
70 171 1
70 201 1
70 202 1
70 203 1
70 228 1
70 229 1
70 231 1
70 236 1
70 321 1
70 322 1
70 348 1
70 351 1
70 352 1
71 23 1
71 24 1
71 25 1
71 29 1
71 54 1
71 57 1
71 143 1
71 145 1
71 146 1
71 150 1
71 171 1
71 173 1
71 203 1
71 204 1
71 205 1
71 230 1
71 231 1
71 233 1
71 238 1
71 323 1
71 324 1
71 350 1
71 353 1
71 354 1
72 25 1
72 26 1
72 27 1
72 31 1
72 56 1
72 59 1
72 145 1
72 147 1
72 148 1
72 152 1
72 173 1
72 175 1
72 205 1
72 206 1
72 207 1
72 232 1
72 233 1
72 235 1
72 240 1
72 325 1
72 326 1
72 352 1
72 355 1
72 356 1
73 1 1
73 27 1
73 28 1
73 29 1
73 33 1
73 58 1
73 147 1
73 149 1
73 150 1
73 154 1
73 175 1
73 177 1
73 182 1
73 207 1
73 208 1
73 209 1
73 234 1
73 235 1
73 237 1
73 327 1
73 328 1
73 354 1
73 357 1
73 358 1
74 3 1
74 29 1
74 30 1
74 31 1
74 35 1
74 60 1
74 149 1
74 151 1
74 152 1
74 156 1
74 177 1
74 179 1
74 184 1
74 209 1
74 210 1
74 211 1
74 236 1
74 237 1
74 239 1
74 329 1
74 330 1
74 356 1
74 359 1
74 360 1
75 2 1
75 5 1
75 31 1
75 32 1
75 33 1
75 37 1
75 121 1
75 151 1
75 153 1
75 154 1
75 158 1
75 179 1
75 181 1
75 186 1
75 211 1
75 212 1
75 213 1
75 238 1
75 239 1
75 301 1
75 302 1
75 331 1
75 332 1
75 358 1
76 4 1
76 7 1
76 33 1
76 34 1
76 35 1
76 39 1
76 121 1
76 123 1
76 153 1
76 155 1
76 156 1
76 160 1
76 181 1
76 183 1
76 188 1
76 213 1
76 214 1
76 215 1
76 240 1
76 303 1
76 304 1
76 333 1
76 334 1
76 360 1
77 6 1
77 9 1
77 35 1
77 36 1
77 37 1
77 41 1
77 123 1
77 125 1
77 155 1
77 157 1
77 158 1
77 162 1
77 182 1
77 183 1
77 185 1
77 190 1
77 215 1
77 216 1
77 217 1
77 302 1
77 305 1
77 306 1
77 335 1
77 336 1
78 8 1
78 11 1
78 37 1
78 38 1
78 39 1
78 43 1
78 125 1
78 127 1
78 157 1
78 159 1
78 160 1
78 164 1
78 184 1
78 185 1
78 187 1
78 192 1
78 217 1
78 218 1
78 219 1
78 304 1
78 307 1
78 308 1
78 337 1
78 338 1
79 10 1
79 13 1
79 39 1
79 40 1
79 41 1
79 45 1
79 127 1
79 129 1
79 159 1
79 161 1
79 162 1
79 166 1
79 186 1
79 187 1
79 189 1
79 194 1
79 219 1
79 220 1
79 221 1
79 306 1
79 309 1
79 310 1
79 339 1
79 340 1
80 12 1
80 15 1
80 41 1
80 42 1
80 43 1
80 47 1
80 129 1
80 131 1
80 161 1
80 163 1
80 164 1
80 168 1
80 188 1
80 189 1
80 191 1
80 196 1
80 221 1
80 222 1
80 223 1
80 308 1
80 311 1
80 312 1
80 341 1
80 342 1
81 14 1
81 17 1
81 43 1
81 44 1
81 45 1
81 49 1
81 131 1
81 133 1
81 163 1
81 165 1
81 166 1
81 170 1
81 190 1
81 191 1
81 193 1
81 198 1
81 223 1
81 224 1
81 225 1
81 310 1
81 313 1
81 314 1
81 343 1
81 344 1
82 16 1
82 19 1
82 45 1
82 46 1
82 47 1
82 51 1
82 133 1
82 135 1
82 165 1
82 167 1
82 168 1
82 172 1
82 192 1
82 193 1
82 195 1
82 200 1
82 225 1
82 226 1
82 227 1
82 312 1
82 315 1
82 316 1
82 345 1
82 346 1
83 18 1
83 21 1
83 47 1
83 48 1
83 49 1
83 53 1
83 135 1
83 137 1
83 167 1
83 169 1
83 170 1
83 174 1
83 194 1
83 195 1
83 197 1
83 202 1
83 227 1
83 228 1
83 229 1
83 314 1
83 317 1
83 318 1
83 347 1
83 348 1
84 20 1
84 23 1
84 49 1
84 50 1
84 51 1
84 55 1
84 137 1
84 139 1
84 169 1
84 171 1
84 172 1
84 176 1
84 196 1
84 197 1
84 199 1
84 204 1
84 229 1
84 230 1
84 231 1
84 316 1
84 319 1
84 320 1
84 349 1
84 350 1
85 22 1
85 25 1
85 51 1
85 52 1
85 53 1
85 57 1
85 139 1
85 141 1
85 171 1
85 173 1
85 174 1
85 178 1
85 198 1
85 199 1
85 201 1
85 206 1
85 231 1
85 232 1
85 233 1
85 318 1
85 321 1
85 322 1
85 351 1
85 352 1
86 24 1
86 27 1
86 53 1
86 54 1
86 55 1
86 59 1
86 141 1
86 143 1
86 173 1
86 175 1
86 176 1
86 180 1
86 200 1
86 201 1
86 203 1
86 208 1
86 233 1
86 234 1
86 235 1
86 320 1
86 323 1
86 324 1
86 353 1
86 354 1
87 1 1
87 26 1
87 29 1
87 55 1
87 56 1
87 57 1
87 122 1
87 143 1
87 145 1
87 175 1
87 177 1
87 178 1
87 202 1
87 203 1
87 205 1
87 210 1
87 235 1
87 236 1
87 237 1
87 322 1
87 325 1
87 326 1
87 355 1
87 356 1
88 3 1
88 28 1
88 31 1
88 57 1
88 58 1
88 59 1
88 124 1
88 145 1
88 147 1
88 177 1
88 179 1
88 180 1
88 204 1
88 205 1
88 207 1
88 212 1
88 237 1
88 238 1
88 239 1
88 324 1
88 327 1
88 328 1
88 357 1
88 358 1
89 1 1
89 5 1
89 30 1
89 33 1
89 59 1
89 60 1
89 121 1
89 122 1
89 126 1
89 147 1
89 149 1
89 179 1
89 181 1
89 206 1
89 207 1
89 209 1
89 214 1
89 239 1
89 240 1
89 326 1
89 329 1
89 330 1
89 359 1
89 360 1
90 1 1
90 2 1
90 3 1
90 7 1
90 32 1
90 35 1
90 121 1
90 123 1
90 124 1
90 128 1
90 149 1
90 151 1
90 181 1
90 182 1
90 183 1
90 208 1
90 209 1
90 211 1
90 216 1
90 301 1
90 302 1
90 328 1
90 331 1
90 332 1
91 3 1
91 6 1
91 10 1
91 33 1
91 34 1
91 38 1
91 124 1
91 125 1
91 129 1
91 130 1
91 152 1
91 154 1
91 183 1
91 186 1
91 209 1
91 210 1
91 212 1
91 214 1
91 217 1
91 218 1
91 303 1
91 329 1
91 330 1
91 333 1
92 5 1
92 8 1
92 12 1
92 35 1
92 36 1
92 40 1
92 126 1
92 127 1
92 131 1
92 132 1
92 154 1
92 156 1
92 185 1
92 188 1
92 211 1
92 212 1
92 214 1
92 216 1
92 219 1
92 220 1
92 305 1
92 331 1
92 332 1
92 335 1
93 7 1
93 10 1
93 14 1
93 37 1
93 38 1
93 42 1
93 128 1
93 129 1
93 133 1
93 134 1
93 156 1
93 158 1
93 187 1
93 190 1
93 213 1
93 214 1
93 216 1
93 218 1
93 221 1
93 222 1
93 307 1
93 333 1
93 334 1
93 337 1
94 9 1
94 12 1
94 16 1
94 39 1
94 40 1
94 44 1
94 130 1
94 131 1
94 135 1
94 136 1
94 158 1
94 160 1
94 189 1
94 192 1
94 215 1
94 216 1
94 218 1
94 220 1
94 223 1
94 224 1
94 309 1
94 335 1
94 336 1
94 339 1
95 11 1
95 14 1
95 18 1
95 41 1
95 42 1
95 46 1
95 132 1
95 133 1
95 137 1
95 138 1
95 160 1
95 162 1
95 191 1
95 194 1
95 217 1
95 218 1
95 220 1
95 222 1
95 225 1
95 226 1
95 311 1
95 337 1
95 338 1
95 341 1
96 13 1
96 16 1
96 20 1
96 43 1
96 44 1
96 48 1
96 134 1
96 135 1
96 139 1
96 140 1
96 162 1
96 164 1
96 193 1
96 196 1
96 219 1
96 220 1
96 222 1
96 224 1
96 227 1
96 228 1
96 313 1
96 339 1
96 340 1
96 343 1
97 15 1
97 18 1
97 22 1
97 45 1
97 46 1
97 50 1
97 136 1
97 137 1
97 141 1
97 142 1
97 164 1
97 166 1
97 195 1
97 198 1
97 221 1
97 222 1
97 224 1
97 226 1
97 229 1
97 230 1
97 315 1
97 341 1
97 342 1
97 345 1
98 17 1
98 20 1
98 24 1
98 47 1
98 48 1
98 52 1
98 138 1
98 139 1
98 143 1
98 144 1
98 166 1
98 168 1
98 197 1
98 200 1
98 223 1
98 224 1
98 226 1
98 228 1
98 231 1
98 232 1
98 317 1
98 343 1
98 344 1
98 347 1
99 19 1
99 22 1
99 26 1
99 49 1
99 50 1
99 54 1
99 140 1
99 141 1
99 145 1
99 146 1
99 168 1
99 170 1
99 199 1
99 202 1
99 225 1
99 226 1
99 228 1
99 230 1
99 233 1
99 234 1
99 319 1
99 345 1
99 346 1
99 349 1
100 21 1
100 24 1
100 28 1
100 51 1
100 52 1
100 56 1
100 142 1
100 143 1
100 147 1
100 148 1
100 170 1
100 172 1
100 201 1
100 204 1
100 227 1
100 228 1
100 230 1
100 232 1
100 235 1
100 236 1
100 321 1
100 347 1
100 348 1
100 351 1
101 23 1
101 26 1
101 30 1
101 53 1
101 54 1
101 58 1
101 144 1
101 145 1
101 149 1
101 150 1
101 172 1
101 174 1
101 203 1
101 206 1
101 229 1
101 230 1
101 232 1
101 234 1
101 237 1
101 238 1
101 323 1
101 349 1
101 350 1
101 353 1
102 25 1
102 28 1
102 32 1
102 55 1
102 56 1
102 60 1
102 146 1
102 147 1
102 151 1
102 152 1
102 174 1
102 176 1
102 205 1
102 208 1
102 231 1
102 232 1
102 234 1
102 236 1
102 239 1
102 240 1
102 325 1
102 351 1
102 352 1
102 355 1
103 2 1
103 27 1
103 30 1
103 34 1
103 57 1
103 58 1
103 148 1
103 149 1
103 153 1
103 154 1
103 176 1
103 178 1
103 181 1
103 182 1
103 207 1
103 210 1
103 233 1
103 234 1
103 236 1
103 238 1
103 327 1
103 353 1
103 354 1
103 357 1
104 4 1
104 29 1
104 32 1
104 36 1
104 59 1
104 60 1
104 150 1
104 151 1
104 155 1
104 156 1
104 178 1
104 180 1
104 183 1
104 184 1
104 209 1
104 212 1
104 235 1
104 236 1
104 238 1
104 240 1
104 329 1
104 355 1
104 356 1
104 359 1
105 1 1
105 2 1
105 6 1
105 31 1
105 34 1
105 38 1
105 122 1
105 152 1
105 153 1
105 157 1
105 158 1
105 180 1
105 182 1
105 185 1
105 186 1
105 211 1
105 214 1
105 237 1
105 238 1
105 240 1
105 301 1
105 331 1
105 357 1
105 358 1
106 3 1
106 4 1
106 8 1
106 33 1
106 36 1
106 40 1
106 122 1
106 124 1
106 154 1
106 155 1
106 159 1
106 160 1
106 182 1
106 184 1
106 187 1
106 188 1
106 213 1
106 216 1
106 239 1
106 240 1
106 303 1
106 333 1
106 359 1
106 360 1
107 5 1
107 6 1
107 10 1
107 35 1
107 38 1
107 42 1
107 124 1
107 126 1
107 156 1
107 157 1
107 161 1
107 162 1
107 181 1
107 182 1
107 184 1
107 186 1
107 189 1
107 190 1
107 215 1
107 218 1
107 301 1
107 302 1
107 305 1
107 335 1
108 7 1
108 8 1
108 12 1
108 37 1
108 40 1
108 44 1
108 126 1
108 128 1
108 158 1
108 159 1
108 163 1
108 164 1
108 183 1
108 184 1
108 186 1
108 188 1
108 191 1
108 192 1
108 217 1
108 220 1
108 303 1
108 304 1
108 307 1
108 337 1
109 9 1
109 10 1
109 14 1
109 39 1
109 42 1
109 46 1
109 128 1
109 130 1
109 160 1
109 161 1
109 165 1
109 166 1
109 185 1
109 186 1
109 188 1
109 190 1
109 193 1
109 194 1
109 219 1
109 222 1
109 305 1
109 306 1
109 309 1
109 339 1
110 11 1
110 12 1
110 16 1
110 41 1
110 44 1
110 48 1
110 130 1
110 132 1
110 162 1
110 163 1
110 167 1
110 168 1
110 187 1
110 188 1
110 190 1
110 192 1
110 195 1
110 196 1
110 221 1
110 224 1
110 307 1
110 308 1
110 311 1
110 341 1
111 13 1
111 14 1
111 18 1
111 43 1
111 46 1
111 50 1
111 132 1
111 134 1
111 164 1
111 165 1
111 169 1
111 170 1
111 189 1
111 190 1
111 192 1
111 194 1
111 197 1
111 198 1
111 223 1
111 226 1
111 309 1
111 310 1
111 313 1
111 343 1
112 15 1
112 16 1
112 20 1
112 45 1
112 48 1
112 52 1
112 134 1
112 136 1
112 166 1
112 167 1
112 171 1
112 172 1
112 191 1
112 192 1
112 194 1
112 196 1
112 199 1
112 200 1
112 225 1
112 228 1
112 311 1
112 312 1
112 315 1
112 345 1
113 17 1
113 18 1
113 22 1
113 47 1
113 50 1
113 54 1
113 136 1
113 138 1
113 168 1
113 169 1
113 173 1
113 174 1
113 193 1
113 194 1
113 196 1
113 198 1
113 201 1
113 202 1
113 227 1
113 230 1
113 313 1
113 314 1
113 317 1
113 347 1
114 19 1
114 20 1
114 24 1
114 49 1
114 52 1
114 56 1
114 138 1
114 140 1
114 170 1
114 171 1
114 175 1
114 176 1
114 195 1
114 196 1
114 198 1
114 200 1
114 203 1
114 204 1
114 229 1
114 232 1
114 315 1
114 316 1
114 319 1
114 349 1
115 21 1
115 22 1
115 26 1
115 51 1
115 54 1
115 58 1
115 140 1
115 142 1
115 172 1
115 173 1
115 177 1
115 178 1
115 197 1
115 198 1
115 200 1
115 202 1
115 205 1
115 206 1
115 231 1
115 234 1
115 317 1
115 318 1
115 321 1
115 351 1
116 23 1
116 24 1
116 28 1
116 53 1
116 56 1
116 60 1
116 142 1
116 144 1
116 174 1
116 175 1
116 179 1
116 180 1
116 199 1
116 200 1
116 202 1
116 204 1
116 207 1
116 208 1
116 233 1
116 236 1
116 319 1
116 320 1
116 323 1
116 353 1
117 2 1
117 25 1
117 26 1
117 30 1
117 55 1
117 58 1
117 121 1
117 122 1
117 144 1
117 146 1
117 176 1
117 177 1
117 201 1
117 202 1
117 204 1
117 206 1
117 209 1
117 210 1
117 235 1
117 238 1
117 321 1
117 322 1
117 325 1
117 355 1
118 4 1
118 27 1
118 28 1
118 32 1
118 57 1
118 60 1
118 123 1
118 124 1
118 146 1
118 148 1
118 178 1
118 179 1
118 203 1
118 204 1
118 206 1
118 208 1
118 211 1
118 212 1
118 237 1
118 240 1
118 323 1
118 324 1
118 327 1
118 357 1
119 2 1
119 6 1
119 29 1
119 30 1
119 34 1
119 59 1
119 121 1
119 125 1
119 126 1
119 148 1
119 150 1
119 180 1
119 182 1
119 205 1
119 206 1
119 208 1
119 210 1
119 213 1
119 214 1
119 239 1
119 325 1
119 326 1
119 329 1
119 359 1
120 1 1
120 4 1
120 8 1
120 31 1
120 32 1
120 36 1
120 122 1
120 123 1
120 127 1
120 128 1
120 150 1
120 152 1
120 181 1
120 184 1
120 207 1
120 208 1
120 210 1
120 212 1
120 215 1
120 216 1
120 301 1
120 327 1
120 328 1
120 331 1
