%%MatrixMarket matrix coordinate integer general
% GF(4) labels 0,1,2=omega,3=omega+1; arithmetic is NOT integer arithmetic.
% Coordinate indices are 1-based; omitted entries are zero.
60 240 1020
1 2 2
1 16 3
1 30 2
1 32 1
1 45 3
1 47 1
1 61 3
1 62 2
1 74 2
1 76 1
1 77 1
1 91 3
1 104 2
1 105 3
1 120 3
2 1 2
2 3 2
2 17 3
2 33 1
2 46 3
2 48 1
2 62 3
2 63 2
2 75 2
2 77 1
2 78 1
2 91 3
2 92 3
2 105 2
2 106 3
3 2 2
3 4 2
3 18 3
3 34 1
3 47 3
3 49 1
3 63 3
3 64 2
3 76 2
3 78 1
3 79 1
3 92 3
3 93 3
3 106 2
3 107 3
4 3 2
4 5 2
4 19 3
4 35 1
4 48 3
4 50 1
4 64 3
4 65 2
4 77 2
4 79 1
4 80 1
4 93 3
4 94 3
4 107 2
4 108 3
5 4 2
5 6 2
5 20 3
5 36 1
5 49 3
5 51 1
5 65 3
5 66 2
5 78 2
5 80 1
5 81 1
5 94 3
5 95 3
5 108 2
5 109 3
6 5 2
6 7 2
6 21 3
6 37 1
6 50 3
6 52 1
6 66 3
6 67 2
6 79 2
6 81 1
6 82 1
6 95 3
6 96 3
6 109 2
6 110 3
7 6 2
7 8 2
7 22 3
7 38 1
7 51 3
7 53 1
7 67 3
7 68 2
7 80 2
7 82 1
7 83 1
7 96 3
7 97 3
7 110 2
7 111 3
8 7 2
8 9 2
8 23 3
8 39 1
8 52 3
8 54 1
8 68 3
8 69 2
8 81 2
8 83 1
8 84 1
8 97 3
8 98 3
8 111 2
8 112 3
9 8 2
9 10 2
9 24 3
9 40 1
9 53 3
9 55 1
9 69 3
9 70 2
9 82 2
9 84 1
9 85 1
9 98 3
9 99 3
9 112 2
9 113 3
10 9 2
10 11 2
10 25 3
10 41 1
10 54 3
10 56 1
10 70 3
10 71 2
10 83 2
10 85 1
10 86 1
10 99 3
10 100 3
10 113 2
10 114 3
11 10 2
11 12 2
11 26 3
11 42 1
11 55 3
11 57 1
11 71 3
11 72 2
11 84 2
11 86 1
11 87 1
11 100 3
11 101 3
11 114 2
11 115 3
12 11 2
12 13 2
12 27 3
12 43 1
12 56 3
12 58 1
12 72 3
12 73 2
12 85 2
12 87 1
12 88 1
12 101 3
12 102 3
12 115 2
12 116 3
13 12 2
13 14 2
13 28 3
13 44 1
13 57 3
13 59 1
13 73 3
13 74 2
13 86 2
13 88 1
13 89 1
13 102 3
13 103 3
13 116 2
13 117 3
14 13 2
14 15 2
14 29 3
14 45 1
14 58 3
14 60 1
14 74 3
14 75 2
14 87 2
14 89 1
14 90 1
14 103 3
14 104 3
14 117 2
14 118 3
15 14 2
15 16 2
15 30 3
15 31 1
15 46 1
15 59 3
15 61 1
15 75 3
15 76 2
15 88 2
15 90 1
15 104 3
15 105 3
15 118 2
15 119 3
16 1 3
16 15 2
16 17 2
16 32 1
16 47 1
16 60 3
16 61 1
16 62 1
16 76 3
16 77 2
16 89 2
16 105 3
16 106 3
16 119 2
16 120 3
17 2 3
17 16 2
17 18 2
17 31 3
17 33 1
17 48 1
17 62 1
17 63 1
17 77 3
17 78 2
17 90 2
17 91 3
17 106 3
17 107 3
17 120 2
18 3 3
18 17 2
18 19 2
18 32 3
18 34 1
18 49 1
18 61 2
18 63 1
18 64 1
18 78 3
18 79 2
18 91 2
18 92 3
18 107 3
18 108 3
19 4 3
19 18 2
19 20 2
19 33 3
19 35 1
19 50 1
19 62 2
19 64 1
19 65 1
19 79 3
19 80 2
19 92 2
19 93 3
19 108 3
19 109 3
20 5 3
20 19 2
20 21 2
20 34 3
20 36 1
20 51 1
20 63 2
20 65 1
20 66 1
20 80 3
20 81 2
20 93 2
20 94 3
20 109 3
20 110 3
21 6 3
21 20 2
21 22 2
21 35 3
21 37 1
21 52 1
21 64 2
21 66 1
21 67 1
21 81 3
21 82 2
21 94 2
21 95 3
21 110 3
21 111 3
22 7 3
22 21 2
22 23 2
22 36 3
22 38 1
22 53 1
22 65 2
22 67 1
22 68 1
22 82 3
22 83 2
22 95 2
22 96 3
22 111 3
22 112 3
23 8 3
23 22 2
23 24 2
23 37 3
23 39 1
23 54 1
23 66 2
23 68 1
23 69 1
23 83 3
23 84 2
23 96 2
23 97 3
23 112 3
23 113 3
24 9 3
24 23 2
24 25 2
24 38 3
24 40 1
24 55 1
24 67 2
24 69 1
24 70 1
24 84 3
24 85 2
24 97 2
24 98 3
24 113 3
24 114 3
25 10 3
25 24 2
25 26 2
25 39 3
25 41 1
25 56 1
25 68 2
25 70 1
25 71 1
25 85 3
25 86 2
25 98 2
25 99 3
25 114 3
25 115 3
26 11 3
26 25 2
26 27 2
26 40 3
26 42 1
26 57 1
26 69 2
26 71 1
26 72 1
26 86 3
26 87 2
26 99 2
26 100 3
26 115 3
26 116 3
27 12 3
27 26 2
27 28 2
27 41 3
27 43 1
27 58 1
27 70 2
27 72 1
27 73 1
27 87 3
27 88 2
27 100 2
27 101 3
27 116 3
27 117 3
28 13 3
28 27 2
28 29 2
28 42 3
28 44 1
28 59 1
28 71 2
28 73 1
28 74 1
28 88 3
28 89 2
28 101 2
28 102 3
28 117 3
28 118 3
29 14 3
29 28 2
29 30 2
29 43 3
29 45 1
29 60 1
29 72 2
29 74 1
29 75 1
29 89 3
29 90 2
29 102 2
29 103 3
29 118 3
29 119 3
30 1 2
30 15 3
30 29 2
30 31 1
30 44 3
30 46 1
30 61 2
30 73 2
30 75 1
30 76 1
30 90 3
30 103 2
30 104 3
30 119 3
30 120 3
31 2 3
31 3 1
31 5 1
31 17 2
31 19 1
31 62 1
31 63 3
31 65 2
31 76 1
31 77 1
31 92 3
31 93 1
31 105 2
31 106 1
31 107 1
31 109 2
31 152 3
31 165 2
31 167 3
32 3 3
32 4 1
32 6 1
32 18 2
32 20 1
32 63 1
32 64 3
32 66 2
32 77 1
32 78 1
32 93 3
32 94 1
32 106 2
32 107 1
32 108 1
32 110 2
32 153 3
32 166 2
32 168 3
33 4 3
33 5 1
33 7 1
33 19 2
33 21 1
33 64 1
33 65 3
33 67 2
33 78 1
33 79 1
33 94 3
33 95 1
33 107 2
33 108 1
33 109 1
33 111 2
33 154 3
33 167 2
33 169 3
34 5 3
34 6 1
34 8 1
34 20 2
34 22 1
34 65 1
34 66 3
34 68 2
34 79 1
34 80 1
34 95 3
34 96 1
34 108 2
34 109 1
34 110 1
34 112 2
34 155 3
34 168 2
34 170 3
35 6 3
35 7 1
35 9 1
35 21 2
35 23 1
35 66 1
35 67 3
35 69 2
35 80 1
35 81 1
35 96 3
35 97 1
35 109 2
35 110 1
35 111 1
35 113 2
35 156 3
35 169 2
35 171 3
36 7 3
36 8 1
36 10 1
36 22 2
36 24 1
36 67 1
36 68 3
36 70 2
36 81 1
36 82 1
36 97 3
36 98 1
36 110 2
36 111 1
36 112 1
36 114 2
36 157 3
36 170 2
36 172 3
37 8 3
37 9 1
37 11 1
37 23 2
37 25 1
37 68 1
37 69 3
37 71 2
37 82 1
37 83 1
37 98 3
37 99 1
37 111 2
37 112 1
37 113 1
37 115 2
37 158 3
37 171 2
37 173 3
38 9 3
38 10 1
38 12 1
38 24 2
38 26 1
38 69 1
38 70 3
38 72 2
38 83 1
38 84 1
38 99 3
38 100 1
38 112 2
38 113 1
38 114 1
38 116 2
38 159 3
38 172 2
38 174 3
39 10 3
39 11 1
39 13 1
39 25 2
39 27 1
39 70 1
39 71 3
39 73 2
39 84 1
39 85 1
39 100 3
39 101 1
39 113 2
39 114 1
39 115 1
39 117 2
39 160 3
39 173 2
39 175 3
40 11 3
40 12 1
40 14 1
40 26 2
40 28 1
40 71 1
40 72 3
40 74 2
40 85 1
40 86 1
40 101 3
40 102 1
40 114 2
40 115 1
40 116 1
40 118 2
40 161 3
40 174 2
40 176 3
41 12 3
41 13 1
41 15 1
41 27 2
41 29 1
41 72 1
41 73 3
41 75 2
41 86 1
41 87 1
41 102 3
41 103 1
41 115 2
41 116 1
41 117 1
41 119 2
41 162 3
41 175 2
41 177 3
42 13 3
42 14 1
42 16 1
42 28 2
42 30 1
42 73 1
42 74 3
42 76 2
42 87 1
42 88 1
42 103 3
42 104 1
42 116 2
42 117 1
42 118 1
42 120 2
42 163 3
42 176 2
42 178 3
43 1 1
43 14 3
43 15 1
43 17 1
43 29 2
43 74 1
43 75 3
43 77 2
43 88 1
43 89 1
43 91 2
43 104 3
43 105 1
43 117 2
43 118 1
43 119 1
43 164 3
43 177 2
43 179 3
44 2 1
44 15 3
44 16 1
44 18 1
44 30 2
44 75 1
44 76 3
44 78 2
44 89 1
44 90 1
44 92 2
44 105 3
44 106 1
44 118 2
44 119 1
44 120 1
44 165 3
44 178 2
44 180 3
45 1 2
45 3 1
45 16 3
45 17 1
45 19 1
45 61 1
45 76 1
45 77 3
45 79 2
45 90 1
45 91 1
45 93 2
45 106 3
45 107 1
45 119 2
45 120 1
45 151 3
45 166 3
45 179 2
46 2 2
46 4 1
46 17 3
46 18 1
46 20 1
46 61 1
46 62 1
46 77 1
46 78 3
46 80 2
46 91 1
46 92 1
46 94 2
46 107 3
46 108 1
46 120 2
46 152 3
46 167 3
46 180 2
47 3 2
47 5 1
47 18 3
47 19 1
47 21 1
47 62 1
47 63 1
47 78 1
47 79 3
47 81 2
47 91 2
47 92 1
47 93 1
47 95 2
47 108 3
47 109 1
47 151 2
47 153 3
47 168 3
48 4 2
48 6 1
48 19 3
48 20 1
48 22 1
48 63 1
48 64 1
48 79 1
48 80 3
48 82 2
48 92 2
48 93 1
48 94 1
48 96 2
48 109 3
48 110 1
48 152 2
48 154 3
48 169 3
49 5 2
49 7 1
49 20 3
49 21 1
49 23 1
49 64 1
49 65 1
49 80 1
49 81 3
49 83 2
49 93 2
49 94 1
49 95 1
49 97 2
49 110 3
49 111 1
49 153 2
49 155 3
49 170 3
50 6 2
50 8 1
50 21 3
50 22 1
50 24 1
50 65 1
50 66 1
50 81 1
50 82 3
50 84 2
50 94 2
50 95 1
50 96 1
50 98 2
50 111 3
50 112 1
50 154 2
50 156 3
50 171 3
51 7 2
51 9 1
51 22 3
51 23 1
51 25 1
51 66 1
51 67 1
51 82 1
51 83 3
51 85 2
51 95 2
51 96 1
51 97 1
51 99 2
51 112 3
51 113 1
51 155 2
51 157 3
51 172 3
52 8 2
52 10 1
52 23 3
52 24 1
52 26 1
52 67 1
52 68 1
52 83 1
52 84 3
52 86 2
52 96 2
52 97 1
52 98 1
52 100 2
52 113 3
52 114 1
52 156 2
52 158 3
52 173 3
53 9 2
53 11 1
53 24 3
53 25 1
53 27 1
53 68 1
53 69 1
53 84 1
53 85 3
53 87 2
53 97 2
53 98 1
53 99 1
53 101 2
53 114 3
53 115 1
53 157 2
53 159 3
53 174 3
54 10 2
54 12 1
54 25 3
54 26 1
54 28 1
54 69 1
54 70 1
54 85 1
54 86 3
54 88 2
54 98 2
54 99 1
54 100 1
54 102 2
54 115 3
54 116 1
54 158 2
54 160 3
54 175 3
55 11 2
55 13 1
55 26 3
55 27 1
55 29 1
55 70 1
55 71 1
55 86 1
55 87 3
55 89 2
55 99 2
55 100 1
55 101 1
55 103 2
55 116 3
55 117 1
55 159 2
55 161 3
55 176 3
56 12 2
56 14 1
56 27 3
56 28 1
56 30 1
56 71 1
56 72 1
56 87 1
56 88 3
56 90 2
56 100 2
56 101 1
56 102 1
56 104 2
56 117 3
56 118 1
56 160 2
56 162 3
56 177 3
57 1 1
57 13 2
57 15 1
57 28 3
57 29 1
57 61 2
57 72 1
57 73 1
57 88 1
57 89 3
57 101 2
57 102 1
57 103 1
57 105 2
57 118 3
57 119 1
57 161 2
57 163 3
57 178 3
58 2 1
58 14 2
58 16 1
58 29 3
58 30 1
58 62 2
58 73 1
58 74 1
58 89 1
58 90 3
58 102 2
58 103 1
58 104 1
58 106 2
58 119 3
58 120 1
58 162 2
58 164 3
58 179 3
59 1 1
59 3 1
59 15 2
59 17 1
59 30 3
59 61 3
59 63 2
59 74 1
59 75 1
59 90 1
59 91 1
59 103 2
59 104 1
59 105 1
59 107 2
59 120 3
59 163 2
59 165 3
59 180 3
60 1 3
60 2 1
60 4 1
60 16 2
60 18 1
60 61 1
60 62 3
60 64 2
60 75 1
60 76 1
60 91 3
60 92 1
60 104 2
60 105 1
60 106 1
60 108 2
60 151 3
60 164 2
60 166 3
