%%MatrixMarket matrix coordinate integer general
% GF(4) labels 0,1,2=omega,3=omega+1; arithmetic is NOT integer arithmetic.
% Coordinate indices are 1-based; omitted entries are zero.
84 224 672
1 1 2
1 29 1
1 57 1
1 85 1
1 113 1
1 141 1
1 169 1
1 197 1
2 2 2
2 30 1
2 58 1
2 86 1
2 114 1
2 142 1
2 170 1
2 198 1
3 3 2
3 31 1
3 59 1
3 87 1
3 115 1
3 143 1
3 171 1
3 199 1
4 4 2
4 32 1
4 60 1
4 88 1
4 116 1
4 144 1
4 172 1
4 200 1
5 5 2
5 33 1
5 61 1
5 89 1
5 117 1
5 145 1
5 173 1
5 201 1
6 6 2
6 34 1
6 62 1
6 90 1
6 118 1
6 146 1
6 174 1
6 202 1
7 7 2
7 35 1
7 63 1
7 91 1
7 119 1
7 147 1
7 175 1
7 203 1
8 8 2
8 36 1
8 64 1
8 92 1
8 120 1
8 148 1
8 176 1
8 204 1
9 9 2
9 37 1
9 65 1
9 93 1
9 121 1
9 149 1
9 177 1
9 205 1
10 10 2
10 38 1
10 66 1
10 94 1
10 122 1
10 150 1
10 178 1
10 206 1
11 11 2
11 39 1
11 67 1
11 95 1
11 123 1
11 151 1
11 179 1
11 207 1
12 12 2
12 40 1
12 68 1
12 96 1
12 124 1
12 152 1
12 180 1
12 208 1
13 13 2
13 41 1
13 69 1
13 97 1
13 125 1
13 153 1
13 181 1
13 209 1
14 14 2
14 42 1
14 70 1
14 98 1
14 126 1
14 154 1
14 182 1
14 210 1
15 15 2
15 43 1
15 71 1
15 99 1
15 127 1
15 155 1
15 183 1
15 211 1
16 16 2
16 44 1
16 72 1
16 100 1
16 128 1
16 156 1
16 184 1
16 212 1
17 17 2
17 45 1
17 73 1
17 101 1
17 129 1
17 157 1
17 185 1
17 213 1
18 18 2
18 46 1
18 74 1
18 102 1
18 130 1
18 158 1
18 186 1
18 214 1
19 19 2
19 47 1
19 75 1
19 103 1
19 131 1
19 159 1
19 187 1
19 215 1
20 20 2
20 48 1
20 76 1
20 104 1
20 132 1
20 160 1
20 188 1
20 216 1
21 21 2
21 49 1
21 77 1
21 105 1
21 133 1
21 161 1
21 189 1
21 217 1
22 22 2
22 50 1
22 78 1
22 106 1
22 134 1
22 162 1
22 190 1
22 218 1
23 23 2
23 51 1
23 79 1
23 107 1
23 135 1
23 163 1
23 191 1
23 219 1
24 24 2
24 52 1
24 80 1
24 108 1
24 136 1
24 164 1
24 192 1
24 220 1
25 25 2
25 53 1
25 81 1
25 109 1
25 137 1
25 165 1
25 193 1
25 221 1
26 26 2
26 54 1
26 82 1
26 110 1
26 138 1
26 166 1
26 194 1
26 222 1
27 27 2
27 55 1
27 83 1
27 111 1
27 139 1
27 167 1
27 195 1
27 223 1
28 28 2
28 56 1
28 84 1
28 112 1
28 140 1
28 168 1
28 196 1
28 224 1
29 1 1
29 36 2
29 84 1
29 99 1
29 139 1
29 161 1
29 186 1
29 210 1
30 2 1
30 37 2
30 57 1
30 100 1
30 140 1
30 162 1
30 187 1
30 211 1
31 3 1
31 38 2
31 58 1
31 101 1
31 113 1
31 163 1
31 188 1
31 212 1
32 4 1
32 39 2
32 59 1
32 102 1
32 114 1
32 164 1
32 189 1
32 213 1
33 5 1
33 40 2
33 60 1
33 103 1
33 115 1
33 165 1
33 190 1
33 214 1
34 6 1
34 41 2
34 61 1
34 104 1
34 116 1
34 166 1
34 191 1
34 215 1
35 7 1
35 42 2
35 62 1
35 105 1
35 117 1
35 167 1
35 192 1
35 216 1
36 8 1
36 43 2
36 63 1
36 106 1
36 118 1
36 168 1
36 193 1
36 217 1
37 9 1
37 44 2
37 64 1
37 107 1
37 119 1
37 141 1
37 194 1
37 218 1
38 10 1
38 45 2
38 65 1
38 108 1
38 120 1
38 142 1
38 195 1
38 219 1
39 11 1
39 46 2
39 66 1
39 109 1
39 121 1
39 143 1
39 196 1
39 220 1
40 12 1
40 47 2
40 67 1
40 110 1
40 122 1
40 144 1
40 169 1
40 221 1
41 13 1
41 48 2
41 68 1
41 111 1
41 123 1
41 145 1
41 170 1
41 222 1
42 14 1
42 49 2
42 69 1
42 112 1
42 124 1
42 146 1
42 171 1
42 223 1
43 15 1
43 50 2
43 70 1
43 85 1
43 125 1
43 147 1
43 172 1
43 224 1
44 16 1
44 51 2
44 71 1
44 86 1
44 126 1
44 148 1
44 173 1
44 197 1
45 17 1
45 52 2
45 72 1
45 87 1
45 127 1
45 149 1
45 174 1
45 198 1
46 18 1
46 53 2
46 73 1
46 88 1
46 128 1
46 150 1
46 175 1
46 199 1
47 19 1
47 54 2
47 74 1
47 89 1
47 129 1
47 151 1
47 176 1
47 200 1
48 20 1
48 55 2
48 75 1
48 90 1
48 130 1
48 152 1
48 177 1
48 201 1
49 21 1
49 56 2
49 76 1
49 91 1
49 131 1
49 153 1
49 178 1
49 202 1
50 22 1
50 29 2
50 77 1
50 92 1
50 132 1
50 154 1
50 179 1
50 203 1
51 23 1
51 30 2
51 78 1
51 93 1
51 133 1
51 155 1
51 180 1
51 204 1
52 24 1
52 31 2
52 79 1
52 94 1
52 134 1
52 156 1
52 181 1
52 205 1
53 25 1
53 32 2
53 80 1
53 95 1
53 135 1
53 157 1
53 182 1
53 206 1
54 26 1
54 33 2
54 81 1
54 96 1
54 136 1
54 158 1
54 183 1
54 207 1
55 27 1
55 34 2
55 82 1
55 97 1
55 137 1
55 159 1
55 184 1
55 208 1
56 28 1
56 35 2
56 83 1
56 98 1
56 138 1
56 160 1
56 185 1
56 209 1
57 1 1
57 50 1
57 77 2
57 98 1
57 124 1
57 145 1
57 192 1
57 213 1
58 2 1
58 51 1
58 78 2
58 99 1
58 125 1
58 146 1
58 193 1
58 214 1
59 3 1
59 52 1
59 79 2
59 100 1
59 126 1
59 147 1
59 194 1
59 215 1
60 4 1
60 53 1
60 80 2
60 101 1
60 127 1
60 148 1
60 195 1
60 216 1
61 5 1
61 54 1
61 81 2
61 102 1
61 128 1
61 149 1
61 196 1
61 217 1
62 6 1
62 55 1
62 82 2
62 103 1
62 129 1
62 150 1
62 169 1
62 218 1
63 7 1
63 56 1
63 83 2
63 104 1
63 130 1
63 151 1
63 170 1
63 219 1
64 8 1
64 29 1
64 84 2
64 105 1
64 131 1
64 152 1
64 171 1
64 220 1
65 9 1
65 30 1
65 57 2
65 106 1
65 132 1
65 153 1
65 172 1
65 221 1
66 10 1
66 31 1
66 58 2
66 107 1
66 133 1
66 154 1
66 173 1
66 222 1
67 11 1
67 32 1
67 59 2
67 108 1
67 134 1
67 155 1
67 174 1
67 223 1
68 12 1
68 33 1
68 60 2
68 109 1
68 135 1
68 156 1
68 175 1
68 224 1
69 13 1
69 34 1
69 61 2
69 110 1
69 136 1
69 157 1
69 176 1
69 197 1
70 14 1
70 35 1
70 62 2
70 111 1
70 137 1
70 158 1
70 177 1
70 198 1
71 15 1
71 36 1
71 63 2
71 112 1
71 138 1
71 159 1
71 178 1
71 199 1
72 16 1
72 37 1
72 64 2
72 85 1
72 139 1
72 160 1
72 179 1
72 200 1
73 17 1
73 38 1
73 65 2
73 86 1
73 140 1
73 161 1
73 180 1
73 201 1
74 18 1
74 39 1
74 66 2
74 87 1
74 113 1
74 162 1
74 181 1
74 202 1
75 19 1
75 40 1
75 67 2
75 88 1
75 114 1
75 163 1
75 182 1
75 203 1
76 20 1
76 41 1
76 68 2
76 89 1
76 115 1
76 164 1
76 183 1
76 204 1
77 21 1
77 42 1
77 69 2
77 90 1
77 116 1
77 165 1
77 184 1
77 205 1
78 22 1
78 43 1
78 70 2
78 91 1
78 117 1
78 166 1
78 185 1
78 206 1
79 23 1
79 44 1
79 71 2
79 92 1
79 118 1
79 167 1
79 186 1
79 207 1
80 24 1
80 45 1
80 72 2
80 93 1
80 119 1
80 168 1
80 187 1
80 208 1
81 25 1
81 46 1
81 73 2
81 94 1
81 120 1
81 141 1
81 188 1
81 209 1
82 26 1
82 47 1
82 74 2
82 95 1
82 121 1
82 142 1
82 189 1
82 210 1
83 27 1
83 48 1
83 75 2
83 96 1
83 122 1
83 143 1
83 190 1
83 211 1
84 28 1
84 49 1
84 76 2
84 97 1
84 123 1
84 144 1
84 191 1
84 212 1
