%%MatrixMarket matrix coordinate integer general
% Binary matrix over GF(2).
% Coordinate indices are 1-based; omitted entries are zero.
168 448 1428
1 1 1
1 75 1
1 131 1
1 209 1
1 226 1
1 321 1
1 383 1
1 439 1
2 2 1
2 76 1
2 132 1
2 210 1
2 225 1
2 226 1
2 322 1
2 384 1
2 440 1
3 3 1
3 77 1
3 133 1
3 211 1
3 228 1
3 323 1
3 385 1
3 441 1
4 4 1
4 78 1
4 134 1
4 212 1
4 227 1
4 228 1
4 324 1
4 386 1
4 442 1
5 5 1
5 79 1
5 135 1
5 213 1
5 230 1
5 325 1
5 387 1
5 443 1
6 6 1
6 80 1
6 136 1
6 214 1
6 229 1
6 230 1
6 326 1
6 388 1
6 444 1
7 7 1
7 81 1
7 137 1
7 215 1
7 232 1
7 327 1
7 389 1
7 445 1
8 8 1
8 82 1
8 138 1
8 216 1
8 231 1
8 232 1
8 328 1
8 390 1
8 446 1
9 9 1
9 83 1
9 139 1
9 217 1
9 234 1
9 329 1
9 391 1
9 447 1
10 10 1
10 84 1
10 140 1
10 218 1
10 233 1
10 234 1
10 330 1
10 392 1
10 448 1
11 11 1
11 85 1
11 141 1
11 219 1
11 236 1
11 331 1
11 337 1
11 393 1
12 12 1
12 86 1
12 142 1
12 220 1
12 235 1
12 236 1
12 332 1
12 338 1
12 394 1
13 13 1
13 87 1
13 143 1
13 221 1
13 238 1
13 333 1
13 339 1
13 395 1
14 14 1
14 88 1
14 144 1
14 222 1
14 237 1
14 238 1
14 334 1
14 340 1
14 396 1
15 15 1
15 89 1
15 145 1
15 223 1
15 240 1
15 335 1
15 341 1
15 397 1
16 16 1
16 90 1
16 146 1
16 224 1
16 239 1
16 240 1
16 336 1
16 342 1
16 398 1
17 17 1
17 91 1
17 147 1
17 169 1
17 242 1
17 281 1
17 343 1
17 399 1
18 18 1
18 92 1
18 148 1
18 170 1
18 241 1
18 242 1
18 282 1
18 344 1
18 400 1
19 19 1
19 93 1
19 149 1
19 171 1
19 244 1
19 283 1
19 345 1
19 401 1
20 20 1
20 94 1
20 150 1
20 172 1
20 243 1
20 244 1
20 284 1
20 346 1
20 402 1
21 21 1
21 95 1
21 151 1
21 173 1
21 246 1
21 285 1
21 347 1
21 403 1
22 22 1
22 96 1
22 152 1
22 174 1
22 245 1
22 246 1
22 286 1
22 348 1
22 404 1
23 23 1
23 97 1
23 153 1
23 175 1
23 248 1
23 287 1
23 349 1
23 405 1
24 24 1
24 98 1
24 154 1
24 176 1
24 247 1
24 248 1
24 288 1
24 350 1
24 406 1
25 25 1
25 99 1
25 155 1
25 177 1
25 250 1
25 289 1
25 351 1
25 407 1
26 26 1
26 100 1
26 156 1
26 178 1
26 249 1
26 250 1
26 290 1
26 352 1
26 408 1
27 27 1
27 101 1
27 157 1
27 179 1
27 252 1
27 291 1
27 353 1
27 409 1
28 28 1
28 102 1
28 158 1
28 180 1
28 251 1
28 252 1
28 292 1
28 354 1
28 410 1
29 29 1
29 103 1
29 159 1
29 181 1
29 254 1
29 293 1
29 355 1
29 411 1
30 30 1
30 104 1
30 160 1
30 182 1
30 253 1
30 254 1
30 294 1
30 356 1
30 412 1
31 31 1
31 105 1
31 161 1
31 183 1
31 256 1
31 295 1
31 357 1
31 413 1
32 32 1
32 106 1
32 162 1
32 184 1
32 255 1
32 256 1
32 296 1
32 358 1
32 414 1
33 33 1
33 107 1
33 163 1
33 185 1
33 258 1
33 297 1
33 359 1
33 415 1
34 34 1
34 108 1
34 164 1
34 186 1
34 257 1
34 258 1
34 298 1
34 360 1
34 416 1
35 35 1
35 109 1
35 165 1
35 187 1
35 260 1
35 299 1
35 361 1
35 417 1
36 36 1
36 110 1
36 166 1
36 188 1
36 259 1
36 260 1
36 300 1
36 362 1
36 418 1
37 37 1
37 111 1
37 167 1
37 189 1
37 262 1
37 301 1
37 363 1
37 419 1
38 38 1
38 112 1
38 168 1
38 190 1
38 261 1
38 262 1
38 302 1
38 364 1
38 420 1
39 39 1
39 57 1
39 113 1
39 191 1
39 264 1
39 303 1
39 365 1
39 421 1
40 40 1
40 58 1
40 114 1
40 192 1
40 263 1
40 264 1
40 304 1
40 366 1
40 422 1
41 41 1
41 59 1
41 115 1
41 193 1
41 266 1
41 305 1
41 367 1
41 423 1
42 42 1
42 60 1
42 116 1
42 194 1
42 265 1
42 266 1
42 306 1
42 368 1
42 424 1
43 43 1
43 61 1
43 117 1
43 195 1
43 268 1
43 307 1
43 369 1
43 425 1
44 44 1
44 62 1
44 118 1
44 196 1
44 267 1
44 268 1
44 308 1
44 370 1
44 426 1
45 45 1
45 63 1
45 119 1
45 197 1
45 270 1
45 309 1
45 371 1
45 427 1
46 46 1
46 64 1
46 120 1
46 198 1
46 269 1
46 270 1
46 310 1
46 372 1
46 428 1
47 47 1
47 65 1
47 121 1
47 199 1
47 272 1
47 311 1
47 373 1
47 429 1
48 48 1
48 66 1
48 122 1
48 200 1
48 271 1
48 272 1
48 312 1
48 374 1
48 430 1
49 49 1
49 67 1
49 123 1
49 201 1
49 274 1
49 313 1
49 375 1
49 431 1
50 50 1
50 68 1
50 124 1
50 202 1
50 273 1
50 274 1
50 314 1
50 376 1
50 432 1
51 51 1
51 69 1
51 125 1
51 203 1
51 276 1
51 315 1
51 377 1
51 433 1
52 52 1
52 70 1
52 126 1
52 204 1
52 275 1
52 276 1
52 316 1
52 378 1
52 434 1
53 53 1
53 71 1
53 127 1
53 205 1
53 278 1
53 317 1
53 379 1
53 435 1
54 54 1
54 72 1
54 128 1
54 206 1
54 277 1
54 278 1
54 318 1
54 380 1
54 436 1
55 55 1
55 73 1
55 129 1
55 207 1
55 280 1
55 319 1
55 381 1
55 437 1
56 56 1
56 74 1
56 130 1
56 208 1
56 279 1
56 280 1
56 320 1
56 382 1
56 438 1
57 1 1
57 87 1
57 145 1
57 203 1
57 255 1
57 282 1
57 371 1
57 425 1
58 2 1
58 88 1
58 146 1
58 204 1
58 256 1
58 281 1
58 282 1
58 372 1
58 426 1
59 3 1
59 89 1
59 147 1
59 205 1
59 257 1
59 284 1
59 373 1
59 427 1
60 4 1
60 90 1
60 148 1
60 206 1
60 258 1
60 283 1
60 284 1
60 374 1
60 428 1
61 5 1
61 91 1
61 149 1
61 207 1
61 259 1
61 286 1
61 375 1
61 429 1
62 6 1
62 92 1
62 150 1
62 208 1
62 260 1
62 285 1
62 286 1
62 376 1
62 430 1
63 7 1
63 93 1
63 151 1
63 209 1
63 261 1
63 288 1
63 377 1
63 431 1
64 8 1
64 94 1
64 152 1
64 210 1
64 262 1
64 287 1
64 288 1
64 378 1
64 432 1
65 9 1
65 95 1
65 153 1
65 211 1
65 263 1
65 290 1
65 379 1
65 433 1
66 10 1
66 96 1
66 154 1
66 212 1
66 264 1
66 289 1
66 290 1
66 380 1
66 434 1
67 11 1
67 97 1
67 155 1
67 213 1
67 265 1
67 292 1
67 381 1
67 435 1
68 12 1
68 98 1
68 156 1
68 214 1
68 266 1
68 291 1
68 292 1
68 382 1
68 436 1
69 13 1
69 99 1
69 157 1
69 215 1
69 267 1
69 294 1
69 383 1
69 437 1
70 14 1
70 100 1
70 158 1
70 216 1
70 268 1
70 293 1
70 294 1
70 384 1
70 438 1
71 15 1
71 101 1
71 159 1
71 217 1
71 269 1
71 296 1
71 385 1
71 439 1
72 16 1
72 102 1
72 160 1
72 218 1
72 270 1
72 295 1
72 296 1
72 386 1
72 440 1
73 17 1
73 103 1
73 161 1
73 219 1
73 271 1
73 298 1
73 387 1
73 441 1
74 18 1
74 104 1
74 162 1
74 220 1
74 272 1
74 297 1
74 298 1
74 388 1
74 442 1
75 19 1
75 105 1
75 163 1
75 221 1
75 273 1
75 300 1
75 389 1
75 443 1
76 20 1
76 106 1
76 164 1
76 222 1
76 274 1
76 299 1
76 300 1
76 390 1
76 444 1
77 21 1
77 107 1
77 165 1
77 223 1
77 275 1
77 302 1
77 391 1
77 445 1
78 22 1
78 108 1
78 166 1
78 224 1
78 276 1
78 301 1
78 302 1
78 392 1
78 446 1
79 23 1
79 109 1
79 167 1
79 169 1
79 277 1
79 304 1
79 337 1
79 447 1
80 24 1
80 110 1
80 168 1
80 170 1
80 278 1
80 303 1
80 304 1
80 338 1
80 448 1
81 25 1
81 111 1
81 113 1
81 171 1
81 279 1
81 306 1
81 339 1
81 393 1
82 26 1
82 112 1
82 114 1
82 172 1
82 280 1
82 305 1
82 306 1
82 340 1
82 394 1
83 27 1
83 57 1
83 115 1
83 173 1
83 225 1
83 308 1
83 341 1
83 395 1
84 28 1
84 58 1
84 116 1
84 174 1
84 226 1
84 307 1
84 308 1
84 342 1
84 396 1
85 29 1
85 59 1
85 117 1
85 175 1
85 227 1
85 310 1
85 343 1
85 397 1
86 30 1
86 60 1
86 118 1
86 176 1
86 228 1
86 309 1
86 310 1
86 344 1
86 398 1
87 31 1
87 61 1
87 119 1
87 177 1
87 229 1
87 312 1
87 345 1
87 399 1
88 32 1
88 62 1
88 120 1
88 178 1
88 230 1
88 311 1
88 312 1
88 346 1
88 400 1
89 33 1
89 63 1
89 121 1
89 179 1
89 231 1
89 314 1
89 347 1
89 401 1
90 34 1
90 64 1
90 122 1
90 180 1
90 232 1
90 313 1
90 314 1
90 348 1
90 402 1
91 35 1
91 65 1
91 123 1
91 181 1
91 233 1
91 316 1
91 349 1
91 403 1
92 36 1
92 66 1
92 124 1
92 182 1
92 234 1
92 315 1
92 316 1
92 350 1
92 404 1
93 37 1
93 67 1
93 125 1
93 183 1
93 235 1
93 318 1
93 351 1
93 405 1
94 38 1
94 68 1
94 126 1
94 184 1
94 236 1
94 317 1
94 318 1
94 352 1
94 406 1
95 39 1
95 69 1
95 127 1
95 185 1
95 237 1
95 320 1
95 353 1
95 407 1
96 40 1
96 70 1
96 128 1
96 186 1
96 238 1
96 319 1
96 320 1
96 354 1
96 408 1
97 41 1
97 71 1
97 129 1
97 187 1
97 239 1
97 322 1
97 355 1
97 409 1
98 42 1
98 72 1
98 130 1
98 188 1
98 240 1
98 321 1
98 322 1
98 356 1
98 410 1
99 43 1
99 73 1
99 131 1
99 189 1
99 241 1
99 324 1
99 357 1
99 411 1
100 44 1
100 74 1
100 132 1
100 190 1
100 242 1
100 323 1
100 324 1
100 358 1
100 412 1
101 45 1
101 75 1
101 133 1
101 191 1
101 243 1
101 326 1
101 359 1
101 413 1
102 46 1
102 76 1
102 134 1
102 192 1
102 244 1
102 325 1
102 326 1
102 360 1
102 414 1
103 47 1
103 77 1
103 135 1
103 193 1
103 245 1
103 328 1
103 361 1
103 415 1
104 48 1
104 78 1
104 136 1
104 194 1
104 246 1
104 327 1
104 328 1
104 362 1
104 416 1
105 49 1
105 79 1
105 137 1
105 195 1
105 247 1
105 330 1
105 363 1
105 417 1
106 50 1
106 80 1
106 138 1
106 196 1
106 248 1
106 329 1
106 330 1
106 364 1
106 418 1
107 51 1
107 81 1
107 139 1
107 197 1
107 249 1
107 332 1
107 365 1
107 419 1
108 52 1
108 82 1
108 140 1
108 198 1
108 250 1
108 331 1
108 332 1
108 366 1
108 420 1
109 53 1
109 83 1
109 141 1
109 199 1
109 251 1
109 334 1
109 367 1
109 421 1
110 54 1
110 84 1
110 142 1
110 200 1
110 252 1
110 333 1
110 334 1
110 368 1
110 422 1
111 55 1
111 85 1
111 143 1
111 201 1
111 253 1
111 336 1
111 369 1
111 423 1
112 56 1
112 86 1
112 144 1
112 202 1
112 254 1
112 335 1
112 336 1
112 370 1
112 424 1
113 1 1
113 93 1
113 163 1
113 195 1
113 275 1
113 317 1
113 338 1
113 419 1
114 2 1
114 94 1
114 164 1
114 196 1
114 276 1
114 318 1
114 337 1
114 338 1
114 420 1
115 3 1
115 95 1
115 165 1
115 197 1
115 277 1
115 319 1
115 340 1
115 421 1
116 4 1
116 96 1
116 166 1
116 198 1
116 278 1
116 320 1
116 339 1
116 340 1
116 422 1
117 5 1
117 97 1
117 167 1
117 199 1
117 279 1
117 321 1
117 342 1
117 423 1
118 6 1
118 98 1
118 168 1
118 200 1
118 280 1
118 322 1
118 341 1
118 342 1
118 424 1
119 7 1
119 99 1
119 113 1
119 201 1
119 225 1
119 323 1
119 344 1
119 425 1
120 8 1
120 100 1
120 114 1
120 202 1
120 226 1
120 324 1
120 343 1
120 344 1
120 426 1
121 9 1
121 101 1
121 115 1
121 203 1
121 227 1
121 325 1
121 346 1
121 427 1
122 10 1
122 102 1
122 116 1
122 204 1
122 228 1
122 326 1
122 345 1
122 346 1
122 428 1
123 11 1
123 103 1
123 117 1
123 205 1
123 229 1
123 327 1
123 348 1
123 429 1
124 12 1
124 104 1
124 118 1
124 206 1
124 230 1
124 328 1
124 347 1
124 348 1
124 430 1
125 13 1
125 105 1
125 119 1
125 207 1
125 231 1
125 329 1
125 350 1
125 431 1
126 14 1
126 106 1
126 120 1
126 208 1
126 232 1
126 330 1
126 349 1
126 350 1
126 432 1
127 15 1
127 107 1
127 121 1
127 209 1
127 233 1
127 331 1
127 352 1
127 433 1
128 16 1
128 108 1
128 122 1
128 210 1
128 234 1
128 332 1
128 351 1
128 352 1
128 434 1
129 17 1
129 109 1
129 123 1
129 211 1
129 235 1
129 333 1
129 354 1
129 435 1
130 18 1
130 110 1
130 124 1
130 212 1
130 236 1
130 334 1
130 353 1
130 354 1
130 436 1
131 19 1
131 111 1
131 125 1
131 213 1
131 237 1
131 335 1
131 356 1
131 437 1
132 20 1
132 112 1
132 126 1
132 214 1
132 238 1
132 336 1
132 355 1
132 356 1
132 438 1
133 21 1
133 57 1
133 127 1
133 215 1
133 239 1
133 281 1
133 358 1
133 439 1
134 22 1
134 58 1
134 128 1
134 216 1
134 240 1
134 282 1
134 357 1
134 358 1
134 440 1
135 23 1
135 59 1
135 129 1
135 217 1
135 241 1
135 283 1
135 360 1
135 441 1
136 24 1
136 60 1
136 130 1
136 218 1
136 242 1
136 284 1
136 359 1
136 360 1
136 442 1
137 25 1
137 61 1
137 131 1
137 219 1
137 243 1
137 285 1
137 362 1
137 443 1
138 26 1
138 62 1
138 132 1
138 220 1
138 244 1
138 286 1
138 361 1
138 362 1
138 444 1
139 27 1
139 63 1
139 133 1
139 221 1
139 245 1
139 287 1
139 364 1
139 445 1
140 28 1
140 64 1
140 134 1
140 222 1
140 246 1
140 288 1
140 363 1
140 364 1
140 446 1
141 29 1
141 65 1
141 135 1
141 223 1
141 247 1
141 289 1
141 366 1
141 447 1
142 30 1
142 66 1
142 136 1
142 224 1
142 248 1
142 290 1
142 365 1
142 366 1
142 448 1
143 31 1
143 67 1
143 137 1
143 169 1
143 249 1
143 291 1
143 368 1
143 393 1
144 32 1
144 68 1
144 138 1
144 170 1
144 250 1
144 292 1
144 367 1
144 368 1
144 394 1
145 33 1
145 69 1
145 139 1
145 171 1
145 251 1
145 293 1
145 370 1
145 395 1
146 34 1
146 70 1
146 140 1
146 172 1
146 252 1
146 294 1
146 369 1
146 370 1
146 396 1
147 35 1
147 71 1
147 141 1
147 173 1
147 253 1
147 295 1
147 372 1
147 397 1
148 36 1
148 72 1
148 142 1
148 174 1
148 254 1
148 296 1
148 371 1
148 372 1
148 398 1
149 37 1
149 73 1
149 143 1
149 175 1
149 255 1
149 297 1
149 374 1
149 399 1
150 38 1
150 74 1
150 144 1
150 176 1
150 256 1
150 298 1
150 373 1
150 374 1
150 400 1
151 39 1
151 75 1
151 145 1
151 177 1
151 257 1
151 299 1
151 376 1
151 401 1
152 40 1
152 76 1
152 146 1
152 178 1
152 258 1
152 300 1
152 375 1
152 376 1
152 402 1
153 41 1
153 77 1
153 147 1
153 179 1
153 259 1
153 301 1
153 378 1
153 403 1
154 42 1
154 78 1
154 148 1
154 180 1
154 260 1
154 302 1
154 377 1
154 378 1
154 404 1
155 43 1
155 79 1
155 149 1
155 181 1
155 261 1
155 303 1
155 380 1
155 405 1
156 44 1
156 80 1
156 150 1
156 182 1
156 262 1
156 304 1
156 379 1
156 380 1
156 406 1
157 45 1
157 81 1
157 151 1
157 183 1
157 263 1
157 305 1
157 382 1
157 407 1
158 46 1
158 82 1
158 152 1
158 184 1
158 264 1
158 306 1
158 381 1
158 382 1
158 408 1
159 47 1
159 83 1
159 153 1
159 185 1
159 265 1
159 307 1
159 384 1
159 409 1
160 48 1
160 84 1
160 154 1
160 186 1
160 266 1
160 308 1
160 383 1
160 384 1
160 410 1
161 49 1
161 85 1
161 155 1
161 187 1
161 267 1
161 309 1
161 386 1
161 411 1
162 50 1
162 86 1
162 156 1
162 188 1
162 268 1
162 310 1
162 385 1
162 386 1
162 412 1
163 51 1
163 87 1
163 157 1
163 189 1
163 269 1
163 311 1
163 388 1
163 413 1
164 52 1
164 88 1
164 158 1
164 190 1
164 270 1
164 312 1
164 387 1
164 388 1
164 414 1
165 53 1
165 89 1
165 159 1
165 191 1
165 271 1
165 313 1
165 390 1
165 415 1
166 54 1
166 90 1
166 160 1
166 192 1
166 272 1
166 314 1
166 389 1
166 390 1
166 416 1
167 55 1
167 91 1
167 161 1
167 193 1
167 273 1
167 315 1
167 392 1
167 417 1
168 56 1
168 92 1
168 162 1
168 194 1
168 274 1
168 316 1
168 391 1
168 392 1
168 418 1
