%%MatrixMarket matrix coordinate integer general
% GF(4) labels 0,1,2=omega,3=omega+1; arithmetic is NOT integer arithmetic.
% Coordinate indices are 1-based; omitted entries are zero.
84 224 672
1 1 1
1 38 1
1 66 1
1 105 1
1 113 2
1 161 1
1 192 1
1 220 1
2 2 1
2 39 1
2 67 1
2 106 1
2 114 2
2 162 1
2 193 1
2 221 1
3 3 1
3 40 1
3 68 1
3 107 1
3 115 2
3 163 1
3 194 1
3 222 1
4 4 1
4 41 1
4 69 1
4 108 1
4 116 2
4 164 1
4 195 1
4 223 1
5 5 1
5 42 1
5 70 1
5 109 1
5 117 2
5 165 1
5 196 1
5 224 1
6 6 1
6 43 1
6 71 1
6 110 1
6 118 2
6 166 1
6 169 1
6 197 1
7 7 1
7 44 1
7 72 1
7 111 1
7 119 2
7 167 1
7 170 1
7 198 1
8 8 1
8 45 1
8 73 1
8 112 1
8 120 2
8 168 1
8 171 1
8 199 1
9 9 1
9 46 1
9 74 1
9 85 1
9 121 2
9 141 1
9 172 1
9 200 1
10 10 1
10 47 1
10 75 1
10 86 1
10 122 2
10 142 1
10 173 1
10 201 1
11 11 1
11 48 1
11 76 1
11 87 1
11 123 2
11 143 1
11 174 1
11 202 1
12 12 1
12 49 1
12 77 1
12 88 1
12 124 2
12 144 1
12 175 1
12 203 1
13 13 1
13 50 1
13 78 1
13 89 1
13 125 2
13 145 1
13 176 1
13 204 1
14 14 1
14 51 1
14 79 1
14 90 1
14 126 2
14 146 1
14 177 1
14 205 1
15 15 1
15 52 1
15 80 1
15 91 1
15 127 2
15 147 1
15 178 1
15 206 1
16 16 1
16 53 1
16 81 1
16 92 1
16 128 2
16 148 1
16 179 1
16 207 1
17 17 1
17 54 1
17 82 1
17 93 1
17 129 2
17 149 1
17 180 1
17 208 1
18 18 1
18 55 1
18 83 1
18 94 1
18 130 2
18 150 1
18 181 1
18 209 1
19 19 1
19 56 1
19 84 1
19 95 1
19 131 2
19 151 1
19 182 1
19 210 1
20 20 1
20 29 1
20 57 1
20 96 1
20 132 2
20 152 1
20 183 1
20 211 1
21 21 1
21 30 1
21 58 1
21 97 1
21 133 2
21 153 1
21 184 1
21 212 1
22 22 1
22 31 1
22 59 1
22 98 1
22 134 2
22 154 1
22 185 1
22 213 1
23 23 1
23 32 1
23 60 1
23 99 1
23 135 2
23 155 1
23 186 1
23 214 1
24 24 1
24 33 1
24 61 1
24 100 1
24 136 2
24 156 1
24 187 1
24 215 1
25 25 1
25 34 1
25 62 1
25 101 1
25 137 2
25 157 1
25 188 1
25 216 1
26 26 1
26 35 1
26 63 1
26 102 1
26 138 2
26 158 1
26 189 1
26 217 1
27 27 1
27 36 1
27 64 1
27 103 1
27 139 2
27 159 1
27 190 1
27 218 1
28 28 1
28 37 1
28 65 1
28 104 1
28 140 2
28 160 1
28 191 1
28 219 1
29 1 1
29 44 1
29 73 1
29 102 1
29 128 1
29 141 2
29 186 1
29 213 1
30 2 1
30 45 1
30 74 1
30 103 1
30 129 1
30 142 2
30 187 1
30 214 1
31 3 1
31 46 1
31 75 1
31 104 1
31 130 1
31 143 2
31 188 1
31 215 1
32 4 1
32 47 1
32 76 1
32 105 1
32 131 1
32 144 2
32 189 1
32 216 1
33 5 1
33 48 1
33 77 1
33 106 1
33 132 1
33 145 2
33 190 1
33 217 1
34 6 1
34 49 1
34 78 1
34 107 1
34 133 1
34 146 2
34 191 1
34 218 1
35 7 1
35 50 1
35 79 1
35 108 1
35 134 1
35 147 2
35 192 1
35 219 1
36 8 1
36 51 1
36 80 1
36 109 1
36 135 1
36 148 2
36 193 1
36 220 1
37 9 1
37 52 1
37 81 1
37 110 1
37 136 1
37 149 2
37 194 1
37 221 1
38 10 1
38 53 1
38 82 1
38 111 1
38 137 1
38 150 2
38 195 1
38 222 1
39 11 1
39 54 1
39 83 1
39 112 1
39 138 1
39 151 2
39 196 1
39 223 1
40 12 1
40 55 1
40 84 1
40 85 1
40 139 1
40 152 2
40 169 1
40 224 1
41 13 1
41 56 1
41 57 1
41 86 1
41 140 1
41 153 2
41 170 1
41 197 1
42 14 1
42 29 1
42 58 1
42 87 1
42 113 1
42 154 2
42 171 1
42 198 1
43 15 1
43 30 1
43 59 1
43 88 1
43 114 1
43 155 2
43 172 1
43 199 1
44 16 1
44 31 1
44 60 1
44 89 1
44 115 1
44 156 2
44 173 1
44 200 1
45 17 1
45 32 1
45 61 1
45 90 1
45 116 1
45 157 2
45 174 1
45 201 1
46 18 1
46 33 1
46 62 1
46 91 1
46 117 1
46 158 2
46 175 1
46 202 1
47 19 1
47 34 1
47 63 1
47 92 1
47 118 1
47 159 2
47 176 1
47 203 1
48 20 1
48 35 1
48 64 1
48 93 1
48 119 1
48 160 2
48 177 1
48 204 1
49 21 1
49 36 1
49 65 1
49 94 1
49 120 1
49 161 2
49 178 1
49 205 1
50 22 1
50 37 1
50 66 1
50 95 1
50 121 1
50 162 2
50 179 1
50 206 1
51 23 1
51 38 1
51 67 1
51 96 1
51 122 1
51 163 2
51 180 1
51 207 1
52 24 1
52 39 1
52 68 1
52 97 1
52 123 1
52 164 2
52 181 1
52 208 1
53 25 1
53 40 1
53 69 1
53 98 1
53 124 1
53 165 2
53 182 1
53 209 1
54 26 1
54 41 1
54 70 1
54 99 1
54 125 1
54 166 2
54 183 1
54 210 1
55 27 1
55 42 1
55 71 1
55 100 1
55 126 1
55 167 2
55 184 1
55 211 1
56 28 1
56 43 1
56 72 1
56 101 1
56 127 1
56 168 2
56 185 1
56 212 1
57 1 1
57 47 1
57 82 1
57 98 1
57 138 1
57 159 1
57 169 2
57 210 1
58 2 1
58 48 1
58 83 1
58 99 1
58 139 1
58 160 1
58 170 2
58 211 1
59 3 1
59 49 1
59 84 1
59 100 1
59 140 1
59 161 1
59 171 2
59 212 1
60 4 1
60 50 1
60 57 1
60 101 1
60 113 1
60 162 1
60 172 2
60 213 1
61 5 1
61 51 1
61 58 1
61 102 1
61 114 1
61 163 1
61 173 2
61 214 1
62 6 1
62 52 1
62 59 1
62 103 1
62 115 1
62 164 1
62 174 2
62 215 1
63 7 1
63 53 1
63 60 1
63 104 1
63 116 1
63 165 1
63 175 2
63 216 1
64 8 1
64 54 1
64 61 1
64 105 1
64 117 1
64 166 1
64 176 2
64 217 1
65 9 1
65 55 1
65 62 1
65 106 1
65 118 1
65 167 1
65 177 2
65 218 1
66 10 1
66 56 1
66 63 1
66 107 1
66 119 1
66 168 1
66 178 2
66 219 1
67 11 1
67 29 1
67 64 1
67 108 1
67 120 1
67 141 1
67 179 2
67 220 1
68 12 1
68 30 1
68 65 1
68 109 1
68 121 1
68 142 1
68 180 2
68 221 1
69 13 1
69 31 1
69 66 1
69 110 1
69 122 1
69 143 1
69 181 2
69 222 1
70 14 1
70 32 1
70 67 1
70 111 1
70 123 1
70 144 1
70 182 2
70 223 1
71 15 1
71 33 1
71 68 1
71 112 1
71 124 1
71 145 1
71 183 2
71 224 1
72 16 1
72 34 1
72 69 1
72 85 1
72 125 1
72 146 1
72 184 2
72 197 1
73 17 1
73 35 1
73 70 1
73 86 1
73 126 1
73 147 1
73 185 2
73 198 1
74 18 1
74 36 1
74 71 1
74 87 1
74 127 1
74 148 1
74 186 2
74 199 1
75 19 1
75 37 1
75 72 1
75 88 1
75 128 1
75 149 1
75 187 2
75 200 1
76 20 1
76 38 1
76 73 1
76 89 1
76 129 1
76 150 1
76 188 2
76 201 1
77 21 1
77 39 1
77 74 1
77 90 1
77 130 1
77 151 1
77 189 2
77 202 1
78 22 1
78 40 1
78 75 1
78 91 1
78 131 1
78 152 1
78 190 2
78 203 1
79 23 1
79 41 1
79 76 1
79 92 1
79 132 1
79 153 1
79 191 2
79 204 1
80 24 1
80 42 1
80 77 1
80 93 1
80 133 1
80 154 1
80 192 2
80 205 1
81 25 1
81 43 1
81 78 1
81 94 1
81 134 1
81 155 1
81 193 2
81 206 1
82 26 1
82 44 1
82 79 1
82 95 1
82 135 1
82 156 1
82 194 2
82 207 1
83 27 1
83 45 1
83 80 1
83 96 1
83 136 1
83 157 1
83 195 2
83 208 1
84 28 1
84 46 1
84 81 1
84 97 1
84 137 1
84 158 1
84 196 2
84 209 1
