%%MatrixMarket matrix coordinate integer general
% Binary matrix over GF(2).
% Coordinate indices are 1-based; omitted entries are zero.
112 448 2716
1 186 1
1 213 1
1 227 1
1 237 1
1 241 1
1 242 1
1 264 1
1 266 1
1 277 1
1 291 1
1 303 1
1 304 1
1 319 1
1 324 1
1 325 1
1 334 1
1 343 1
1 353 1
1 360 1
1 367 1
1 368 1
1 380 1
1 381 1
2 188 1
2 215 1
2 229 1
2 239 1
2 243 1
2 244 1
2 266 1
2 268 1
2 279 1
2 293 1
2 305 1
2 306 1
2 321 1
2 326 1
2 327 1
2 336 1
2 345 1
2 355 1
2 362 1
2 369 1
2 370 1
2 382 1
2 383 1
3 190 1
3 217 1
3 225 1
3 231 1
3 241 1
3 245 1
3 246 1
3 268 1
3 270 1
3 282 1
3 295 1
3 307 1
3 308 1
3 323 1
3 328 1
3 329 1
3 347 1
3 357 1
3 364 1
3 371 1
3 372 1
3 384 1
3 385 1
4 192 1
4 219 1
4 227 1
4 233 1
4 243 1
4 247 1
4 248 1
4 270 1
4 272 1
4 284 1
4 297 1
4 309 1
4 310 1
4 325 1
4 330 1
4 331 1
4 349 1
4 359 1
4 366 1
4 373 1
4 374 1
4 386 1
4 387 1
5 194 1
5 221 1
5 229 1
5 235 1
5 245 1
5 249 1
5 250 1
5 272 1
5 274 1
5 286 1
5 299 1
5 311 1
5 312 1
5 327 1
5 332 1
5 333 1
5 351 1
5 361 1
5 368 1
5 375 1
5 376 1
5 388 1
5 389 1
6 196 1
6 223 1
6 231 1
6 237 1
6 247 1
6 251 1
6 252 1
6 274 1
6 276 1
6 288 1
6 301 1
6 313 1
6 314 1
6 329 1
6 334 1
6 335 1
6 353 1
6 363 1
6 370 1
6 377 1
6 378 1
6 390 1
6 391 1
7 169 1
7 198 1
7 233 1
7 239 1
7 249 1
7 253 1
7 254 1
7 276 1
7 278 1
7 281 1
7 290 1
7 303 1
7 315 1
7 316 1
7 331 1
7 336 1
7 337 1
7 355 1
7 365 1
7 372 1
7 379 1
7 380 1
7 392 1
8 171 1
8 200 1
8 235 1
8 241 1
8 251 1
8 255 1
8 256 1
8 278 1
8 280 1
8 282 1
8 283 1
8 292 1
8 305 1
8 317 1
8 318 1
8 333 1
8 338 1
8 339 1
8 357 1
8 367 1
8 374 1
8 381 1
8 382 1
9 173 1
9 202 1
9 226 1
9 237 1
9 243 1
9 253 1
9 257 1
9 258 1
9 280 1
9 284 1
9 285 1
9 294 1
9 307 1
9 319 1
9 320 1
9 335 1
9 340 1
9 341 1
9 359 1
9 369 1
9 376 1
9 383 1
9 384 1
10 175 1
10 204 1
10 226 1
10 228 1
10 239 1
10 245 1
10 255 1
10 259 1
10 260 1
10 281 1
10 286 1
10 287 1
10 296 1
10 309 1
10 321 1
10 322 1
10 342 1
10 343 1
10 361 1
10 371 1
10 378 1
10 385 1
10 386 1
11 177 1
11 206 1
11 228 1
11 230 1
11 241 1
11 247 1
11 257 1
11 261 1
11 262 1
11 283 1
11 288 1
11 289 1
11 298 1
11 311 1
11 323 1
11 324 1
11 344 1
11 345 1
11 363 1
11 373 1
11 380 1
11 387 1
11 388 1
12 179 1
12 208 1
12 230 1
12 232 1
12 243 1
12 249 1
12 259 1
12 263 1
12 264 1
12 285 1
12 290 1
12 291 1
12 300 1
12 313 1
12 325 1
12 326 1
12 346 1
12 347 1
12 365 1
12 375 1
12 382 1
12 389 1
12 390 1
13 181 1
13 210 1
13 232 1
13 234 1
13 245 1
13 251 1
13 261 1
13 265 1
13 266 1
13 287 1
13 292 1
13 293 1
13 302 1
13 315 1
13 327 1
13 328 1
13 348 1
13 349 1
13 367 1
13 377 1
13 384 1
13 391 1
13 392 1
14 183 1
14 212 1
14 234 1
14 236 1
14 247 1
14 253 1
14 263 1
14 267 1
14 268 1
14 289 1
14 294 1
14 295 1
14 304 1
14 317 1
14 329 1
14 330 1
14 337 1
14 338 1
14 350 1
14 351 1
14 369 1
14 379 1
14 386 1
15 185 1
15 214 1
15 236 1
15 238 1
15 249 1
15 255 1
15 265 1
15 269 1
15 270 1
15 291 1
15 296 1
15 297 1
15 306 1
15 319 1
15 331 1
15 332 1
15 339 1
15 340 1
15 352 1
15 353 1
15 371 1
15 381 1
15 388 1
16 187 1
16 216 1
16 238 1
16 240 1
16 251 1
16 257 1
16 267 1
16 271 1
16 272 1
16 293 1
16 298 1
16 299 1
16 308 1
16 321 1
16 333 1
16 334 1
16 341 1
16 342 1
16 354 1
16 355 1
16 373 1
16 383 1
16 390 1
17 189 1
17 218 1
17 240 1
17 242 1
17 253 1
17 259 1
17 269 1
17 273 1
17 274 1
17 295 1
17 300 1
17 301 1
17 310 1
17 323 1
17 335 1
17 336 1
17 343 1
17 344 1
17 356 1
17 357 1
17 375 1
17 385 1
17 392 1
18 191 1
18 220 1
18 242 1
18 244 1
18 255 1
18 261 1
18 271 1
18 275 1
18 276 1
18 281 1
18 282 1
18 297 1
18 302 1
18 303 1
18 312 1
18 325 1
18 338 1
18 345 1
18 346 1
18 358 1
18 359 1
18 377 1
18 387 1
19 193 1
19 222 1
19 244 1
19 246 1
19 257 1
19 263 1
19 273 1
19 277 1
19 278 1
19 283 1
19 284 1
19 299 1
19 304 1
19 305 1
19 314 1
19 327 1
19 340 1
19 347 1
19 348 1
19 360 1
19 361 1
19 379 1
19 389 1
20 195 1
20 224 1
20 246 1
20 248 1
20 259 1
20 265 1
20 275 1
20 279 1
20 280 1
20 285 1
20 286 1
20 301 1
20 306 1
20 307 1
20 316 1
20 329 1
20 342 1
20 349 1
20 350 1
20 362 1
20 363 1
20 381 1
20 391 1
21 170 1
21 197 1
21 225 1
21 226 1
21 248 1
21 250 1
21 261 1
21 267 1
21 277 1
21 287 1
21 288 1
21 303 1
21 308 1
21 309 1
21 318 1
21 331 1
21 337 1
21 344 1
21 351 1
21 352 1
21 364 1
21 365 1
21 383 1
22 172 1
22 199 1
22 227 1
22 228 1
22 250 1
22 252 1
22 263 1
22 269 1
22 279 1
22 289 1
22 290 1
22 305 1
22 310 1
22 311 1
22 320 1
22 333 1
22 339 1
22 346 1
22 353 1
22 354 1
22 366 1
22 367 1
22 385 1
23 174 1
23 201 1
23 225 1
23 229 1
23 230 1
23 252 1
23 254 1
23 265 1
23 271 1
23 291 1
23 292 1
23 307 1
23 312 1
23 313 1
23 322 1
23 335 1
23 341 1
23 348 1
23 355 1
23 356 1
23 368 1
23 369 1
23 387 1
24 176 1
24 203 1
24 227 1
24 231 1
24 232 1
24 254 1
24 256 1
24 267 1
24 273 1
24 281 1
24 293 1
24 294 1
24 309 1
24 314 1
24 315 1
24 324 1
24 343 1
24 350 1
24 357 1
24 358 1
24 370 1
24 371 1
24 389 1
25 178 1
25 205 1
25 229 1
25 233 1
25 234 1
25 256 1
25 258 1
25 269 1
25 275 1
25 283 1
25 295 1
25 296 1
25 311 1
25 316 1
25 317 1
25 326 1
25 345 1
25 352 1
25 359 1
25 360 1
25 372 1
25 373 1
25 391 1
26 180 1
26 207 1
26 231 1
26 235 1
26 236 1
26 258 1
26 260 1
26 271 1
26 277 1
26 285 1
26 297 1
26 298 1
26 313 1
26 318 1
26 319 1
26 328 1
26 337 1
26 347 1
26 354 1
26 361 1
26 362 1
26 374 1
26 375 1
27 182 1
27 209 1
27 233 1
27 237 1
27 238 1
27 260 1
27 262 1
27 273 1
27 279 1
27 287 1
27 299 1
27 300 1
27 315 1
27 320 1
27 321 1
27 330 1
27 339 1
27 349 1
27 356 1
27 363 1
27 364 1
27 376 1
27 377 1
28 184 1
28 211 1
28 225 1
28 235 1
28 239 1
28 240 1
28 262 1
28 264 1
28 275 1
28 289 1
28 301 1
28 302 1
28 317 1
28 322 1
28 323 1
28 332 1
28 341 1
28 351 1
28 358 1
28 365 1
28 366 1
28 378 1
28 379 1
29 185 1
29 186 1
29 214 1
29 228 1
29 238 1
29 241 1
29 263 1
29 264 1
29 265 1
29 266 1
29 278 1
29 292 1
29 303 1
29 320 1
29 323 1
29 324 1
29 326 1
29 333 1
29 334 1
29 344 1
29 354 1
29 359 1
29 360 1
29 367 1
29 379 1
29 380 1
29 382 1
30 187 1
30 188 1
30 216 1
30 230 1
30 240 1
30 243 1
30 265 1
30 266 1
30 267 1
30 268 1
30 280 1
30 294 1
30 305 1
30 322 1
30 325 1
30 326 1
30 328 1
30 335 1
30 336 1
30 346 1
30 356 1
30 361 1
30 362 1
30 369 1
30 381 1
30 382 1
30 384 1
31 189 1
31 190 1
31 218 1
31 226 1
31 232 1
31 242 1
31 245 1
31 267 1
31 268 1
31 269 1
31 270 1
31 281 1
31 282 1
31 296 1
31 307 1
31 324 1
31 327 1
31 328 1
31 330 1
31 348 1
31 358 1
31 363 1
31 364 1
31 371 1
31 383 1
31 384 1
31 386 1
32 191 1
32 192 1
32 220 1
32 228 1
32 234 1
32 244 1
32 247 1
32 269 1
32 270 1
32 271 1
32 272 1
32 283 1
32 284 1
32 298 1
32 309 1
32 326 1
32 329 1
32 330 1
32 332 1
32 350 1
32 360 1
32 365 1
32 366 1
32 373 1
32 385 1
32 386 1
32 388 1
33 193 1
33 194 1
33 222 1
33 230 1
33 236 1
33 246 1
33 249 1
33 271 1
33 272 1
33 273 1
33 274 1
33 285 1
33 286 1
33 300 1
33 311 1
33 328 1
33 331 1
33 332 1
33 334 1
33 352 1
33 362 1
33 367 1
33 368 1
33 375 1
33 387 1
33 388 1
33 390 1
34 195 1
34 196 1
34 224 1
34 232 1
34 238 1
34 248 1
34 251 1
34 273 1
34 274 1
34 275 1
34 276 1
34 287 1
34 288 1
34 302 1
34 313 1
34 330 1
34 333 1
34 334 1
34 336 1
34 354 1
34 364 1
34 369 1
34 370 1
34 377 1
34 389 1
34 390 1
34 392 1
35 170 1
35 197 1
35 198 1
35 234 1
35 240 1
35 250 1
35 253 1
35 275 1
35 276 1
35 277 1
35 278 1
35 282 1
35 289 1
35 290 1
35 304 1
35 315 1
35 332 1
35 335 1
35 336 1
35 338 1
35 356 1
35 366 1
35 371 1
35 372 1
35 379 1
35 391 1
35 392 1
36 172 1
36 199 1
36 200 1
36 236 1
36 242 1
36 252 1
36 255 1
36 277 1
36 278 1
36 279 1
36 280 1
36 281 1
36 282 1
36 284 1
36 291 1
36 292 1
36 306 1
36 317 1
36 334 1
36 337 1
36 338 1
36 340 1
36 358 1
36 368 1
36 373 1
36 374 1
36 381 1
37 174 1
37 201 1
37 202 1
37 225 1
37 226 1
37 238 1
37 244 1
37 254 1
37 257 1
37 279 1
37 280 1
37 283 1
37 284 1
37 286 1
37 293 1
37 294 1
37 308 1
37 319 1
37 336 1
37 339 1
37 340 1
37 342 1
37 360 1
37 370 1
37 375 1
37 376 1
37 383 1
38 176 1
38 203 1
38 204 1
38 225 1
38 226 1
38 227 1
38 228 1
38 240 1
38 246 1
38 256 1
38 259 1
38 282 1
38 285 1
38 286 1
38 288 1
38 295 1
38 296 1
38 310 1
38 321 1
38 341 1
38 342 1
38 344 1
38 362 1
38 372 1
38 377 1
38 378 1
38 385 1
39 178 1
39 205 1
39 206 1
39 227 1
39 228 1
39 229 1
39 230 1
39 242 1
39 248 1
39 258 1
39 261 1
39 284 1
39 287 1
39 288 1
39 290 1
39 297 1
39 298 1
39 312 1
39 323 1
39 343 1
39 344 1
39 346 1
39 364 1
39 374 1
39 379 1
39 380 1
39 387 1
40 180 1
40 207 1
40 208 1
40 229 1
40 230 1
40 231 1
40 232 1
40 244 1
40 250 1
40 260 1
40 263 1
40 286 1
40 289 1
40 290 1
40 292 1
40 299 1
40 300 1
40 314 1
40 325 1
40 345 1
40 346 1
40 348 1
40 366 1
40 376 1
40 381 1
40 382 1
40 389 1
41 182 1
41 209 1
41 210 1
41 231 1
41 232 1
41 233 1
41 234 1
41 246 1
41 252 1
41 262 1
41 265 1
41 288 1
41 291 1
41 292 1
41 294 1
41 301 1
41 302 1
41 316 1
41 327 1
41 347 1
41 348 1
41 350 1
41 368 1
41 378 1
41 383 1
41 384 1
41 391 1
42 184 1
42 211 1
42 212 1
42 233 1
42 234 1
42 235 1
42 236 1
42 248 1
42 254 1
42 264 1
42 267 1
42 290 1
42 293 1
42 294 1
42 296 1
42 303 1
42 304 1
42 318 1
42 329 1
42 337 1
42 349 1
42 350 1
42 352 1
42 370 1
42 380 1
42 385 1
42 386 1
43 186 1
43 213 1
43 214 1
43 235 1
43 236 1
43 237 1
43 238 1
43 250 1
43 256 1
43 266 1
43 269 1
43 292 1
43 295 1
43 296 1
43 298 1
43 305 1
43 306 1
43 320 1
43 331 1
43 339 1
43 351 1
43 352 1
43 354 1
43 372 1
43 382 1
43 387 1
43 388 1
44 188 1
44 215 1
44 216 1
44 237 1
44 238 1
44 239 1
44 240 1
44 252 1
44 258 1
44 268 1
44 271 1
44 294 1
44 297 1
44 298 1
44 300 1
44 307 1
44 308 1
44 322 1
44 333 1
44 341 1
44 353 1
44 354 1
44 356 1
44 374 1
44 384 1
44 389 1
44 390 1
45 190 1
45 217 1
45 218 1
45 239 1
45 240 1
45 241 1
45 242 1
45 254 1
45 260 1
45 270 1
45 273 1
45 296 1
45 299 1
45 300 1
45 302 1
45 309 1
45 310 1
45 324 1
45 335 1
45 343 1
45 355 1
45 356 1
45 358 1
45 376 1
45 386 1
45 391 1
45 392 1
46 192 1
46 219 1
46 220 1
46 241 1
46 242 1
46 243 1
46 244 1
46 256 1
46 262 1
46 272 1
46 275 1
46 281 1
46 298 1
46 301 1
46 302 1
46 304 1
46 311 1
46 312 1
46 326 1
46 337 1
46 338 1
46 345 1
46 357 1
46 358 1
46 360 1
46 378 1
46 388 1
47 194 1
47 221 1
47 222 1
47 243 1
47 244 1
47 245 1
47 246 1
47 258 1
47 264 1
47 274 1
47 277 1
47 283 1
47 300 1
47 303 1
47 304 1
47 306 1
47 313 1
47 314 1
47 328 1
47 339 1
47 340 1
47 347 1
47 359 1
47 360 1
47 362 1
47 380 1
47 390 1
48 196 1
48 223 1
48 224 1
48 245 1
48 246 1
48 247 1
48 248 1
48 260 1
48 266 1
48 276 1
48 279 1
48 285 1
48 302 1
48 305 1
48 306 1
48 308 1
48 315 1
48 316 1
48 330 1
48 341 1
48 342 1
48 349 1
48 361 1
48 362 1
48 364 1
48 382 1
48 392 1
49 169 1
49 170 1
49 198 1
49 225 1
49 247 1
49 248 1
49 249 1
49 250 1
49 262 1
49 268 1
49 278 1
49 287 1
49 304 1
49 307 1
49 308 1
49 310 1
49 317 1
49 318 1
49 332 1
49 338 1
49 343 1
49 344 1
49 351 1
49 363 1
49 364 1
49 366 1
49 384 1
50 171 1
50 172 1
50 200 1
50 227 1
50 249 1
50 250 1
50 251 1
50 252 1
50 264 1
50 270 1
50 280 1
50 289 1
50 306 1
50 309 1
50 310 1
50 312 1
50 319 1
50 320 1
50 334 1
50 340 1
50 345 1
50 346 1
50 353 1
50 365 1
50 366 1
50 368 1
50 386 1
51 173 1
51 174 1
51 202 1
51 226 1
51 229 1
51 251 1
51 252 1
51 253 1
51 254 1
51 266 1
51 272 1
51 291 1
51 308 1
51 311 1
51 312 1
51 314 1
51 321 1
51 322 1
51 336 1
51 342 1
51 347 1
51 348 1
51 355 1
51 367 1
51 368 1
51 370 1
51 388 1
52 175 1
52 176 1
52 204 1
52 228 1
52 231 1
52 253 1
52 254 1
52 255 1
52 256 1
52 268 1
52 274 1
52 282 1
52 293 1
52 310 1
52 313 1
52 314 1
52 316 1
52 323 1
52 324 1
52 344 1
52 349 1
52 350 1
52 357 1
52 369 1
52 370 1
52 372 1
52 390 1
53 177 1
53 178 1
53 206 1
53 230 1
53 233 1
53 255 1
53 256 1
53 257 1
53 258 1
53 270 1
53 276 1
53 284 1
53 295 1
53 312 1
53 315 1
53 316 1
53 318 1
53 325 1
53 326 1
53 346 1
53 351 1
53 352 1
53 359 1
53 371 1
53 372 1
53 374 1
53 392 1
54 179 1
54 180 1
54 208 1
54 232 1
54 235 1
54 257 1
54 258 1
54 259 1
54 260 1
54 272 1
54 278 1
54 286 1
54 297 1
54 314 1
54 317 1
54 318 1
54 320 1
54 327 1
54 328 1
54 338 1
54 348 1
54 353 1
54 354 1
54 361 1
54 373 1
54 374 1
54 376 1
55 181 1
55 182 1
55 210 1
55 234 1
55 237 1
55 259 1
55 260 1
55 261 1
55 262 1
55 274 1
55 280 1
55 288 1
55 299 1
55 316 1
55 319 1
55 320 1
55 322 1
55 329 1
55 330 1
55 340 1
55 350 1
55 355 1
55 356 1
55 363 1
55 375 1
55 376 1
55 378 1
56 183 1
56 184 1
56 212 1
56 226 1
56 236 1
56 239 1
56 261 1
56 262 1
56 263 1
56 264 1
56 276 1
56 290 1
56 301 1
56 318 1
56 321 1
56 322 1
56 324 1
56 331 1
56 332 1
56 342 1
56 352 1
56 357 1
56 358 1
56 365 1
56 377 1
56 378 1
56 380 1
57 236 1
57 237 1
57 238 1
57 277 1
57 278 1
57 279 1
57 280 1
57 291 1
57 292 1
57 306 1
57 317 1
57 319 1
57 320 1
57 321 1
57 322 1
57 333 1
57 337 1
57 338 1
57 354 1
57 368 1
57 381 1
57 383 1
57 384 1
57 409 1
57 437 1
57 438 1
58 225 1
58 226 1
58 238 1
58 239 1
58 240 1
58 279 1
58 280 1
58 293 1
58 294 1
58 308 1
58 319 1
58 321 1
58 322 1
58 323 1
58 324 1
58 335 1
58 339 1
58 340 1
58 356 1
58 370 1
58 383 1
58 385 1
58 386 1
58 411 1
58 439 1
58 440 1
59 225 1
59 226 1
59 227 1
59 228 1
59 240 1
59 241 1
59 242 1
59 281 1
59 295 1
59 296 1
59 310 1
59 321 1
59 323 1
59 324 1
59 325 1
59 326 1
59 341 1
59 342 1
59 358 1
59 372 1
59 385 1
59 387 1
59 388 1
59 413 1
59 441 1
59 442 1
60 227 1
60 228 1
60 229 1
60 230 1
60 242 1
60 243 1
60 244 1
60 283 1
60 297 1
60 298 1
60 312 1
60 323 1
60 325 1
60 326 1
60 327 1
60 328 1
60 343 1
60 344 1
60 360 1
60 374 1
60 387 1
60 389 1
60 390 1
60 415 1
60 443 1
60 444 1
61 229 1
61 230 1
61 231 1
61 232 1
61 244 1
61 245 1
61 246 1
61 285 1
61 299 1
61 300 1
61 314 1
61 325 1
61 327 1
61 328 1
61 329 1
61 330 1
61 345 1
61 346 1
61 362 1
61 376 1
61 389 1
61 391 1
61 392 1
61 417 1
61 445 1
61 446 1
62 231 1
62 232 1
62 233 1
62 234 1
62 246 1
62 247 1
62 248 1
62 287 1
62 301 1
62 302 1
62 316 1
62 327 1
62 329 1
62 330 1
62 331 1
62 332 1
62 337 1
62 338 1
62 347 1
62 348 1
62 364 1
62 378 1
62 391 1
62 419 1
62 447 1
62 448 1
63 233 1
63 234 1
63 235 1
63 236 1
63 248 1
63 249 1
63 250 1
63 289 1
63 303 1
63 304 1
63 318 1
63 329 1
63 331 1
63 332 1
63 333 1
63 334 1
63 337 1
63 339 1
63 340 1
63 349 1
63 350 1
63 366 1
63 380 1
63 393 1
63 394 1
63 421 1
64 235 1
64 236 1
64 237 1
64 238 1
64 250 1
64 251 1
64 252 1
64 291 1
64 305 1
64 306 1
64 320 1
64 331 1
64 333 1
64 334 1
64 335 1
64 336 1
64 339 1
64 341 1
64 342 1
64 351 1
64 352 1
64 368 1
64 382 1
64 395 1
64 396 1
64 423 1
65 237 1
65 238 1
65 239 1
65 240 1
65 252 1
65 253 1
65 254 1
65 281 1
65 282 1
65 293 1
65 307 1
65 308 1
65 322 1
65 333 1
65 335 1
65 336 1
65 341 1
65 343 1
65 344 1
65 353 1
65 354 1
65 370 1
65 384 1
65 397 1
65 398 1
65 425 1
66 239 1
66 240 1
66 241 1
66 242 1
66 254 1
66 255 1
66 256 1
66 281 1
66 282 1
66 283 1
66 284 1
66 295 1
66 309 1
66 310 1
66 324 1
66 335 1
66 343 1
66 345 1
66 346 1
66 355 1
66 356 1
66 372 1
66 386 1
66 399 1
66 400 1
66 427 1
67 241 1
67 242 1
67 243 1
67 244 1
67 256 1
67 257 1
67 258 1
67 281 1
67 283 1
67 284 1
67 285 1
67 286 1
67 297 1
67 311 1
67 312 1
67 326 1
67 345 1
67 347 1
67 348 1
67 357 1
67 358 1
67 374 1
67 388 1
67 401 1
67 402 1
67 429 1
68 243 1
68 244 1
68 245 1
68 246 1
68 258 1
68 259 1
68 260 1
68 283 1
68 285 1
68 286 1
68 287 1
68 288 1
68 299 1
68 313 1
68 314 1
68 328 1
68 347 1
68 349 1
68 350 1
68 359 1
68 360 1
68 376 1
68 390 1
68 403 1
68 404 1
68 431 1
69 245 1
69 246 1
69 247 1
69 248 1
69 260 1
69 261 1
69 262 1
69 285 1
69 287 1
69 288 1
69 289 1
69 290 1
69 301 1
69 315 1
69 316 1
69 330 1
69 349 1
69 351 1
69 352 1
69 361 1
69 362 1
69 378 1
69 392 1
69 405 1
69 406 1
69 433 1
70 247 1
70 248 1
70 249 1
70 250 1
70 262 1
70 263 1
70 264 1
70 287 1
70 289 1
70 290 1
70 291 1
70 292 1
70 303 1
70 317 1
70 318 1
70 332 1
70 338 1
70 351 1
70 353 1
70 354 1
70 363 1
70 364 1
70 380 1
70 407 1
70 408 1
70 435 1
71 249 1
71 250 1
71 251 1
71 252 1
71 264 1
71 265 1
71 266 1
71 289 1
71 291 1
71 292 1
71 293 1
71 294 1
71 305 1
71 319 1
71 320 1
71 334 1
71 340 1
71 353 1
71 355 1
71 356 1
71 365 1
71 366 1
71 382 1
71 409 1
71 410 1
71 437 1
72 251 1
72 252 1
72 253 1
72 254 1
72 266 1
72 267 1
72 268 1
72 291 1
72 293 1
72 294 1
72 295 1
72 296 1
72 307 1
72 321 1
72 322 1
72 336 1
72 342 1
72 355 1
72 357 1
72 358 1
72 367 1
72 368 1
72 384 1
72 411 1
72 412 1
72 439 1
73 253 1
73 254 1
73 255 1
73 256 1
73 268 1
73 269 1
73 270 1
73 282 1
73 293 1
73 295 1
73 296 1
73 297 1
73 298 1
73 309 1
73 323 1
73 324 1
73 344 1
73 357 1
73 359 1
73 360 1
73 369 1
73 370 1
73 386 1
73 413 1
73 414 1
73 441 1
74 255 1
74 256 1
74 257 1
74 258 1
74 270 1
74 271 1
74 272 1
74 284 1
74 295 1
74 297 1
74 298 1
74 299 1
74 300 1
74 311 1
74 325 1
74 326 1
74 346 1
74 359 1
74 361 1
74 362 1
74 371 1
74 372 1
74 388 1
74 415 1
74 416 1
74 443 1
75 257 1
75 258 1
75 259 1
75 260 1
75 272 1
75 273 1
75 274 1
75 286 1
75 297 1
75 299 1
75 300 1
75 301 1
75 302 1
75 313 1
75 327 1
75 328 1
75 348 1
75 361 1
75 363 1
75 364 1
75 373 1
75 374 1
75 390 1
75 417 1
75 418 1
75 445 1
76 259 1
76 260 1
76 261 1
76 262 1
76 274 1
76 275 1
76 276 1
76 288 1
76 299 1
76 301 1
76 302 1
76 303 1
76 304 1
76 315 1
76 329 1
76 330 1
76 350 1
76 363 1
76 365 1
76 366 1
76 375 1
76 376 1
76 392 1
76 419 1
76 420 1
76 447 1
77 261 1
77 262 1
77 263 1
77 264 1
77 276 1
77 277 1
77 278 1
77 290 1
77 301 1
77 303 1
77 304 1
77 305 1
77 306 1
77 317 1
77 331 1
77 332 1
77 338 1
77 352 1
77 365 1
77 367 1
77 368 1
77 377 1
77 378 1
77 393 1
77 421 1
77 422 1
78 263 1
78 264 1
78 265 1
78 266 1
78 278 1
78 279 1
78 280 1
78 292 1
78 303 1
78 305 1
78 306 1
78 307 1
78 308 1
78 319 1
78 333 1
78 334 1
78 340 1
78 354 1
78 367 1
78 369 1
78 370 1
78 379 1
78 380 1
78 395 1
78 423 1
78 424 1
79 225 1
79 226 1
79 265 1
79 266 1
79 267 1
79 268 1
79 280 1
79 294 1
79 305 1
79 307 1
79 308 1
79 309 1
79 310 1
79 321 1
79 335 1
79 336 1
79 342 1
79 356 1
79 369 1
79 371 1
79 372 1
79 381 1
79 382 1
79 397 1
79 425 1
79 426 1
80 226 1
80 227 1
80 228 1
80 267 1
80 268 1
80 269 1
80 270 1
80 281 1
80 282 1
80 296 1
80 307 1
80 309 1
80 310 1
80 311 1
80 312 1
80 323 1
80 344 1
80 358 1
80 371 1
80 373 1
80 374 1
80 383 1
80 384 1
80 399 1
80 427 1
80 428 1
81 228 1
81 229 1
81 230 1
81 269 1
81 270 1
81 271 1
81 272 1
81 283 1
81 284 1
81 298 1
81 309 1
81 311 1
81 312 1
81 313 1
81 314 1
81 325 1
81 346 1
81 360 1
81 373 1
81 375 1
81 376 1
81 385 1
81 386 1
81 401 1
81 429 1
81 430 1
82 230 1
82 231 1
82 232 1
82 271 1
82 272 1
82 273 1
82 274 1
82 285 1
82 286 1
82 300 1
82 311 1
82 313 1
82 314 1
82 315 1
82 316 1
82 327 1
82 348 1
82 362 1
82 375 1
82 377 1
82 378 1
82 387 1
82 388 1
82 403 1
82 431 1
82 432 1
83 232 1
83 233 1
83 234 1
83 273 1
83 274 1
83 275 1
83 276 1
83 287 1
83 288 1
83 302 1
83 313 1
83 315 1
83 316 1
83 317 1
83 318 1
83 329 1
83 350 1
83 364 1
83 377 1
83 379 1
83 380 1
83 389 1
83 390 1
83 405 1
83 433 1
83 434 1
84 234 1
84 235 1
84 236 1
84 275 1
84 276 1
84 277 1
84 278 1
84 289 1
84 290 1
84 304 1
84 315 1
84 317 1
84 318 1
84 319 1
84 320 1
84 331 1
84 352 1
84 366 1
84 379 1
84 381 1
84 382 1
84 391 1
84 392 1
84 407 1
84 435 1
84 436 1
85 235 1
85 236 1
85 237 1
85 277 1
85 279 1
85 291 1
85 305 1
85 306 1
85 318 1
85 319 1
85 321 1
85 334 1
85 337 1
85 353 1
85 354 1
85 367 1
85 368 1
85 382 1
85 383 1
85 410 1
85 437 1
86 225 1
86 237 1
86 238 1
86 239 1
86 279 1
86 293 1
86 307 1
86 308 1
86 320 1
86 321 1
86 323 1
86 336 1
86 339 1
86 355 1
86 356 1
86 369 1
86 370 1
86 384 1
86 385 1
86 412 1
86 439 1
87 225 1
87 227 1
87 239 1
87 240 1
87 241 1
87 282 1
87 295 1
87 309 1
87 310 1
87 322 1
87 323 1
87 325 1
87 341 1
87 357 1
87 358 1
87 371 1
87 372 1
87 386 1
87 387 1
87 414 1
87 441 1
88 227 1
88 229 1
88 241 1
88 242 1
88 243 1
88 284 1
88 297 1
88 311 1
88 312 1
88 324 1
88 325 1
88 327 1
88 343 1
88 359 1
88 360 1
88 373 1
88 374 1
88 388 1
88 389 1
88 416 1
88 443 1
89 229 1
89 231 1
89 243 1
89 244 1
89 245 1
89 286 1
89 299 1
89 313 1
89 314 1
89 326 1
89 327 1
89 329 1
89 345 1
89 361 1
89 362 1
89 375 1
89 376 1
89 390 1
89 391 1
89 418 1
89 445 1
90 231 1
90 233 1
90 245 1
90 246 1
90 247 1
90 288 1
90 301 1
90 315 1
90 316 1
90 328 1
90 329 1
90 331 1
90 337 1
90 347 1
90 363 1
90 364 1
90 377 1
90 378 1
90 392 1
90 420 1
90 447 1
91 233 1
91 235 1
91 247 1
91 248 1
91 249 1
91 290 1
91 303 1
91 317 1
91 318 1
91 330 1
91 331 1
91 333 1
91 338 1
91 339 1
91 349 1
91 365 1
91 366 1
91 379 1
91 380 1
91 393 1
91 422 1
92 235 1
92 237 1
92 249 1
92 250 1
92 251 1
92 292 1
92 305 1
92 319 1
92 320 1
92 332 1
92 333 1
92 335 1
92 340 1
92 341 1
92 351 1
92 367 1
92 368 1
92 381 1
92 382 1
92 395 1
92 424 1
93 237 1
93 239 1
93 251 1
93 252 1
93 253 1
93 281 1
93 294 1
93 307 1
93 321 1
93 322 1
93 334 1
93 335 1
93 342 1
93 343 1
93 353 1
93 369 1
93 370 1
93 383 1
93 384 1
93 397 1
93 426 1
94 239 1
94 241 1
94 253 1
94 254 1
94 255 1
94 281 1
94 283 1
94 296 1
94 309 1
94 323 1
94 324 1
94 336 1
94 344 1
94 345 1
94 355 1
94 371 1
94 372 1
94 385 1
94 386 1
94 399 1
94 428 1
95 241 1
95 243 1
95 255 1
95 256 1
95 257 1
95 282 1
95 283 1
95 285 1
95 298 1
95 311 1
95 325 1
95 326 1
95 346 1
95 347 1
95 357 1
95 373 1
95 374 1
95 387 1
95 388 1
95 401 1
95 430 1
96 243 1
96 245 1
96 257 1
96 258 1
96 259 1
96 284 1
96 285 1
96 287 1
96 300 1
96 313 1
96 327 1
96 328 1
96 348 1
96 349 1
96 359 1
96 375 1
96 376 1
96 389 1
96 390 1
96 403 1
96 432 1
97 245 1
97 247 1
97 259 1
97 260 1
97 261 1
97 286 1
97 287 1
97 289 1
97 302 1
97 315 1
97 329 1
97 330 1
97 350 1
97 351 1
97 361 1
97 377 1
97 378 1
97 391 1
97 392 1
97 405 1
97 434 1
98 247 1
98 249 1
98 261 1
98 262 1
98 263 1
98 288 1
98 289 1
98 291 1
98 304 1
98 317 1
98 331 1
98 332 1
98 337 1
98 338 1
98 352 1
98 353 1
98 363 1
98 379 1
98 380 1
98 407 1
98 436 1
99 249 1
99 251 1
99 263 1
99 264 1
99 265 1
99 290 1
99 291 1
99 293 1
99 306 1
99 319 1
99 333 1
99 334 1
99 339 1
99 340 1
99 354 1
99 355 1
99 365 1
99 381 1
99 382 1
99 409 1
99 438 1
100 251 1
100 253 1
100 265 1
100 266 1
100 267 1
100 292 1
100 293 1
100 295 1
100 308 1
100 321 1
100 335 1
100 336 1
100 341 1
100 342 1
100 356 1
100 357 1
100 367 1
100 383 1
100 384 1
100 411 1
100 440 1
101 253 1
101 255 1
101 267 1
101 268 1
101 269 1
101 281 1
101 282 1
101 294 1
101 295 1
101 297 1
101 310 1
101 323 1
101 343 1
101 344 1
101 358 1
101 359 1
101 369 1
101 385 1
101 386 1
101 413 1
101 442 1
102 255 1
102 257 1
102 269 1
102 270 1
102 271 1
102 283 1
102 284 1
102 296 1
102 297 1
102 299 1
102 312 1
102 325 1
102 345 1
102 346 1
102 360 1
102 361 1
102 371 1
102 387 1
102 388 1
102 415 1
102 444 1
103 257 1
103 259 1
103 271 1
103 272 1
103 273 1
103 285 1
103 286 1
103 298 1
103 299 1
103 301 1
103 314 1
103 327 1
103 347 1
103 348 1
103 362 1
103 363 1
103 373 1
103 389 1
103 390 1
103 417 1
103 446 1
104 259 1
104 261 1
104 273 1
104 274 1
104 275 1
104 287 1
104 288 1
104 300 1
104 301 1
104 303 1
104 316 1
104 329 1
104 349 1
104 350 1
104 364 1
104 365 1
104 375 1
104 391 1
104 392 1
104 419 1
104 448 1
105 261 1
105 263 1
105 275 1
105 276 1
105 277 1
105 289 1
105 290 1
105 302 1
105 303 1
105 305 1
105 318 1
105 331 1
105 337 1
105 338 1
105 351 1
105 352 1
105 366 1
105 367 1
105 377 1
105 394 1
105 421 1
106 263 1
106 265 1
106 277 1
106 278 1
106 279 1
106 291 1
106 292 1
106 304 1
106 305 1
106 307 1
106 320 1
106 333 1
106 339 1
106 340 1
106 353 1
106 354 1
106 368 1
106 369 1
106 379 1
106 396 1
106 423 1
107 225 1
107 265 1
107 267 1
107 279 1
107 280 1
107 293 1
107 294 1
107 306 1
107 307 1
107 309 1
107 322 1
107 335 1
107 341 1
107 342 1
107 355 1
107 356 1
107 370 1
107 371 1
107 381 1
107 398 1
107 425 1
108 225 1
108 226 1
108 227 1
108 267 1
108 269 1
108 281 1
108 295 1
108 296 1
108 308 1
108 309 1
108 311 1
108 324 1
108 343 1
108 344 1
108 357 1
108 358 1
108 372 1
108 373 1
108 383 1
108 400 1
108 427 1
109 227 1
109 228 1
109 229 1
109 269 1
109 271 1
109 283 1
109 297 1
109 298 1
109 310 1
109 311 1
109 313 1
109 326 1
109 345 1
109 346 1
109 359 1
109 360 1
109 374 1
109 375 1
109 385 1
109 402 1
109 429 1
110 229 1
110 230 1
110 231 1
110 271 1
110 273 1
110 285 1
110 299 1
110 300 1
110 312 1
110 313 1
110 315 1
110 328 1
110 347 1
110 348 1
110 361 1
110 362 1
110 376 1
110 377 1
110 387 1
110 404 1
110 431 1
111 231 1
111 232 1
111 233 1
111 273 1
111 275 1
111 287 1
111 301 1
111 302 1
111 314 1
111 315 1
111 317 1
111 330 1
111 349 1
111 350 1
111 363 1
111 364 1
111 378 1
111 379 1
111 389 1
111 406 1
111 433 1
112 233 1
112 234 1
112 235 1
112 275 1
112 277 1
112 289 1
112 303 1
112 304 1
112 316 1
112 317 1
112 319 1
112 332 1
112 351 1
112 352 1
112 365 1
112 366 1
112 380 1
112 381 1
112 391 1
112 408 1
112 435 1
