%%MatrixMarket matrix coordinate integer general
% GF(4) labels 0,1,2=omega,3=omega+1; arithmetic is NOT integer arithmetic.
% Coordinate indices are 1-based; omitted entries are zero.
56 224 1036
1 93 2
1 107 1
1 114 1
1 119 1
1 121 3
1 132 2
1 133 2
1 139 1
1 146 1
1 152 3
1 160 1
1 162 2
1 163 1
1 167 2
1 172 1
1 177 1
1 180 2
1 184 3
1 190 2
1 191 1
2 94 2
2 108 1
2 115 1
2 120 1
2 122 3
2 133 2
2 134 2
2 140 1
2 147 1
2 153 3
2 161 1
2 163 2
2 164 1
2 168 2
2 173 1
2 178 1
2 181 2
2 185 3
2 191 2
2 192 1
3 95 2
3 109 1
3 113 1
3 116 1
3 121 1
3 123 3
3 134 2
3 135 2
3 141 2
3 148 1
3 154 3
3 162 1
3 164 2
3 165 1
3 174 1
3 179 1
3 182 2
3 186 3
3 192 2
3 193 1
4 96 2
4 110 1
4 114 1
4 117 1
4 122 1
4 124 3
4 135 2
4 136 2
4 142 2
4 149 1
4 155 3
4 163 1
4 165 2
4 166 1
4 175 1
4 180 1
4 183 2
4 187 3
4 193 2
4 194 1
5 97 2
5 111 1
5 115 1
5 118 1
5 123 1
5 125 3
5 136 2
5 137 2
5 143 2
5 150 1
5 156 3
5 164 1
5 166 2
5 167 1
5 176 1
5 181 1
5 184 2
5 188 3
5 194 2
5 195 1
6 98 2
6 112 1
6 116 1
6 119 1
6 124 1
6 126 3
6 137 2
6 138 2
6 144 2
6 151 1
6 157 3
6 165 1
6 167 2
6 168 1
6 177 1
6 182 1
6 185 2
6 189 3
6 195 2
6 196 1
7 85 1
7 99 2
7 117 1
7 120 1
7 125 1
7 127 3
7 138 2
7 139 2
7 141 1
7 145 2
7 152 1
7 158 3
7 166 1
7 168 2
7 169 1
7 178 1
7 183 1
7 186 2
7 190 3
7 196 2
8 86 1
8 100 2
8 118 1
8 121 1
8 126 1
8 128 3
8 139 2
8 140 2
8 141 2
8 142 1
8 146 2
8 153 1
8 159 3
8 167 1
8 169 2
8 170 1
8 179 1
8 184 1
8 187 2
8 191 3
9 87 1
9 101 2
9 113 2
9 119 1
9 122 1
9 127 1
9 129 3
9 140 2
9 142 2
9 143 1
9 147 2
9 154 1
9 160 3
9 168 1
9 170 2
9 171 1
9 180 1
9 185 1
9 188 2
9 192 3
10 88 1
10 102 2
10 113 2
10 114 2
10 120 1
10 123 1
10 128 1
10 130 3
10 141 1
10 143 2
10 144 1
10 148 2
10 155 1
10 161 3
10 171 2
10 172 1
10 181 1
10 186 1
10 189 2
10 193 3
11 89 1
11 103 2
11 114 2
11 115 2
11 121 1
11 124 1
11 129 1
11 131 3
11 142 1
11 144 2
11 145 1
11 149 2
11 156 1
11 162 3
11 172 2
11 173 1
11 182 1
11 187 1
11 190 2
11 194 3
12 90 1
12 104 2
12 115 2
12 116 2
12 122 1
12 125 1
12 130 1
12 132 3
12 143 1
12 145 2
12 146 1
12 150 2
12 157 1
12 163 3
12 173 2
12 174 1
12 183 1
12 188 1
12 191 2
12 195 3
13 91 1
13 105 2
13 116 2
13 117 2
13 123 1
13 126 1
13 131 1
13 133 3
13 144 1
13 146 2
13 147 1
13 151 2
13 158 1
13 164 3
13 174 2
13 175 1
13 184 1
13 189 1
13 192 2
13 196 3
14 92 1
14 106 2
14 117 2
14 118 2
14 124 1
14 127 1
14 132 1
14 134 3
14 145 1
14 147 2
14 148 1
14 152 2
14 159 1
14 165 3
14 169 3
14 175 2
14 176 1
14 185 1
14 190 1
14 193 2
15 93 1
15 107 2
15 118 2
15 119 2
15 125 1
15 128 1
15 133 1
15 135 3
15 146 1
15 148 2
15 149 1
15 153 2
15 160 1
15 166 3
15 170 3
15 176 2
15 177 1
15 186 1
15 191 1
15 194 2
16 94 1
16 108 2
16 119 2
16 120 2
16 126 1
16 129 1
16 134 1
16 136 3
16 147 1
16 149 2
16 150 1
16 154 2
16 161 1
16 167 3
16 171 3
16 177 2
16 178 1
16 187 1
16 192 1
16 195 2
17 95 1
17 109 2
17 120 2
17 121 2
17 127 1
17 130 1
17 135 1
17 137 3
17 148 1
17 150 2
17 151 1
17 155 2
17 162 1
17 168 3
17 172 3
17 178 2
17 179 1
17 188 1
17 193 1
17 196 2
18 96 1
18 110 2
18 121 2
18 122 2
18 128 1
18 131 1
18 136 1
18 138 3
18 141 3
18 149 1
18 151 2
18 152 1
18 156 2
18 163 1
18 169 2
18 173 3
18 179 2
18 180 1
18 189 1
18 194 1
19 97 1
19 111 2
19 122 2
19 123 2
19 129 1
19 132 1
19 137 1
19 139 3
19 142 3
19 150 1
19 152 2
19 153 1
19 157 2
19 164 1
19 170 2
19 174 3
19 180 2
19 181 1
19 190 1
19 195 1
20 98 1
20 112 2
20 123 2
20 124 2
20 130 1
20 133 1
20 138 1
20 140 3
20 143 3
20 151 1
20 153 2
20 154 1
20 158 2
20 165 1
20 171 2
20 175 3
20 181 2
20 182 1
20 191 1
20 196 1
21 85 2
21 99 1
21 113 3
21 124 2
21 125 2
21 131 1
21 134 1
21 139 1
21 144 3
21 152 1
21 154 2
21 155 1
21 159 2
21 166 1
21 169 1
21 172 2
21 176 3
21 182 2
21 183 1
21 192 1
22 86 2
22 100 1
22 114 3
22 125 2
22 126 2
22 132 1
22 135 1
22 140 1
22 145 3
22 153 1
22 155 2
22 156 1
22 160 2
22 167 1
22 170 1
22 173 2
22 177 3
22 183 2
22 184 1
22 193 1
23 87 2
23 101 1
23 113 1
23 115 3
23 126 2
23 127 2
23 133 1
23 136 1
23 146 3
23 154 1
23 156 2
23 157 1
23 161 2
23 168 1
23 171 1
23 174 2
23 178 3
23 184 2
23 185 1
23 194 1
24 88 2
24 102 1
24 114 1
24 116 3
24 127 2
24 128 2
24 134 1
24 137 1
24 141 1
24 147 3
24 155 1
24 157 2
24 158 1
24 162 2
24 172 1
24 175 2
24 179 3
24 185 2
24 186 1
24 195 1
25 89 2
25 103 1
25 115 1
25 117 3
25 128 2
25 129 2
25 135 1
25 138 1
25 142 1
25 148 3
25 156 1
25 158 2
25 159 1
25 163 2
25 173 1
25 176 2
25 180 3
25 186 2
25 187 1
25 196 1
26 90 2
26 104 1
26 116 1
26 118 3
26 129 2
26 130 2
26 136 1
26 139 1
26 143 1
26 149 3
26 157 1
26 159 2
26 160 1
26 164 2
26 169 1
26 174 1
26 177 2
26 181 3
26 187 2
26 188 1
27 91 2
27 105 1
27 117 1
27 119 3
27 130 2
27 131 2
27 137 1
27 140 1
27 144 1
27 150 3
27 158 1
27 160 2
27 161 1
27 165 2
27 170 1
27 175 1
27 178 2
27 182 3
27 188 2
27 189 1
28 92 2
28 106 1
28 113 1
28 118 1
28 120 3
28 131 2
28 132 2
28 138 1
28 145 1
28 151 3
28 159 1
28 161 2
28 162 1
28 166 2
28 171 1
28 176 1
28 179 2
28 183 3
28 189 2
28 190 1
29 118 2
29 119 3
29 139 3
29 140 3
29 146 3
29 153 2
29 159 1
29 160 3
29 161 3
29 167 1
29 169 3
29 177 2
29 184 2
29 191 1
29 192 3
29 205 1
29 219 3
30 113 3
30 119 2
30 120 3
30 140 3
30 147 3
30 154 2
30 160 1
30 161 3
30 162 3
30 168 1
30 170 3
30 178 2
30 185 2
30 192 1
30 193 3
30 206 1
30 220 3
31 113 3
31 114 3
31 120 2
31 121 3
31 141 1
31 148 3
31 155 2
31 161 1
31 162 3
31 163 3
31 171 3
31 179 2
31 186 2
31 193 1
31 194 3
31 207 1
31 221 3
32 114 3
32 115 3
32 121 2
32 122 3
32 142 1
32 149 3
32 156 2
32 162 1
32 163 3
32 164 3
32 172 3
32 180 2
32 187 2
32 194 1
32 195 3
32 208 1
32 222 3
33 115 3
33 116 3
33 122 2
33 123 3
33 143 1
33 150 3
33 157 2
33 163 1
33 164 3
33 165 3
33 173 3
33 181 2
33 188 2
33 195 1
33 196 3
33 209 1
33 223 3
34 116 3
34 117 3
34 123 2
34 124 3
34 144 1
34 151 3
34 158 2
34 164 1
34 165 3
34 166 3
34 169 3
34 174 3
34 182 2
34 189 2
34 196 1
34 210 1
34 224 3
35 117 3
35 118 3
35 124 2
35 125 3
35 145 1
35 152 3
35 159 2
35 165 1
35 166 3
35 167 3
35 169 1
35 170 3
35 175 3
35 183 2
35 190 2
35 197 3
35 211 1
36 118 3
36 119 3
36 125 2
36 126 3
36 146 1
36 153 3
36 160 2
36 166 1
36 167 3
36 168 3
36 170 1
36 171 3
36 176 3
36 184 2
36 191 2
36 198 3
36 212 1
37 119 3
37 120 3
37 126 2
37 127 3
37 141 3
37 147 1
37 154 3
37 161 2
37 167 1
37 168 3
37 171 1
37 172 3
37 177 3
37 185 2
37 192 2
37 199 3
37 213 1
38 120 3
38 121 3
38 127 2
38 128 3
38 141 3
38 142 3
38 148 1
38 155 3
38 162 2
38 168 1
38 172 1
38 173 3
38 178 3
38 186 2
38 193 2
38 200 3
38 214 1
39 121 3
39 122 3
39 128 2
39 129 3
39 141 1
39 142 3
39 143 3
39 149 1
39 156 3
39 163 2
39 173 1
39 174 3
39 179 3
39 187 2
39 194 2
39 201 3
39 215 1
40 122 3
40 123 3
40 129 2
40 130 3
40 142 1
40 143 3
40 144 3
40 150 1
40 157 3
40 164 2
40 174 1
40 175 3
40 180 3
40 188 2
40 195 2
40 202 3
40 216 1
41 123 3
41 124 3
41 130 2
41 131 3
41 143 1
41 144 3
41 145 3
41 151 1
41 158 3
41 165 2
41 175 1
41 176 3
41 181 3
41 189 2
41 196 2
41 203 3
41 217 1
42 124 3
42 125 3
42 131 2
42 132 3
42 144 1
42 145 3
42 146 3
42 152 1
42 159 3
42 166 2
42 169 2
42 176 1
42 177 3
42 182 3
42 190 2
42 204 3
42 218 1
43 125 3
43 126 3
43 132 2
43 133 3
43 145 1
43 146 3
43 147 3
43 153 1
43 160 3
43 167 2
43 170 2
43 177 1
43 178 3
43 183 3
43 191 2
43 205 3
43 219 1
44 126 3
44 127 3
44 133 2
44 134 3
44 146 1
44 147 3
44 148 3
44 154 1
44 161 3
44 168 2
44 171 2
44 178 1
44 179 3
44 184 3
44 192 2
44 206 3
44 220 1
45 127 3
45 128 3
45 134 2
45 135 3
45 141 2
45 147 1
45 148 3
45 149 3
45 155 1
45 162 3
45 172 2
45 179 1
45 180 3
45 185 3
45 193 2
45 207 3
45 221 1
46 128 3
46 129 3
46 135 2
46 136 3
46 142 2
46 148 1
46 149 3
46 150 3
46 156 1
46 163 3
46 173 2
46 180 1
46 181 3
46 186 3
46 194 2
46 208 3
46 222 1
47 129 3
47 130 3
47 136 2
47 137 3
47 143 2
47 149 1
47 150 3
47 151 3
47 157 1
47 164 3
47 174 2
47 181 1
47 182 3
47 187 3
47 195 2
47 209 3
47 223 1
48 130 3
48 131 3
48 137 2
48 138 3
48 144 2
48 150 1
48 151 3
48 152 3
48 158 1
48 165 3
48 175 2
48 182 1
48 183 3
48 188 3
48 196 2
48 210 3
48 224 1
49 131 3
49 132 3
49 138 2
49 139 3
49 145 2
49 151 1
49 152 3
49 153 3
49 159 1
49 166 3
49 169 2
49 176 2
49 183 1
49 184 3
49 189 3
49 197 1
49 211 3
50 132 3
50 133 3
50 139 2
50 140 3
50 146 2
50 152 1
50 153 3
50 154 3
50 160 1
50 167 3
50 170 2
50 177 2
50 184 1
50 185 3
50 190 3
50 198 1
50 212 3
51 113 3
51 133 3
51 134 3
51 140 2
51 147 2
51 153 1
51 154 3
51 155 3
51 161 1
51 168 3
51 171 2
51 178 2
51 185 1
51 186 3
51 191 3
51 199 1
51 213 3
52 113 2
52 114 3
52 134 3
52 135 3
52 141 3
52 148 2
52 154 1
52 155 3
52 156 3
52 162 1
52 172 2
52 179 2
52 186 1
52 187 3
52 192 3
52 200 1
52 214 3
53 114 2
53 115 3
53 135 3
53 136 3
53 142 3
53 149 2
53 155 1
53 156 3
53 157 3
53 163 1
53 173 2
53 180 2
53 187 1
53 188 3
53 193 3
53 201 1
53 215 3
54 115 2
54 116 3
54 136 3
54 137 3
54 143 3
54 150 2
54 156 1
54 157 3
54 158 3
54 164 1
54 174 2
54 181 2
54 188 1
54 189 3
54 194 3
54 202 1
54 216 3
55 116 2
55 117 3
55 137 3
55 138 3
55 144 3
55 151 2
55 157 1
55 158 3
55 159 3
55 165 1
55 175 2
55 182 2
55 189 1
55 190 3
55 195 3
55 203 1
55 217 3
56 117 2
56 118 3
56 138 3
56 139 3
56 145 3
56 152 2
56 158 1
56 159 3
56 160 3
56 166 1
56 176 2
56 183 2
56 190 1
56 191 3
56 196 3
56 204 1
56 218 3
