%%MatrixMarket matrix coordinate integer general
% Binary matrix over GF(2).
% Coordinate indices are 1-based; omitted entries are zero.
112 448 2716
1 7 1
1 8 1
1 17 1
1 18 1
1 19 1
1 34 1
1 48 1
1 59 1
1 60 1
1 61 1
1 62 1
1 63 1
1 76 1
1 89 1
1 90 1
1 103 1
1 115 1
1 116 1
1 117 1
1 118 1
1 157 1
1 158 1
1 160 1
1 185 1
1 213 1
1 214 1
2 9 1
2 10 1
2 19 1
2 20 1
2 21 1
2 36 1
2 50 1
2 61 1
2 62 1
2 63 1
2 64 1
2 65 1
2 78 1
2 91 1
2 92 1
2 105 1
2 117 1
2 118 1
2 119 1
2 120 1
2 159 1
2 160 1
2 162 1
2 187 1
2 215 1
2 216 1
3 11 1
3 12 1
3 21 1
3 22 1
3 23 1
3 38 1
3 52 1
3 63 1
3 64 1
3 65 1
3 66 1
3 67 1
3 80 1
3 93 1
3 94 1
3 107 1
3 119 1
3 120 1
3 121 1
3 122 1
3 161 1
3 162 1
3 164 1
3 189 1
3 217 1
3 218 1
4 13 1
4 14 1
4 23 1
4 24 1
4 25 1
4 40 1
4 54 1
4 65 1
4 66 1
4 67 1
4 68 1
4 69 1
4 82 1
4 95 1
4 96 1
4 109 1
4 121 1
4 122 1
4 123 1
4 124 1
4 163 1
4 164 1
4 166 1
4 191 1
4 219 1
4 220 1
5 15 1
5 16 1
5 25 1
5 26 1
5 27 1
5 42 1
5 56 1
5 67 1
5 68 1
5 69 1
5 70 1
5 71 1
5 84 1
5 97 1
5 98 1
5 111 1
5 123 1
5 124 1
5 125 1
5 126 1
5 165 1
5 166 1
5 168 1
5 193 1
5 221 1
5 222 1
6 2 1
6 17 1
6 18 1
6 27 1
6 28 1
6 29 1
6 44 1
6 57 1
6 69 1
6 70 1
6 71 1
6 72 1
6 73 1
6 86 1
6 99 1
6 100 1
6 114 1
6 125 1
6 126 1
6 127 1
6 128 1
6 167 1
6 168 1
6 195 1
6 223 1
6 224 1
7 4 1
7 19 1
7 20 1
7 29 1
7 30 1
7 31 1
7 46 1
7 59 1
7 71 1
7 72 1
7 73 1
7 74 1
7 75 1
7 88 1
7 101 1
7 102 1
7 113 1
7 114 1
7 116 1
7 127 1
7 128 1
7 129 1
7 130 1
7 169 1
7 170 1
7 197 1
8 6 1
8 21 1
8 22 1
8 31 1
8 32 1
8 33 1
8 48 1
8 61 1
8 73 1
8 74 1
8 75 1
8 76 1
8 77 1
8 90 1
8 103 1
8 104 1
8 115 1
8 116 1
8 118 1
8 129 1
8 130 1
8 131 1
8 132 1
8 171 1
8 172 1
8 199 1
9 8 1
9 23 1
9 24 1
9 33 1
9 34 1
9 35 1
9 50 1
9 63 1
9 75 1
9 76 1
9 77 1
9 78 1
9 79 1
9 92 1
9 105 1
9 106 1
9 117 1
9 118 1
9 120 1
9 131 1
9 132 1
9 133 1
9 134 1
9 173 1
9 174 1
9 201 1
10 10 1
10 25 1
10 26 1
10 35 1
10 36 1
10 37 1
10 52 1
10 65 1
10 77 1
10 78 1
10 79 1
10 80 1
10 81 1
10 94 1
10 107 1
10 108 1
10 119 1
10 120 1
10 122 1
10 133 1
10 134 1
10 135 1
10 136 1
10 175 1
10 176 1
10 203 1
11 12 1
11 27 1
11 28 1
11 37 1
11 38 1
11 39 1
11 54 1
11 67 1
11 79 1
11 80 1
11 81 1
11 82 1
11 83 1
11 96 1
11 109 1
11 110 1
11 121 1
11 122 1
11 124 1
11 135 1
11 136 1
11 137 1
11 138 1
11 177 1
11 178 1
11 205 1
12 14 1
12 29 1
12 30 1
12 39 1
12 40 1
12 41 1
12 56 1
12 69 1
12 81 1
12 82 1
12 83 1
12 84 1
12 85 1
12 98 1
12 111 1
12 112 1
12 123 1
12 124 1
12 126 1
12 137 1
12 138 1
12 139 1
12 140 1
12 179 1
12 180 1
12 207 1
13 2 1
13 16 1
13 31 1
13 32 1
13 41 1
13 42 1
13 43 1
13 57 1
13 58 1
13 71 1
13 83 1
13 84 1
13 85 1
13 86 1
13 87 1
13 100 1
13 125 1
13 126 1
13 128 1
13 139 1
13 140 1
13 141 1
13 142 1
13 181 1
13 182 1
13 209 1
14 4 1
14 18 1
14 33 1
14 34 1
14 43 1
14 44 1
14 45 1
14 59 1
14 60 1
14 73 1
14 85 1
14 86 1
14 87 1
14 88 1
14 89 1
14 102 1
14 127 1
14 128 1
14 130 1
14 141 1
14 142 1
14 143 1
14 144 1
14 183 1
14 184 1
14 211 1
15 6 1
15 20 1
15 35 1
15 36 1
15 45 1
15 46 1
15 47 1
15 61 1
15 62 1
15 75 1
15 87 1
15 88 1
15 89 1
15 90 1
15 91 1
15 104 1
15 129 1
15 130 1
15 132 1
15 143 1
15 144 1
15 145 1
15 146 1
15 185 1
15 186 1
15 213 1
16 8 1
16 22 1
16 37 1
16 38 1
16 47 1
16 48 1
16 49 1
16 63 1
16 64 1
16 77 1
16 89 1
16 90 1
16 91 1
16 92 1
16 93 1
16 106 1
16 131 1
16 132 1
16 134 1
16 145 1
16 146 1
16 147 1
16 148 1
16 187 1
16 188 1
16 215 1
17 10 1
17 24 1
17 39 1
17 40 1
17 49 1
17 50 1
17 51 1
17 65 1
17 66 1
17 79 1
17 91 1
17 92 1
17 93 1
17 94 1
17 95 1
17 108 1
17 133 1
17 134 1
17 136 1
17 147 1
17 148 1
17 149 1
17 150 1
17 189 1
17 190 1
17 217 1
18 12 1
18 26 1
18 41 1
18 42 1
18 51 1
18 52 1
18 53 1
18 67 1
18 68 1
18 81 1
18 93 1
18 94 1
18 95 1
18 96 1
18 97 1
18 110 1
18 135 1
18 136 1
18 138 1
18 149 1
18 150 1
18 151 1
18 152 1
18 191 1
18 192 1
18 219 1
19 14 1
19 28 1
19 43 1
19 44 1
19 53 1
19 54 1
19 55 1
19 69 1
19 70 1
19 83 1
19 95 1
19 96 1
19 97 1
19 98 1
19 99 1
19 112 1
19 137 1
19 138 1
19 140 1
19 151 1
19 152 1
19 153 1
19 154 1
19 193 1
19 194 1
19 221 1
20 1 1
20 16 1
20 30 1
20 45 1
20 46 1
20 55 1
20 56 1
20 58 1
20 71 1
20 72 1
20 85 1
20 97 1
20 98 1
20 99 1
20 100 1
20 101 1
20 139 1
20 140 1
20 142 1
20 153 1
20 154 1
20 155 1
20 156 1
20 195 1
20 196 1
20 223 1
21 1 1
21 2 1
21 3 1
21 18 1
21 32 1
21 47 1
21 48 1
21 60 1
21 73 1
21 74 1
21 87 1
21 99 1
21 100 1
21 101 1
21 102 1
21 103 1
21 141 1
21 142 1
21 144 1
21 155 1
21 156 1
21 157 1
21 158 1
21 169 1
21 197 1
21 198 1
22 3 1
22 4 1
22 5 1
22 20 1
22 34 1
22 49 1
22 50 1
22 62 1
22 75 1
22 76 1
22 89 1
22 101 1
22 102 1
22 103 1
22 104 1
22 105 1
22 143 1
22 144 1
22 146 1
22 157 1
22 158 1
22 159 1
22 160 1
22 171 1
22 199 1
22 200 1
23 5 1
23 6 1
23 7 1
23 22 1
23 36 1
23 51 1
23 52 1
23 64 1
23 77 1
23 78 1
23 91 1
23 103 1
23 104 1
23 105 1
23 106 1
23 107 1
23 145 1
23 146 1
23 148 1
23 159 1
23 160 1
23 161 1
23 162 1
23 173 1
23 201 1
23 202 1
24 7 1
24 8 1
24 9 1
24 24 1
24 38 1
24 53 1
24 54 1
24 66 1
24 79 1
24 80 1
24 93 1
24 105 1
24 106 1
24 107 1
24 108 1
24 109 1
24 147 1
24 148 1
24 150 1
24 161 1
24 162 1
24 163 1
24 164 1
24 175 1
24 203 1
24 204 1
25 9 1
25 10 1
25 11 1
25 26 1
25 40 1
25 55 1
25 56 1
25 68 1
25 81 1
25 82 1
25 95 1
25 107 1
25 108 1
25 109 1
25 110 1
25 111 1
25 149 1
25 150 1
25 152 1
25 163 1
25 164 1
25 165 1
25 166 1
25 177 1
25 205 1
25 206 1
26 1 1
26 2 1
26 11 1
26 12 1
26 13 1
26 28 1
26 42 1
26 57 1
26 70 1
26 83 1
26 84 1
26 97 1
26 109 1
26 110 1
26 111 1
26 112 1
26 151 1
26 152 1
26 154 1
26 165 1
26 166 1
26 167 1
26 168 1
26 179 1
26 207 1
26 208 1
27 3 1
27 4 1
27 13 1
27 14 1
27 15 1
27 30 1
27 44 1
27 57 1
27 58 1
27 59 1
27 72 1
27 85 1
27 86 1
27 99 1
27 111 1
27 112 1
27 113 1
27 114 1
27 153 1
27 154 1
27 156 1
27 167 1
27 168 1
27 181 1
27 209 1
27 210 1
28 5 1
28 6 1
28 15 1
28 16 1
28 17 1
28 32 1
28 46 1
28 57 1
28 58 1
28 59 1
28 60 1
28 61 1
28 74 1
28 87 1
28 88 1
28 101 1
28 113 1
28 114 1
28 115 1
28 116 1
28 155 1
28 156 1
28 158 1
28 183 1
28 211 1
28 212 1
29 7 1
29 17 1
29 20 1
29 33 1
29 34 1
29 47 1
29 48 1
29 59 1
29 61 1
29 64 1
29 75 1
29 76 1
29 89 1
29 104 1
29 115 1
29 117 1
29 157 1
29 159 1
29 160 1
29 186 1
29 213 1
30 9 1
30 19 1
30 22 1
30 35 1
30 36 1
30 49 1
30 50 1
30 61 1
30 63 1
30 66 1
30 77 1
30 78 1
30 91 1
30 106 1
30 117 1
30 119 1
30 159 1
30 161 1
30 162 1
30 188 1
30 215 1
31 11 1
31 21 1
31 24 1
31 37 1
31 38 1
31 51 1
31 52 1
31 63 1
31 65 1
31 68 1
31 79 1
31 80 1
31 93 1
31 108 1
31 119 1
31 121 1
31 161 1
31 163 1
31 164 1
31 190 1
31 217 1
32 13 1
32 23 1
32 26 1
32 39 1
32 40 1
32 53 1
32 54 1
32 65 1
32 67 1
32 70 1
32 81 1
32 82 1
32 95 1
32 110 1
32 121 1
32 123 1
32 163 1
32 165 1
32 166 1
32 192 1
32 219 1
33 15 1
33 25 1
33 28 1
33 41 1
33 42 1
33 55 1
33 56 1
33 67 1
33 69 1
33 72 1
33 83 1
33 84 1
33 97 1
33 112 1
33 123 1
33 125 1
33 165 1
33 167 1
33 168 1
33 194 1
33 221 1
34 1 1
34 2 1
34 17 1
34 27 1
34 30 1
34 43 1
34 44 1
34 58 1
34 69 1
34 71 1
34 74 1
34 85 1
34 86 1
34 99 1
34 113 1
34 114 1
34 125 1
34 127 1
34 167 1
34 196 1
34 223 1
35 3 1
35 4 1
35 19 1
35 29 1
35 32 1
35 45 1
35 46 1
35 60 1
35 71 1
35 73 1
35 76 1
35 87 1
35 88 1
35 101 1
35 113 1
35 115 1
35 116 1
35 127 1
35 129 1
35 169 1
35 198 1
36 5 1
36 6 1
36 21 1
36 31 1
36 34 1
36 47 1
36 48 1
36 62 1
36 73 1
36 75 1
36 78 1
36 89 1
36 90 1
36 103 1
36 115 1
36 117 1
36 118 1
36 129 1
36 131 1
36 171 1
36 200 1
37 7 1
37 8 1
37 23 1
37 33 1
37 36 1
37 49 1
37 50 1
37 64 1
37 75 1
37 77 1
37 80 1
37 91 1
37 92 1
37 105 1
37 117 1
37 119 1
37 120 1
37 131 1
37 133 1
37 173 1
37 202 1
38 9 1
38 10 1
38 25 1
38 35 1
38 38 1
38 51 1
38 52 1
38 66 1
38 77 1
38 79 1
38 82 1
38 93 1
38 94 1
38 107 1
38 119 1
38 121 1
38 122 1
38 133 1
38 135 1
38 175 1
38 204 1
39 11 1
39 12 1
39 27 1
39 37 1
39 40 1
39 53 1
39 54 1
39 68 1
39 79 1
39 81 1
39 84 1
39 95 1
39 96 1
39 109 1
39 121 1
39 123 1
39 124 1
39 135 1
39 137 1
39 177 1
39 206 1
40 13 1
40 14 1
40 29 1
40 39 1
40 42 1
40 55 1
40 56 1
40 70 1
40 81 1
40 83 1
40 86 1
40 97 1
40 98 1
40 111 1
40 123 1
40 125 1
40 126 1
40 137 1
40 139 1
40 179 1
40 208 1
41 1 1
41 2 1
41 15 1
41 16 1
41 31 1
41 41 1
41 44 1
41 57 1
41 72 1
41 83 1
41 85 1
41 88 1
41 99 1
41 100 1
41 125 1
41 127 1
41 128 1
41 139 1
41 141 1
41 181 1
41 210 1
42 3 1
42 4 1
42 17 1
42 18 1
42 33 1
42 43 1
42 46 1
42 59 1
42 74 1
42 85 1
42 87 1
42 90 1
42 101 1
42 102 1
42 127 1
42 129 1
42 130 1
42 141 1
42 143 1
42 183 1
42 212 1
43 5 1
43 6 1
43 19 1
43 20 1
43 35 1
43 45 1
43 48 1
43 61 1
43 76 1
43 87 1
43 89 1
43 92 1
43 103 1
43 104 1
43 129 1
43 131 1
43 132 1
43 143 1
43 145 1
43 185 1
43 214 1
44 7 1
44 8 1
44 21 1
44 22 1
44 37 1
44 47 1
44 50 1
44 63 1
44 78 1
44 89 1
44 91 1
44 94 1
44 105 1
44 106 1
44 131 1
44 133 1
44 134 1
44 145 1
44 147 1
44 187 1
44 216 1
45 9 1
45 10 1
45 23 1
45 24 1
45 39 1
45 49 1
45 52 1
45 65 1
45 80 1
45 91 1
45 93 1
45 96 1
45 107 1
45 108 1
45 133 1
45 135 1
45 136 1
45 147 1
45 149 1
45 189 1
45 218 1
46 11 1
46 12 1
46 25 1
46 26 1
46 41 1
46 51 1
46 54 1
46 67 1
46 82 1
46 93 1
46 95 1
46 98 1
46 109 1
46 110 1
46 135 1
46 137 1
46 138 1
46 149 1
46 151 1
46 191 1
46 220 1
47 13 1
47 14 1
47 27 1
47 28 1
47 43 1
47 53 1
47 56 1
47 69 1
47 84 1
47 95 1
47 97 1
47 100 1
47 111 1
47 112 1
47 137 1
47 139 1
47 140 1
47 151 1
47 153 1
47 193 1
47 222 1
48 2 1
48 15 1
48 16 1
48 29 1
48 30 1
48 45 1
48 55 1
48 57 1
48 58 1
48 71 1
48 86 1
48 97 1
48 99 1
48 102 1
48 139 1
48 141 1
48 142 1
48 153 1
48 155 1
48 195 1
48 224 1
49 1 1
49 4 1
49 17 1
49 18 1
49 31 1
49 32 1
49 47 1
49 59 1
49 60 1
49 73 1
49 88 1
49 99 1
49 101 1
49 104 1
49 141 1
49 143 1
49 144 1
49 155 1
49 157 1
49 170 1
49 197 1
50 3 1
50 6 1
50 19 1
50 20 1
50 33 1
50 34 1
50 49 1
50 61 1
50 62 1
50 75 1
50 90 1
50 101 1
50 103 1
50 106 1
50 143 1
50 145 1
50 146 1
50 157 1
50 159 1
50 172 1
50 199 1
51 5 1
51 8 1
51 21 1
51 22 1
51 35 1
51 36 1
51 51 1
51 63 1
51 64 1
51 77 1
51 92 1
51 103 1
51 105 1
51 108 1
51 145 1
51 147 1
51 148 1
51 159 1
51 161 1
51 174 1
51 201 1
52 7 1
52 10 1
52 23 1
52 24 1
52 37 1
52 38 1
52 53 1
52 65 1
52 66 1
52 79 1
52 94 1
52 105 1
52 107 1
52 110 1
52 147 1
52 149 1
52 150 1
52 161 1
52 163 1
52 176 1
52 203 1
53 9 1
53 12 1
53 25 1
53 26 1
53 39 1
53 40 1
53 55 1
53 67 1
53 68 1
53 81 1
53 96 1
53 107 1
53 109 1
53 112 1
53 149 1
53 151 1
53 152 1
53 163 1
53 165 1
53 178 1
53 205 1
54 1 1
54 11 1
54 14 1
54 27 1
54 28 1
54 41 1
54 42 1
54 58 1
54 69 1
54 70 1
54 83 1
54 98 1
54 109 1
54 111 1
54 151 1
54 153 1
54 154 1
54 165 1
54 167 1
54 180 1
54 207 1
55 3 1
55 13 1
55 16 1
55 29 1
55 30 1
55 43 1
55 44 1
55 57 1
55 60 1
55 71 1
55 72 1
55 85 1
55 100 1
55 111 1
55 113 1
55 153 1
55 155 1
55 156 1
55 167 1
55 182 1
55 209 1
56 5 1
56 15 1
56 18 1
56 31 1
56 32 1
56 45 1
56 46 1
56 57 1
56 59 1
56 62 1
56 73 1
56 74 1
56 87 1
56 102 1
56 113 1
56 115 1
56 155 1
56 157 1
56 158 1
56 184 1
56 211 1
57 1 1
57 19 1
57 22 1
57 33 1
57 34 1
57 42 1
57 47 1
57 58 1
57 61 1
57 77 1
57 78 1
57 89 1
57 104 1
57 111 1
57 117 1
57 130 1
57 132 1
57 153 1
57 154 1
57 157 1
57 167 1
57 410 1
57 437 1
58 3 1
58 21 1
58 24 1
58 35 1
58 36 1
58 44 1
58 49 1
58 57 1
58 60 1
58 63 1
58 79 1
58 80 1
58 91 1
58 106 1
58 113 1
58 119 1
58 132 1
58 134 1
58 155 1
58 156 1
58 159 1
58 412 1
58 439 1
59 5 1
59 23 1
59 26 1
59 37 1
59 38 1
59 46 1
59 51 1
59 59 1
59 62 1
59 65 1
59 81 1
59 82 1
59 93 1
59 108 1
59 115 1
59 121 1
59 134 1
59 136 1
59 157 1
59 158 1
59 161 1
59 414 1
59 441 1
60 7 1
60 25 1
60 28 1
60 39 1
60 40 1
60 48 1
60 53 1
60 61 1
60 64 1
60 67 1
60 83 1
60 84 1
60 95 1
60 110 1
60 117 1
60 123 1
60 136 1
60 138 1
60 159 1
60 160 1
60 163 1
60 416 1
60 443 1
61 9 1
61 27 1
61 30 1
61 41 1
61 42 1
61 50 1
61 55 1
61 63 1
61 66 1
61 69 1
61 85 1
61 86 1
61 97 1
61 112 1
61 119 1
61 125 1
61 138 1
61 140 1
61 161 1
61 162 1
61 165 1
61 418 1
61 445 1
62 1 1
62 11 1
62 29 1
62 32 1
62 43 1
62 44 1
62 52 1
62 58 1
62 65 1
62 68 1
62 71 1
62 87 1
62 88 1
62 99 1
62 121 1
62 127 1
62 140 1
62 142 1
62 163 1
62 164 1
62 167 1
62 420 1
62 447 1
63 3 1
63 13 1
63 31 1
63 34 1
63 45 1
63 46 1
63 54 1
63 60 1
63 67 1
63 70 1
63 73 1
63 89 1
63 90 1
63 101 1
63 113 1
63 123 1
63 129 1
63 142 1
63 144 1
63 165 1
63 166 1
63 393 1
63 422 1
64 5 1
64 15 1
64 33 1
64 36 1
64 47 1
64 48 1
64 56 1
64 62 1
64 69 1
64 72 1
64 75 1
64 91 1
64 92 1
64 103 1
64 115 1
64 125 1
64 131 1
64 144 1
64 146 1
64 167 1
64 168 1
64 395 1
64 424 1
65 2 1
65 7 1
65 17 1
65 35 1
65 38 1
65 49 1
65 50 1
65 64 1
65 71 1
65 74 1
65 77 1
65 93 1
65 94 1
65 105 1
65 113 1
65 114 1
65 117 1
65 127 1
65 133 1
65 146 1
65 148 1
65 397 1
65 426 1
66 4 1
66 9 1
66 19 1
66 37 1
66 40 1
66 51 1
66 52 1
66 66 1
66 73 1
66 76 1
66 79 1
66 95 1
66 96 1
66 107 1
66 115 1
66 116 1
66 119 1
66 129 1
66 135 1
66 148 1
66 150 1
66 399 1
66 428 1
67 6 1
67 11 1
67 21 1
67 39 1
67 42 1
67 53 1
67 54 1
67 68 1
67 75 1
67 78 1
67 81 1
67 97 1
67 98 1
67 109 1
67 117 1
67 118 1
67 121 1
67 131 1
67 137 1
67 150 1
67 152 1
67 401 1
67 430 1
68 8 1
68 13 1
68 23 1
68 41 1
68 44 1
68 55 1
68 56 1
68 70 1
68 77 1
68 80 1
68 83 1
68 99 1
68 100 1
68 111 1
68 119 1
68 120 1
68 123 1
68 133 1
68 139 1
68 152 1
68 154 1
68 403 1
68 432 1
69 1 1
69 2 1
69 10 1
69 15 1
69 25 1
69 43 1
69 46 1
69 57 1
69 72 1
69 79 1
69 82 1
69 85 1
69 101 1
69 102 1
69 121 1
69 122 1
69 125 1
69 135 1
69 141 1
69 154 1
69 156 1
69 405 1
69 434 1
70 3 1
70 4 1
70 12 1
70 17 1
70 27 1
70 45 1
70 48 1
70 59 1
70 74 1
70 81 1
70 84 1
70 87 1
70 103 1
70 104 1
70 123 1
70 124 1
70 127 1
70 137 1
70 143 1
70 156 1
70 158 1
70 407 1
70 436 1
71 5 1
71 6 1
71 14 1
71 19 1
71 29 1
71 47 1
71 50 1
71 61 1
71 76 1
71 83 1
71 86 1
71 89 1
71 105 1
71 106 1
71 125 1
71 126 1
71 129 1
71 139 1
71 145 1
71 158 1
71 160 1
71 409 1
71 438 1
72 7 1
72 8 1
72 16 1
72 21 1
72 31 1
72 49 1
72 52 1
72 63 1
72 78 1
72 85 1
72 88 1
72 91 1
72 107 1
72 108 1
72 127 1
72 128 1
72 131 1
72 141 1
72 147 1
72 160 1
72 162 1
72 411 1
72 440 1
73 9 1
73 10 1
73 18 1
73 23 1
73 33 1
73 51 1
73 54 1
73 65 1
73 80 1
73 87 1
73 90 1
73 93 1
73 109 1
73 110 1
73 129 1
73 130 1
73 133 1
73 143 1
73 149 1
73 162 1
73 164 1
73 413 1
73 442 1
74 11 1
74 12 1
74 20 1
74 25 1
74 35 1
74 53 1
74 56 1
74 67 1
74 82 1
74 89 1
74 92 1
74 95 1
74 111 1
74 112 1
74 131 1
74 132 1
74 135 1
74 145 1
74 151 1
74 164 1
74 166 1
74 415 1
74 444 1
75 2 1
75 13 1
75 14 1
75 22 1
75 27 1
75 37 1
75 55 1
75 57 1
75 58 1
75 69 1
75 84 1
75 91 1
75 94 1
75 97 1
75 133 1
75 134 1
75 137 1
75 147 1
75 153 1
75 166 1
75 168 1
75 417 1
75 446 1
76 1 1
76 4 1
76 15 1
76 16 1
76 24 1
76 29 1
76 39 1
76 59 1
76 60 1
76 71 1
76 86 1
76 93 1
76 96 1
76 99 1
76 114 1
76 135 1
76 136 1
76 139 1
76 149 1
76 155 1
76 168 1
76 419 1
76 448 1
77 3 1
77 6 1
77 17 1
77 18 1
77 26 1
77 31 1
77 41 1
77 61 1
77 62 1
77 73 1
77 88 1
77 95 1
77 98 1
77 101 1
77 114 1
77 116 1
77 137 1
77 138 1
77 141 1
77 151 1
77 157 1
77 394 1
77 421 1
78 5 1
78 8 1
78 19 1
78 20 1
78 28 1
78 33 1
78 43 1
78 63 1
78 64 1
78 75 1
78 90 1
78 97 1
78 100 1
78 103 1
78 116 1
78 118 1
78 139 1
78 140 1
78 143 1
78 153 1
78 159 1
78 396 1
78 423 1
79 7 1
79 10 1
79 21 1
79 22 1
79 30 1
79 35 1
79 45 1
79 65 1
79 66 1
79 77 1
79 92 1
79 99 1
79 102 1
79 105 1
79 118 1
79 120 1
79 141 1
79 142 1
79 145 1
79 155 1
79 161 1
79 398 1
79 425 1
80 9 1
80 12 1
80 23 1
80 24 1
80 32 1
80 37 1
80 47 1
80 67 1
80 68 1
80 79 1
80 94 1
80 101 1
80 104 1
80 107 1
80 120 1
80 122 1
80 143 1
80 144 1
80 147 1
80 157 1
80 163 1
80 400 1
80 427 1
81 11 1
81 14 1
81 25 1
81 26 1
81 34 1
81 39 1
81 49 1
81 69 1
81 70 1
81 81 1
81 96 1
81 103 1
81 106 1
81 109 1
81 122 1
81 124 1
81 145 1
81 146 1
81 149 1
81 159 1
81 165 1
81 402 1
81 429 1
82 13 1
82 16 1
82 27 1
82 28 1
82 36 1
82 41 1
82 51 1
82 71 1
82 72 1
82 83 1
82 98 1
82 105 1
82 108 1
82 111 1
82 124 1
82 126 1
82 147 1
82 148 1
82 151 1
82 161 1
82 167 1
82 404 1
82 431 1
83 15 1
83 18 1
83 29 1
83 30 1
83 38 1
83 43 1
83 53 1
83 57 1
83 73 1
83 74 1
83 85 1
83 100 1
83 107 1
83 110 1
83 113 1
83 126 1
83 128 1
83 149 1
83 150 1
83 153 1
83 163 1
83 406 1
83 433 1
84 17 1
84 20 1
84 31 1
84 32 1
84 40 1
84 45 1
84 55 1
84 59 1
84 75 1
84 76 1
84 87 1
84 102 1
84 109 1
84 112 1
84 115 1
84 128 1
84 130 1
84 151 1
84 152 1
84 155 1
84 165 1
84 408 1
84 435 1
85 2 1
85 20 1
85 21 1
85 22 1
85 33 1
85 41 1
85 42 1
85 48 1
85 57 1
85 58 1
85 62 1
85 77 1
85 90 1
85 103 1
85 104 1
85 112 1
85 118 1
85 129 1
85 130 1
85 131 1
85 132 1
85 153 1
85 158 1
85 168 1
85 409 1
85 410 1
85 438 1
86 4 1
86 22 1
86 23 1
86 24 1
86 35 1
86 43 1
86 44 1
86 50 1
86 58 1
86 59 1
86 60 1
86 64 1
86 79 1
86 92 1
86 105 1
86 106 1
86 114 1
86 120 1
86 131 1
86 132 1
86 133 1
86 134 1
86 155 1
86 160 1
86 411 1
86 412 1
86 440 1
87 6 1
87 24 1
87 25 1
87 26 1
87 37 1
87 45 1
87 46 1
87 52 1
87 60 1
87 61 1
87 62 1
87 66 1
87 81 1
87 94 1
87 107 1
87 108 1
87 116 1
87 122 1
87 133 1
87 134 1
87 135 1
87 136 1
87 157 1
87 162 1
87 413 1
87 414 1
87 442 1
88 8 1
88 26 1
88 27 1
88 28 1
88 39 1
88 47 1
88 48 1
88 54 1
88 62 1
88 63 1
88 64 1
88 68 1
88 83 1
88 96 1
88 109 1
88 110 1
88 118 1
88 124 1
88 135 1
88 136 1
88 137 1
88 138 1
88 159 1
88 164 1
88 415 1
88 416 1
88 444 1
89 10 1
89 28 1
89 29 1
89 30 1
89 41 1
89 49 1
89 50 1
89 56 1
89 64 1
89 65 1
89 66 1
89 70 1
89 85 1
89 98 1
89 111 1
89 112 1
89 120 1
89 126 1
89 137 1
89 138 1
89 139 1
89 140 1
89 161 1
89 166 1
89 417 1
89 418 1
89 446 1
90 2 1
90 12 1
90 30 1
90 31 1
90 32 1
90 43 1
90 51 1
90 52 1
90 57 1
90 58 1
90 66 1
90 67 1
90 68 1
90 72 1
90 87 1
90 100 1
90 122 1
90 128 1
90 139 1
90 140 1
90 141 1
90 142 1
90 163 1
90 168 1
90 419 1
90 420 1
90 448 1
91 4 1
91 14 1
91 32 1
91 33 1
91 34 1
91 45 1
91 53 1
91 54 1
91 59 1
91 60 1
91 68 1
91 69 1
91 70 1
91 74 1
91 89 1
91 102 1
91 114 1
91 124 1
91 130 1
91 141 1
91 142 1
91 143 1
91 144 1
91 165 1
91 394 1
91 421 1
91 422 1
92 6 1
92 16 1
92 34 1
92 35 1
92 36 1
92 47 1
92 55 1
92 56 1
92 61 1
92 62 1
92 70 1
92 71 1
92 72 1
92 76 1
92 91 1
92 104 1
92 116 1
92 126 1
92 132 1
92 143 1
92 144 1
92 145 1
92 146 1
92 167 1
92 396 1
92 423 1
92 424 1
93 1 1
93 2 1
93 8 1
93 18 1
93 36 1
93 37 1
93 38 1
93 49 1
93 63 1
93 64 1
93 72 1
93 73 1
93 74 1
93 78 1
93 93 1
93 106 1
93 113 1
93 118 1
93 128 1
93 134 1
93 145 1
93 146 1
93 147 1
93 148 1
93 398 1
93 425 1
93 426 1
94 3 1
94 4 1
94 10 1
94 20 1
94 38 1
94 39 1
94 40 1
94 51 1
94 65 1
94 66 1
94 74 1
94 75 1
94 76 1
94 80 1
94 95 1
94 108 1
94 115 1
94 120 1
94 130 1
94 136 1
94 147 1
94 148 1
94 149 1
94 150 1
94 400 1
94 427 1
94 428 1
95 5 1
95 6 1
95 12 1
95 22 1
95 40 1
95 41 1
95 42 1
95 53 1
95 67 1
95 68 1
95 76 1
95 77 1
95 78 1
95 82 1
95 97 1
95 110 1
95 117 1
95 122 1
95 132 1
95 138 1
95 149 1
95 150 1
95 151 1
95 152 1
95 402 1
95 429 1
95 430 1
96 7 1
96 8 1
96 14 1
96 24 1
96 42 1
96 43 1
96 44 1
96 55 1
96 69 1
96 70 1
96 78 1
96 79 1
96 80 1
96 84 1
96 99 1
96 112 1
96 119 1
96 124 1
96 134 1
96 140 1
96 151 1
96 152 1
96 153 1
96 154 1
96 404 1
96 431 1
96 432 1
97 1 1
97 9 1
97 10 1
97 16 1
97 26 1
97 44 1
97 45 1
97 46 1
97 58 1
97 71 1
97 72 1
97 80 1
97 81 1
97 82 1
97 86 1
97 101 1
97 121 1
97 126 1
97 136 1
97 142 1
97 153 1
97 154 1
97 155 1
97 156 1
97 406 1
97 433 1
97 434 1
98 3 1
98 11 1
98 12 1
98 18 1
98 28 1
98 46 1
98 47 1
98 48 1
98 60 1
98 73 1
98 74 1
98 82 1
98 83 1
98 84 1
98 88 1
98 103 1
98 123 1
98 128 1
98 138 1
98 144 1
98 155 1
98 156 1
98 157 1
98 158 1
98 408 1
98 435 1
98 436 1
99 5 1
99 13 1
99 14 1
99 20 1
99 30 1
99 48 1
99 49 1
99 50 1
99 62 1
99 75 1
99 76 1
99 84 1
99 85 1
99 86 1
99 90 1
99 105 1
99 125 1
99 130 1
99 140 1
99 146 1
99 157 1
99 158 1
99 159 1
99 160 1
99 410 1
99 437 1
99 438 1
100 7 1
100 15 1
100 16 1
100 22 1
100 32 1
100 50 1
100 51 1
100 52 1
100 64 1
100 77 1
100 78 1
100 86 1
100 87 1
100 88 1
100 92 1
100 107 1
100 127 1
100 132 1
100 142 1
100 148 1
100 159 1
100 160 1
100 161 1
100 162 1
100 412 1
100 439 1
100 440 1
101 9 1
101 17 1
101 18 1
101 24 1
101 34 1
101 52 1
101 53 1
101 54 1
101 66 1
101 79 1
101 80 1
101 88 1
101 89 1
101 90 1
101 94 1
101 109 1
101 129 1
101 134 1
101 144 1
101 150 1
101 161 1
101 162 1
101 163 1
101 164 1
101 414 1
101 441 1
101 442 1
102 11 1
102 19 1
102 20 1
102 26 1
102 36 1
102 54 1
102 55 1
102 56 1
102 68 1
102 81 1
102 82 1
102 90 1
102 91 1
102 92 1
102 96 1
102 111 1
102 131 1
102 136 1
102 146 1
102 152 1
102 163 1
102 164 1
102 165 1
102 166 1
102 416 1
102 443 1
102 444 1
103 1 1
103 2 1
103 13 1
103 21 1
103 22 1
103 28 1
103 38 1
103 56 1
103 57 1
103 70 1
103 83 1
103 84 1
103 92 1
103 93 1
103 94 1
103 98 1
103 133 1
103 138 1
103 148 1
103 154 1
103 165 1
103 166 1
103 167 1
103 168 1
103 418 1
103 445 1
103 446 1
104 2 1
104 3 1
104 4 1
104 15 1
104 23 1
104 24 1
104 30 1
104 40 1
104 59 1
104 72 1
104 85 1
104 86 1
104 94 1
104 95 1
104 96 1
104 100 1
104 113 1
104 114 1
104 135 1
104 140 1
104 150 1
104 156 1
104 167 1
104 168 1
104 420 1
104 447 1
104 448 1
105 4 1
105 5 1
105 6 1
105 17 1
105 25 1
105 26 1
105 32 1
105 42 1
105 61 1
105 74 1
105 87 1
105 88 1
105 96 1
105 97 1
105 98 1
105 102 1
105 113 1
105 114 1
105 115 1
105 116 1
105 137 1
105 142 1
105 152 1
105 158 1
105 393 1
105 394 1
105 422 1
106 6 1
106 7 1
106 8 1
106 19 1
106 27 1
106 28 1
106 34 1
106 44 1
106 63 1
106 76 1
106 89 1
106 90 1
106 98 1
106 99 1
106 100 1
106 104 1
106 115 1
106 116 1
106 117 1
106 118 1
106 139 1
106 144 1
106 154 1
106 160 1
106 395 1
106 396 1
106 424 1
107 8 1
107 9 1
107 10 1
107 21 1
107 29 1
107 30 1
107 36 1
107 46 1
107 65 1
107 78 1
107 91 1
107 92 1
107 100 1
107 101 1
107 102 1
107 106 1
107 117 1
107 118 1
107 119 1
107 120 1
107 141 1
107 146 1
107 156 1
107 162 1
107 397 1
107 398 1
107 426 1
108 10 1
108 11 1
108 12 1
108 23 1
108 31 1
108 32 1
108 38 1
108 48 1
108 67 1
108 80 1
108 93 1
108 94 1
108 102 1
108 103 1
108 104 1
108 108 1
108 119 1
108 120 1
108 121 1
108 122 1
108 143 1
108 148 1
108 158 1
108 164 1
108 399 1
108 400 1
108 428 1
109 12 1
109 13 1
109 14 1
109 25 1
109 33 1
109 34 1
109 40 1
109 50 1
109 69 1
109 82 1
109 95 1
109 96 1
109 104 1
109 105 1
109 106 1
109 110 1
109 121 1
109 122 1
109 123 1
109 124 1
109 145 1
109 150 1
109 160 1
109 166 1
109 401 1
109 402 1
109 430 1
110 14 1
110 15 1
110 16 1
110 27 1
110 35 1
110 36 1
110 42 1
110 52 1
110 71 1
110 84 1
110 97 1
110 98 1
110 106 1
110 107 1
110 108 1
110 112 1
110 123 1
110 124 1
110 125 1
110 126 1
110 147 1
110 152 1
110 162 1
110 168 1
110 403 1
110 404 1
110 432 1
111 16 1
111 17 1
111 18 1
111 29 1
111 37 1
111 38 1
111 44 1
111 54 1
111 58 1
111 73 1
111 86 1
111 99 1
111 100 1
111 108 1
111 109 1
111 110 1
111 114 1
111 125 1
111 126 1
111 127 1
111 128 1
111 149 1
111 154 1
111 164 1
111 405 1
111 406 1
111 434 1
112 18 1
112 19 1
112 20 1
112 31 1
112 39 1
112 40 1
112 46 1
112 56 1
112 60 1
112 75 1
112 88 1
112 101 1
112 102 1
112 110 1
112 111 1
112 112 1
112 116 1
112 127 1
112 128 1
112 129 1
112 130 1
112 151 1
112 156 1
112 166 1
112 407 1
112 408 1
112 436 1
