%%MatrixMarket matrix coordinate integer general
% Binary matrix over GF(2).
% Coordinate indices are 1-based; omitted entries are zero.
288 768 2448
1 2 1
1 97 1
1 193 1
1 289 1
1 385 1
1 481 1
1 577 1
1 673 1
2 1 1
2 2 1
2 98 1
2 194 1
2 290 1
2 386 1
2 482 1
2 578 1
2 674 1
3 4 1
3 99 1
3 195 1
3 291 1
3 387 1
3 483 1
3 579 1
3 675 1
4 3 1
4 4 1
4 100 1
4 196 1
4 292 1
4 388 1
4 484 1
4 580 1
4 676 1
5 6 1
5 101 1
5 197 1
5 293 1
5 389 1
5 485 1
5 581 1
5 677 1
6 5 1
6 6 1
6 102 1
6 198 1
6 294 1
6 390 1
6 486 1
6 582 1
6 678 1
7 8 1
7 103 1
7 199 1
7 295 1
7 391 1
7 487 1
7 583 1
7 679 1
8 7 1
8 8 1
8 104 1
8 200 1
8 296 1
8 392 1
8 488 1
8 584 1
8 680 1
9 10 1
9 105 1
9 201 1
9 297 1
9 393 1
9 489 1
9 585 1
9 681 1
10 9 1
10 10 1
10 106 1
10 202 1
10 298 1
10 394 1
10 490 1
10 586 1
10 682 1
11 12 1
11 107 1
11 203 1
11 299 1
11 395 1
11 491 1
11 587 1
11 683 1
12 11 1
12 12 1
12 108 1
12 204 1
12 300 1
12 396 1
12 492 1
12 588 1
12 684 1
13 14 1
13 109 1
13 205 1
13 301 1
13 397 1
13 493 1
13 589 1
13 685 1
14 13 1
14 14 1
14 110 1
14 206 1
14 302 1
14 398 1
14 494 1
14 590 1
14 686 1
15 16 1
15 111 1
15 207 1
15 303 1
15 399 1
15 495 1
15 591 1
15 687 1
16 15 1
16 16 1
16 112 1
16 208 1
16 304 1
16 400 1
16 496 1
16 592 1
16 688 1
17 18 1
17 113 1
17 209 1
17 305 1
17 401 1
17 497 1
17 593 1
17 689 1
18 17 1
18 18 1
18 114 1
18 210 1
18 306 1
18 402 1
18 498 1
18 594 1
18 690 1
19 20 1
19 115 1
19 211 1
19 307 1
19 403 1
19 499 1
19 595 1
19 691 1
20 19 1
20 20 1
20 116 1
20 212 1
20 308 1
20 404 1
20 500 1
20 596 1
20 692 1
21 22 1
21 117 1
21 213 1
21 309 1
21 405 1
21 501 1
21 597 1
21 693 1
22 21 1
22 22 1
22 118 1
22 214 1
22 310 1
22 406 1
22 502 1
22 598 1
22 694 1
23 24 1
23 119 1
23 215 1
23 311 1
23 407 1
23 503 1
23 599 1
23 695 1
24 23 1
24 24 1
24 120 1
24 216 1
24 312 1
24 408 1
24 504 1
24 600 1
24 696 1
25 26 1
25 121 1
25 217 1
25 313 1
25 409 1
25 505 1
25 601 1
25 697 1
26 25 1
26 26 1
26 122 1
26 218 1
26 314 1
26 410 1
26 506 1
26 602 1
26 698 1
27 28 1
27 123 1
27 219 1
27 315 1
27 411 1
27 507 1
27 603 1
27 699 1
28 27 1
28 28 1
28 124 1
28 220 1
28 316 1
28 412 1
28 508 1
28 604 1
28 700 1
29 30 1
29 125 1
29 221 1
29 317 1
29 413 1
29 509 1
29 605 1
29 701 1
30 29 1
30 30 1
30 126 1
30 222 1
30 318 1
30 414 1
30 510 1
30 606 1
30 702 1
31 32 1
31 127 1
31 223 1
31 319 1
31 415 1
31 511 1
31 607 1
31 703 1
32 31 1
32 32 1
32 128 1
32 224 1
32 320 1
32 416 1
32 512 1
32 608 1
32 704 1
33 34 1
33 129 1
33 225 1
33 321 1
33 417 1
33 513 1
33 609 1
33 705 1
34 33 1
34 34 1
34 130 1
34 226 1
34 322 1
34 418 1
34 514 1
34 610 1
34 706 1
35 36 1
35 131 1
35 227 1
35 323 1
35 419 1
35 515 1
35 611 1
35 707 1
36 35 1
36 36 1
36 132 1
36 228 1
36 324 1
36 420 1
36 516 1
36 612 1
36 708 1
37 38 1
37 133 1
37 229 1
37 325 1
37 421 1
37 517 1
37 613 1
37 709 1
38 37 1
38 38 1
38 134 1
38 230 1
38 326 1
38 422 1
38 518 1
38 614 1
38 710 1
39 40 1
39 135 1
39 231 1
39 327 1
39 423 1
39 519 1
39 615 1
39 711 1
40 39 1
40 40 1
40 136 1
40 232 1
40 328 1
40 424 1
40 520 1
40 616 1
40 712 1
41 42 1
41 137 1
41 233 1
41 329 1
41 425 1
41 521 1
41 617 1
41 713 1
42 41 1
42 42 1
42 138 1
42 234 1
42 330 1
42 426 1
42 522 1
42 618 1
42 714 1
43 44 1
43 139 1
43 235 1
43 331 1
43 427 1
43 523 1
43 619 1
43 715 1
44 43 1
44 44 1
44 140 1
44 236 1
44 332 1
44 428 1
44 524 1
44 620 1
44 716 1
45 46 1
45 141 1
45 237 1
45 333 1
45 429 1
45 525 1
45 621 1
45 717 1
46 45 1
46 46 1
46 142 1
46 238 1
46 334 1
46 430 1
46 526 1
46 622 1
46 718 1
47 48 1
47 143 1
47 239 1
47 335 1
47 431 1
47 527 1
47 623 1
47 719 1
48 47 1
48 48 1
48 144 1
48 240 1
48 336 1
48 432 1
48 528 1
48 624 1
48 720 1
49 50 1
49 145 1
49 241 1
49 337 1
49 433 1
49 529 1
49 625 1
49 721 1
50 49 1
50 50 1
50 146 1
50 242 1
50 338 1
50 434 1
50 530 1
50 626 1
50 722 1
51 52 1
51 147 1
51 243 1
51 339 1
51 435 1
51 531 1
51 627 1
51 723 1
52 51 1
52 52 1
52 148 1
52 244 1
52 340 1
52 436 1
52 532 1
52 628 1
52 724 1
53 54 1
53 149 1
53 245 1
53 341 1
53 437 1
53 533 1
53 629 1
53 725 1
54 53 1
54 54 1
54 150 1
54 246 1
54 342 1
54 438 1
54 534 1
54 630 1
54 726 1
55 56 1
55 151 1
55 247 1
55 343 1
55 439 1
55 535 1
55 631 1
55 727 1
56 55 1
56 56 1
56 152 1
56 248 1
56 344 1
56 440 1
56 536 1
56 632 1
56 728 1
57 58 1
57 153 1
57 249 1
57 345 1
57 441 1
57 537 1
57 633 1
57 729 1
58 57 1
58 58 1
58 154 1
58 250 1
58 346 1
58 442 1
58 538 1
58 634 1
58 730 1
59 60 1
59 155 1
59 251 1
59 347 1
59 443 1
59 539 1
59 635 1
59 731 1
60 59 1
60 60 1
60 156 1
60 252 1
60 348 1
60 444 1
60 540 1
60 636 1
60 732 1
61 62 1
61 157 1
61 253 1
61 349 1
61 445 1
61 541 1
61 637 1
61 733 1
62 61 1
62 62 1
62 158 1
62 254 1
62 350 1
62 446 1
62 542 1
62 638 1
62 734 1
63 64 1
63 159 1
63 255 1
63 351 1
63 447 1
63 543 1
63 639 1
63 735 1
64 63 1
64 64 1
64 160 1
64 256 1
64 352 1
64 448 1
64 544 1
64 640 1
64 736 1
65 66 1
65 161 1
65 257 1
65 353 1
65 449 1
65 545 1
65 641 1
65 737 1
66 65 1
66 66 1
66 162 1
66 258 1
66 354 1
66 450 1
66 546 1
66 642 1
66 738 1
67 68 1
67 163 1
67 259 1
67 355 1
67 451 1
67 547 1
67 643 1
67 739 1
68 67 1
68 68 1
68 164 1
68 260 1
68 356 1
68 452 1
68 548 1
68 644 1
68 740 1
69 70 1
69 165 1
69 261 1
69 357 1
69 453 1
69 549 1
69 645 1
69 741 1
70 69 1
70 70 1
70 166 1
70 262 1
70 358 1
70 454 1
70 550 1
70 646 1
70 742 1
71 72 1
71 167 1
71 263 1
71 359 1
71 455 1
71 551 1
71 647 1
71 743 1
72 71 1
72 72 1
72 168 1
72 264 1
72 360 1
72 456 1
72 552 1
72 648 1
72 744 1
73 74 1
73 169 1
73 265 1
73 361 1
73 457 1
73 553 1
73 649 1
73 745 1
74 73 1
74 74 1
74 170 1
74 266 1
74 362 1
74 458 1
74 554 1
74 650 1
74 746 1
75 76 1
75 171 1
75 267 1
75 363 1
75 459 1
75 555 1
75 651 1
75 747 1
76 75 1
76 76 1
76 172 1
76 268 1
76 364 1
76 460 1
76 556 1
76 652 1
76 748 1
77 78 1
77 173 1
77 269 1
77 365 1
77 461 1
77 557 1
77 653 1
77 749 1
78 77 1
78 78 1
78 174 1
78 270 1
78 366 1
78 462 1
78 558 1
78 654 1
78 750 1
79 80 1
79 175 1
79 271 1
79 367 1
79 463 1
79 559 1
79 655 1
79 751 1
80 79 1
80 80 1
80 176 1
80 272 1
80 368 1
80 464 1
80 560 1
80 656 1
80 752 1
81 82 1
81 177 1
81 273 1
81 369 1
81 465 1
81 561 1
81 657 1
81 753 1
82 81 1
82 82 1
82 178 1
82 274 1
82 370 1
82 466 1
82 562 1
82 658 1
82 754 1
83 84 1
83 179 1
83 275 1
83 371 1
83 467 1
83 563 1
83 659 1
83 755 1
84 83 1
84 84 1
84 180 1
84 276 1
84 372 1
84 468 1
84 564 1
84 660 1
84 756 1
85 86 1
85 181 1
85 277 1
85 373 1
85 469 1
85 565 1
85 661 1
85 757 1
86 85 1
86 86 1
86 182 1
86 278 1
86 374 1
86 470 1
86 566 1
86 662 1
86 758 1
87 88 1
87 183 1
87 279 1
87 375 1
87 471 1
87 567 1
87 663 1
87 759 1
88 87 1
88 88 1
88 184 1
88 280 1
88 376 1
88 472 1
88 568 1
88 664 1
88 760 1
89 90 1
89 185 1
89 281 1
89 377 1
89 473 1
89 569 1
89 665 1
89 761 1
90 89 1
90 90 1
90 186 1
90 282 1
90 378 1
90 474 1
90 570 1
90 666 1
90 762 1
91 92 1
91 187 1
91 283 1
91 379 1
91 475 1
91 571 1
91 667 1
91 763 1
92 91 1
92 92 1
92 188 1
92 284 1
92 380 1
92 476 1
92 572 1
92 668 1
92 764 1
93 94 1
93 189 1
93 285 1
93 381 1
93 477 1
93 573 1
93 669 1
93 765 1
94 93 1
94 94 1
94 190 1
94 286 1
94 382 1
94 478 1
94 574 1
94 670 1
94 766 1
95 96 1
95 191 1
95 287 1
95 383 1
95 479 1
95 575 1
95 671 1
95 767 1
96 95 1
96 96 1
96 192 1
96 288 1
96 384 1
96 480 1
96 576 1
96 672 1
96 768 1
97 1 1
97 164 1
97 287 1
97 335 1
97 453 1
97 557 1
97 603 1
97 765 1
98 2 1
98 163 1
98 164 1
98 288 1
98 336 1
98 454 1
98 558 1
98 604 1
98 766 1
99 3 1
99 166 1
99 193 1
99 337 1
99 455 1
99 559 1
99 605 1
99 767 1
100 4 1
100 165 1
100 166 1
100 194 1
100 338 1
100 456 1
100 560 1
100 606 1
100 768 1
101 5 1
101 168 1
101 195 1
101 339 1
101 457 1
101 561 1
101 607 1
101 673 1
102 6 1
102 167 1
102 168 1
102 196 1
102 340 1
102 458 1
102 562 1
102 608 1
102 674 1
103 7 1
103 170 1
103 197 1
103 341 1
103 459 1
103 563 1
103 609 1
103 675 1
104 8 1
104 169 1
104 170 1
104 198 1
104 342 1
104 460 1
104 564 1
104 610 1
104 676 1
105 9 1
105 172 1
105 199 1
105 343 1
105 461 1
105 565 1
105 611 1
105 677 1
106 10 1
106 171 1
106 172 1
106 200 1
106 344 1
106 462 1
106 566 1
106 612 1
106 678 1
107 11 1
107 174 1
107 201 1
107 345 1
107 463 1
107 567 1
107 613 1
107 679 1
108 12 1
108 173 1
108 174 1
108 202 1
108 346 1
108 464 1
108 568 1
108 614 1
108 680 1
109 13 1
109 176 1
109 203 1
109 347 1
109 465 1
109 569 1
109 615 1
109 681 1
110 14 1
110 175 1
110 176 1
110 204 1
110 348 1
110 466 1
110 570 1
110 616 1
110 682 1
111 15 1
111 178 1
111 205 1
111 349 1
111 467 1
111 571 1
111 617 1
111 683 1
112 16 1
112 177 1
112 178 1
112 206 1
112 350 1
112 468 1
112 572 1
112 618 1
112 684 1
113 17 1
113 180 1
113 207 1
113 351 1
113 469 1
113 573 1
113 619 1
113 685 1
114 18 1
114 179 1
114 180 1
114 208 1
114 352 1
114 470 1
114 574 1
114 620 1
114 686 1
115 19 1
115 182 1
115 209 1
115 353 1
115 471 1
115 575 1
115 621 1
115 687 1
116 20 1
116 181 1
116 182 1
116 210 1
116 354 1
116 472 1
116 576 1
116 622 1
116 688 1
117 21 1
117 184 1
117 211 1
117 355 1
117 473 1
117 481 1
117 623 1
117 689 1
118 22 1
118 183 1
118 184 1
118 212 1
118 356 1
118 474 1
118 482 1
118 624 1
118 690 1
119 23 1
119 186 1
119 213 1
119 357 1
119 475 1
119 483 1
119 625 1
119 691 1
120 24 1
120 185 1
120 186 1
120 214 1
120 358 1
120 476 1
120 484 1
120 626 1
120 692 1
121 25 1
121 188 1
121 215 1
121 359 1
121 477 1
121 485 1
121 627 1
121 693 1
122 26 1
122 187 1
122 188 1
122 216 1
122 360 1
122 478 1
122 486 1
122 628 1
122 694 1
123 27 1
123 190 1
123 217 1
123 361 1
123 479 1
123 487 1
123 629 1
123 695 1
124 28 1
124 189 1
124 190 1
124 218 1
124 362 1
124 480 1
124 488 1
124 630 1
124 696 1
125 29 1
125 192 1
125 219 1
125 363 1
125 385 1
125 489 1
125 631 1
125 697 1
126 30 1
126 191 1
126 192 1
126 220 1
126 364 1
126 386 1
126 490 1
126 632 1
126 698 1
127 31 1
127 98 1
127 221 1
127 365 1
127 387 1
127 491 1
127 633 1
127 699 1
128 32 1
128 97 1
128 98 1
128 222 1
128 366 1
128 388 1
128 492 1
128 634 1
128 700 1
129 33 1
129 100 1
129 223 1
129 367 1
129 389 1
129 493 1
129 635 1
129 701 1
130 34 1
130 99 1
130 100 1
130 224 1
130 368 1
130 390 1
130 494 1
130 636 1
130 702 1
131 35 1
131 102 1
131 225 1
131 369 1
131 391 1
131 495 1
131 637 1
131 703 1
132 36 1
132 101 1
132 102 1
132 226 1
132 370 1
132 392 1
132 496 1
132 638 1
132 704 1
133 37 1
133 104 1
133 227 1
133 371 1
133 393 1
133 497 1
133 639 1
133 705 1
134 38 1
134 103 1
134 104 1
134 228 1
134 372 1
134 394 1
134 498 1
134 640 1
134 706 1
135 39 1
135 106 1
135 229 1
135 373 1
135 395 1
135 499 1
135 641 1
135 707 1
136 40 1
136 105 1
136 106 1
136 230 1
136 374 1
136 396 1
136 500 1
136 642 1
136 708 1
137 41 1
137 108 1
137 231 1
137 375 1
137 397 1
137 501 1
137 643 1
137 709 1
138 42 1
138 107 1
138 108 1
138 232 1
138 376 1
138 398 1
138 502 1
138 644 1
138 710 1
139 43 1
139 110 1
139 233 1
139 377 1
139 399 1
139 503 1
139 645 1
139 711 1
140 44 1
140 109 1
140 110 1
140 234 1
140 378 1
140 400 1
140 504 1
140 646 1
140 712 1
141 45 1
141 112 1
141 235 1
141 379 1
141 401 1
141 505 1
141 647 1
141 713 1
142 46 1
142 111 1
142 112 1
142 236 1
142 380 1
142 402 1
142 506 1
142 648 1
142 714 1
143 47 1
143 114 1
143 237 1
143 381 1
143 403 1
143 507 1
143 649 1
143 715 1
144 48 1
144 113 1
144 114 1
144 238 1
144 382 1
144 404 1
144 508 1
144 650 1
144 716 1
145 49 1
145 116 1
145 239 1
145 383 1
145 405 1
145 509 1
145 651 1
145 717 1
146 50 1
146 115 1
146 116 1
146 240 1
146 384 1
146 406 1
146 510 1
146 652 1
146 718 1
147 51 1
147 118 1
147 241 1
147 289 1
147 407 1
147 511 1
147 653 1
147 719 1
148 52 1
148 117 1
148 118 1
148 242 1
148 290 1
148 408 1
148 512 1
148 654 1
148 720 1
149 53 1
149 120 1
149 243 1
149 291 1
149 409 1
149 513 1
149 655 1
149 721 1
150 54 1
150 119 1
150 120 1
150 244 1
150 292 1
150 410 1
150 514 1
150 656 1
150 722 1
151 55 1
151 122 1
151 245 1
151 293 1
151 411 1
151 515 1
151 657 1
151 723 1
152 56 1
152 121 1
152 122 1
152 246 1
152 294 1
152 412 1
152 516 1
152 658 1
152 724 1
153 57 1
153 124 1
153 247 1
153 295 1
153 413 1
153 517 1
153 659 1
153 725 1
154 58 1
154 123 1
154 124 1
154 248 1
154 296 1
154 414 1
154 518 1
154 660 1
154 726 1
155 59 1
155 126 1
155 249 1
155 297 1
155 415 1
155 519 1
155 661 1
155 727 1
156 60 1
156 125 1
156 126 1
156 250 1
156 298 1
156 416 1
156 520 1
156 662 1
156 728 1
157 61 1
157 128 1
157 251 1
157 299 1
157 417 1
157 521 1
157 663 1
157 729 1
158 62 1
158 127 1
158 128 1
158 252 1
158 300 1
158 418 1
158 522 1
158 664 1
158 730 1
159 63 1
159 130 1
159 253 1
159 301 1
159 419 1
159 523 1
159 665 1
159 731 1
160 64 1
160 129 1
160 130 1
160 254 1
160 302 1
160 420 1
160 524 1
160 666 1
160 732 1
161 65 1
161 132 1
161 255 1
161 303 1
161 421 1
161 525 1
161 667 1
161 733 1
162 66 1
162 131 1
162 132 1
162 256 1
162 304 1
162 422 1
162 526 1
162 668 1
162 734 1
163 67 1
163 134 1
163 257 1
163 305 1
163 423 1
163 527 1
163 669 1
163 735 1
164 68 1
164 133 1
164 134 1
164 258 1
164 306 1
164 424 1
164 528 1
164 670 1
164 736 1
165 69 1
165 136 1
165 259 1
165 307 1
165 425 1
165 529 1
165 671 1
165 737 1
166 70 1
166 135 1
166 136 1
166 260 1
166 308 1
166 426 1
166 530 1
166 672 1
166 738 1
167 71 1
167 138 1
167 261 1
167 309 1
167 427 1
167 531 1
167 577 1
167 739 1
168 72 1
168 137 1
168 138 1
168 262 1
168 310 1
168 428 1
168 532 1
168 578 1
168 740 1
169 73 1
169 140 1
169 263 1
169 311 1
169 429 1
169 533 1
169 579 1
169 741 1
170 74 1
170 139 1
170 140 1
170 264 1
170 312 1
170 430 1
170 534 1
170 580 1
170 742 1
171 75 1
171 142 1
171 265 1
171 313 1
171 431 1
171 535 1
171 581 1
171 743 1
172 76 1
172 141 1
172 142 1
172 266 1
172 314 1
172 432 1
172 536 1
172 582 1
172 744 1
173 77 1
173 144 1
173 267 1
173 315 1
173 433 1
173 537 1
173 583 1
173 745 1
174 78 1
174 143 1
174 144 1
174 268 1
174 316 1
174 434 1
174 538 1
174 584 1
174 746 1
175 79 1
175 146 1
175 269 1
175 317 1
175 435 1
175 539 1
175 585 1
175 747 1
176 80 1
176 145 1
176 146 1
176 270 1
176 318 1
176 436 1
176 540 1
176 586 1
176 748 1
177 81 1
177 148 1
177 271 1
177 319 1
177 437 1
177 541 1
177 587 1
177 749 1
178 82 1
178 147 1
178 148 1
178 272 1
178 320 1
178 438 1
178 542 1
178 588 1
178 750 1
179 83 1
179 150 1
179 273 1
179 321 1
179 439 1
179 543 1
179 589 1
179 751 1
180 84 1
180 149 1
180 150 1
180 274 1
180 322 1
180 440 1
180 544 1
180 590 1
180 752 1
181 85 1
181 152 1
181 275 1
181 323 1
181 441 1
181 545 1
181 591 1
181 753 1
182 86 1
182 151 1
182 152 1
182 276 1
182 324 1
182 442 1
182 546 1
182 592 1
182 754 1
183 87 1
183 154 1
183 277 1
183 325 1
183 443 1
183 547 1
183 593 1
183 755 1
184 88 1
184 153 1
184 154 1
184 278 1
184 326 1
184 444 1
184 548 1
184 594 1
184 756 1
185 89 1
185 156 1
185 279 1
185 327 1
185 445 1
185 549 1
185 595 1
185 757 1
186 90 1
186 155 1
186 156 1
186 280 1
186 328 1
186 446 1
186 550 1
186 596 1
186 758 1
187 91 1
187 158 1
187 281 1
187 329 1
187 447 1
187 551 1
187 597 1
187 759 1
188 92 1
188 157 1
188 158 1
188 282 1
188 330 1
188 448 1
188 552 1
188 598 1
188 760 1
189 93 1
189 160 1
189 283 1
189 331 1
189 449 1
189 553 1
189 599 1
189 761 1
190 94 1
190 159 1
190 160 1
190 284 1
190 332 1
190 450 1
190 554 1
190 600 1
190 762 1
191 95 1
191 162 1
191 285 1
191 333 1
191 451 1
191 555 1
191 601 1
191 763 1
192 96 1
192 161 1
192 162 1
192 286 1
192 334 1
192 452 1
192 556 1
192 602 1
192 764 1
193 1 1
193 137 1
193 214 1
193 365 1
193 407 1
193 559 1
193 645 1
193 701 1
194 2 1
194 138 1
194 213 1
194 214 1
194 366 1
194 408 1
194 560 1
194 646 1
194 702 1
195 3 1
195 139 1
195 216 1
195 367 1
195 409 1
195 561 1
195 647 1
195 703 1
196 4 1
196 140 1
196 215 1
196 216 1
196 368 1
196 410 1
196 562 1
196 648 1
196 704 1
197 5 1
197 141 1
197 218 1
197 369 1
197 411 1
197 563 1
197 649 1
197 705 1
198 6 1
198 142 1
198 217 1
198 218 1
198 370 1
198 412 1
198 564 1
198 650 1
198 706 1
199 7 1
199 143 1
199 220 1
199 371 1
199 413 1
199 565 1
199 651 1
199 707 1
200 8 1
200 144 1
200 219 1
200 220 1
200 372 1
200 414 1
200 566 1
200 652 1
200 708 1
201 9 1
201 145 1
201 222 1
201 373 1
201 415 1
201 567 1
201 653 1
201 709 1
202 10 1
202 146 1
202 221 1
202 222 1
202 374 1
202 416 1
202 568 1
202 654 1
202 710 1
203 11 1
203 147 1
203 224 1
203 375 1
203 417 1
203 569 1
203 655 1
203 711 1
204 12 1
204 148 1
204 223 1
204 224 1
204 376 1
204 418 1
204 570 1
204 656 1
204 712 1
205 13 1
205 149 1
205 226 1
205 377 1
205 419 1
205 571 1
205 657 1
205 713 1
206 14 1
206 150 1
206 225 1
206 226 1
206 378 1
206 420 1
206 572 1
206 658 1
206 714 1
207 15 1
207 151 1
207 228 1
207 379 1
207 421 1
207 573 1
207 659 1
207 715 1
208 16 1
208 152 1
208 227 1
208 228 1
208 380 1
208 422 1
208 574 1
208 660 1
208 716 1
209 17 1
209 153 1
209 230 1
209 381 1
209 423 1
209 575 1
209 661 1
209 717 1
210 18 1
210 154 1
210 229 1
210 230 1
210 382 1
210 424 1
210 576 1
210 662 1
210 718 1
211 19 1
211 155 1
211 232 1
211 383 1
211 425 1
211 481 1
211 663 1
211 719 1
212 20 1
212 156 1
212 231 1
212 232 1
212 384 1
212 426 1
212 482 1
212 664 1
212 720 1
213 21 1
213 157 1
213 234 1
213 289 1
213 427 1
213 483 1
213 665 1
213 721 1
214 22 1
214 158 1
214 233 1
214 234 1
214 290 1
214 428 1
214 484 1
214 666 1
214 722 1
215 23 1
215 159 1
215 236 1
215 291 1
215 429 1
215 485 1
215 667 1
215 723 1
216 24 1
216 160 1
216 235 1
216 236 1
216 292 1
216 430 1
216 486 1
216 668 1
216 724 1
217 25 1
217 161 1
217 238 1
217 293 1
217 431 1
217 487 1
217 669 1
217 725 1
218 26 1
218 162 1
218 237 1
218 238 1
218 294 1
218 432 1
218 488 1
218 670 1
218 726 1
219 27 1
219 163 1
219 240 1
219 295 1
219 433 1
219 489 1
219 671 1
219 727 1
220 28 1
220 164 1
220 239 1
220 240 1
220 296 1
220 434 1
220 490 1
220 672 1
220 728 1
221 29 1
221 165 1
221 242 1
221 297 1
221 435 1
221 491 1
221 577 1
221 729 1
222 30 1
222 166 1
222 241 1
222 242 1
222 298 1
222 436 1
222 492 1
222 578 1
222 730 1
223 31 1
223 167 1
223 244 1
223 299 1
223 437 1
223 493 1
223 579 1
223 731 1
224 32 1
224 168 1
224 243 1
224 244 1
224 300 1
224 438 1
224 494 1
224 580 1
224 732 1
225 33 1
225 169 1
225 246 1
225 301 1
225 439 1
225 495 1
225 581 1
225 733 1
226 34 1
226 170 1
226 245 1
226 246 1
226 302 1
226 440 1
226 496 1
226 582 1
226 734 1
227 35 1
227 171 1
227 248 1
227 303 1
227 441 1
227 497 1
227 583 1
227 735 1
228 36 1
228 172 1
228 247 1
228 248 1
228 304 1
228 442 1
228 498 1
228 584 1
228 736 1
229 37 1
229 173 1
229 250 1
229 305 1
229 443 1
229 499 1
229 585 1
229 737 1
230 38 1
230 174 1
230 249 1
230 250 1
230 306 1
230 444 1
230 500 1
230 586 1
230 738 1
231 39 1
231 175 1
231 252 1
231 307 1
231 445 1
231 501 1
231 587 1
231 739 1
232 40 1
232 176 1
232 251 1
232 252 1
232 308 1
232 446 1
232 502 1
232 588 1
232 740 1
233 41 1
233 177 1
233 254 1
233 309 1
233 447 1
233 503 1
233 589 1
233 741 1
234 42 1
234 178 1
234 253 1
234 254 1
234 310 1
234 448 1
234 504 1
234 590 1
234 742 1
235 43 1
235 179 1
235 256 1
235 311 1
235 449 1
235 505 1
235 591 1
235 743 1
236 44 1
236 180 1
236 255 1
236 256 1
236 312 1
236 450 1
236 506 1
236 592 1
236 744 1
237 45 1
237 181 1
237 258 1
237 313 1
237 451 1
237 507 1
237 593 1
237 745 1
238 46 1
238 182 1
238 257 1
238 258 1
238 314 1
238 452 1
238 508 1
238 594 1
238 746 1
239 47 1
239 183 1
239 260 1
239 315 1
239 453 1
239 509 1
239 595 1
239 747 1
240 48 1
240 184 1
240 259 1
240 260 1
240 316 1
240 454 1
240 510 1
240 596 1
240 748 1
241 49 1
241 185 1
241 262 1
241 317 1
241 455 1
241 511 1
241 597 1
241 749 1
242 50 1
242 186 1
242 261 1
242 262 1
242 318 1
242 456 1
242 512 1
242 598 1
242 750 1
243 51 1
243 187 1
243 264 1
243 319 1
243 457 1
243 513 1
243 599 1
243 751 1
244 52 1
244 188 1
244 263 1
244 264 1
244 320 1
244 458 1
244 514 1
244 600 1
244 752 1
245 53 1
245 189 1
245 266 1
245 321 1
245 459 1
245 515 1
245 601 1
245 753 1
246 54 1
246 190 1
246 265 1
246 266 1
246 322 1
246 460 1
246 516 1
246 602 1
246 754 1
247 55 1
247 191 1
247 268 1
247 323 1
247 461 1
247 517 1
247 603 1
247 755 1
248 56 1
248 192 1
248 267 1
248 268 1
248 324 1
248 462 1
248 518 1
248 604 1
248 756 1
249 57 1
249 97 1
249 270 1
249 325 1
249 463 1
249 519 1
249 605 1
249 757 1
250 58 1
250 98 1
250 269 1
250 270 1
250 326 1
250 464 1
250 520 1
250 606 1
250 758 1
251 59 1
251 99 1
251 272 1
251 327 1
251 465 1
251 521 1
251 607 1
251 759 1
252 60 1
252 100 1
252 271 1
252 272 1
252 328 1
252 466 1
252 522 1
252 608 1
252 760 1
253 61 1
253 101 1
253 274 1
253 329 1
253 467 1
253 523 1
253 609 1
253 761 1
254 62 1
254 102 1
254 273 1
254 274 1
254 330 1
254 468 1
254 524 1
254 610 1
254 762 1
255 63 1
255 103 1
255 276 1
255 331 1
255 469 1
255 525 1
255 611 1
255 763 1
256 64 1
256 104 1
256 275 1
256 276 1
256 332 1
256 470 1
256 526 1
256 612 1
256 764 1
257 65 1
257 105 1
257 278 1
257 333 1
257 471 1
257 527 1
257 613 1
257 765 1
258 66 1
258 106 1
258 277 1
258 278 1
258 334 1
258 472 1
258 528 1
258 614 1
258 766 1
259 67 1
259 107 1
259 280 1
259 335 1
259 473 1
259 529 1
259 615 1
259 767 1
260 68 1
260 108 1
260 279 1
260 280 1
260 336 1
260 474 1
260 530 1
260 616 1
260 768 1
261 69 1
261 109 1
261 282 1
261 337 1
261 475 1
261 531 1
261 617 1
261 673 1
262 70 1
262 110 1
262 281 1
262 282 1
262 338 1
262 476 1
262 532 1
262 618 1
262 674 1
263 71 1
263 111 1
263 284 1
263 339 1
263 477 1
263 533 1
263 619 1
263 675 1
264 72 1
264 112 1
264 283 1
264 284 1
264 340 1
264 478 1
264 534 1
264 620 1
264 676 1
265 73 1
265 113 1
265 286 1
265 341 1
265 479 1
265 535 1
265 621 1
265 677 1
266 74 1
266 114 1
266 285 1
266 286 1
266 342 1
266 480 1
266 536 1
266 622 1
266 678 1
267 75 1
267 115 1
267 288 1
267 343 1
267 385 1
267 537 1
267 623 1
267 679 1
268 76 1
268 116 1
268 287 1
268 288 1
268 344 1
268 386 1
268 538 1
268 624 1
268 680 1
269 77 1
269 117 1
269 194 1
269 345 1
269 387 1
269 539 1
269 625 1
269 681 1
270 78 1
270 118 1
270 193 1
270 194 1
270 346 1
270 388 1
270 540 1
270 626 1
270 682 1
271 79 1
271 119 1
271 196 1
271 347 1
271 389 1
271 541 1
271 627 1
271 683 1
272 80 1
272 120 1
272 195 1
272 196 1
272 348 1
272 390 1
272 542 1
272 628 1
272 684 1
273 81 1
273 121 1
273 198 1
273 349 1
273 391 1
273 543 1
273 629 1
273 685 1
274 82 1
274 122 1
274 197 1
274 198 1
274 350 1
274 392 1
274 544 1
274 630 1
274 686 1
275 83 1
275 123 1
275 200 1
275 351 1
275 393 1
275 545 1
275 631 1
275 687 1
276 84 1
276 124 1
276 199 1
276 200 1
276 352 1
276 394 1
276 546 1
276 632 1
276 688 1
277 85 1
277 125 1
277 202 1
277 353 1
277 395 1
277 547 1
277 633 1
277 689 1
278 86 1
278 126 1
278 201 1
278 202 1
278 354 1
278 396 1
278 548 1
278 634 1
278 690 1
279 87 1
279 127 1
279 204 1
279 355 1
279 397 1
279 549 1
279 635 1
279 691 1
280 88 1
280 128 1
280 203 1
280 204 1
280 356 1
280 398 1
280 550 1
280 636 1
280 692 1
281 89 1
281 129 1
281 206 1
281 357 1
281 399 1
281 551 1
281 637 1
281 693 1
282 90 1
282 130 1
282 205 1
282 206 1
282 358 1
282 400 1
282 552 1
282 638 1
282 694 1
283 91 1
283 131 1
283 208 1
283 359 1
283 401 1
283 553 1
283 639 1
283 695 1
284 92 1
284 132 1
284 207 1
284 208 1
284 360 1
284 402 1
284 554 1
284 640 1
284 696 1
285 93 1
285 133 1
285 210 1
285 361 1
285 403 1
285 555 1
285 641 1
285 697 1
286 94 1
286 134 1
286 209 1
286 210 1
286 362 1
286 404 1
286 556 1
286 642 1
286 698 1
287 95 1
287 135 1
287 212 1
287 363 1
287 405 1
287 557 1
287 643 1
287 699 1
288 96 1
288 136 1
288 211 1
288 212 1
288 364 1
288 406 1
288 558 1
288 644 1
288 700 1
