%%MatrixMarket matrix coordinate integer general
% GF(4) labels 0,1,2=omega,3=omega+1; arithmetic is NOT integer arithmetic.
% Coordinate indices are 1-based; omitted entries are zero.
144 384 1152
1 1 2
1 49 1
1 97 1
1 145 1
1 193 1
1 241 1
1 289 1
1 337 1
2 2 2
2 50 1
2 98 1
2 146 1
2 194 1
2 242 1
2 290 1
2 338 1
3 3 2
3 51 1
3 99 1
3 147 1
3 195 1
3 243 1
3 291 1
3 339 1
4 4 2
4 52 1
4 100 1
4 148 1
4 196 1
4 244 1
4 292 1
4 340 1
5 5 2
5 53 1
5 101 1
5 149 1
5 197 1
5 245 1
5 293 1
5 341 1
6 6 2
6 54 1
6 102 1
6 150 1
6 198 1
6 246 1
6 294 1
6 342 1
7 7 2
7 55 1
7 103 1
7 151 1
7 199 1
7 247 1
7 295 1
7 343 1
8 8 2
8 56 1
8 104 1
8 152 1
8 200 1
8 248 1
8 296 1
8 344 1
9 9 2
9 57 1
9 105 1
9 153 1
9 201 1
9 249 1
9 297 1
9 345 1
10 10 2
10 58 1
10 106 1
10 154 1
10 202 1
10 250 1
10 298 1
10 346 1
11 11 2
11 59 1
11 107 1
11 155 1
11 203 1
11 251 1
11 299 1
11 347 1
12 12 2
12 60 1
12 108 1
12 156 1
12 204 1
12 252 1
12 300 1
12 348 1
13 13 2
13 61 1
13 109 1
13 157 1
13 205 1
13 253 1
13 301 1
13 349 1
14 14 2
14 62 1
14 110 1
14 158 1
14 206 1
14 254 1
14 302 1
14 350 1
15 15 2
15 63 1
15 111 1
15 159 1
15 207 1
15 255 1
15 303 1
15 351 1
16 16 2
16 64 1
16 112 1
16 160 1
16 208 1
16 256 1
16 304 1
16 352 1
17 17 2
17 65 1
17 113 1
17 161 1
17 209 1
17 257 1
17 305 1
17 353 1
18 18 2
18 66 1
18 114 1
18 162 1
18 210 1
18 258 1
18 306 1
18 354 1
19 19 2
19 67 1
19 115 1
19 163 1
19 211 1
19 259 1
19 307 1
19 355 1
20 20 2
20 68 1
20 116 1
20 164 1
20 212 1
20 260 1
20 308 1
20 356 1
21 21 2
21 69 1
21 117 1
21 165 1
21 213 1
21 261 1
21 309 1
21 357 1
22 22 2
22 70 1
22 118 1
22 166 1
22 214 1
22 262 1
22 310 1
22 358 1
23 23 2
23 71 1
23 119 1
23 167 1
23 215 1
23 263 1
23 311 1
23 359 1
24 24 2
24 72 1
24 120 1
24 168 1
24 216 1
24 264 1
24 312 1
24 360 1
25 25 2
25 73 1
25 121 1
25 169 1
25 217 1
25 265 1
25 313 1
25 361 1
26 26 2
26 74 1
26 122 1
26 170 1
26 218 1
26 266 1
26 314 1
26 362 1
27 27 2
27 75 1
27 123 1
27 171 1
27 219 1
27 267 1
27 315 1
27 363 1
28 28 2
28 76 1
28 124 1
28 172 1
28 220 1
28 268 1
28 316 1
28 364 1
29 29 2
29 77 1
29 125 1
29 173 1
29 221 1
29 269 1
29 317 1
29 365 1
30 30 2
30 78 1
30 126 1
30 174 1
30 222 1
30 270 1
30 318 1
30 366 1
31 31 2
31 79 1
31 127 1
31 175 1
31 223 1
31 271 1
31 319 1
31 367 1
32 32 2
32 80 1
32 128 1
32 176 1
32 224 1
32 272 1
32 320 1
32 368 1
33 33 2
33 81 1
33 129 1
33 177 1
33 225 1
33 273 1
33 321 1
33 369 1
34 34 2
34 82 1
34 130 1
34 178 1
34 226 1
34 274 1
34 322 1
34 370 1
35 35 2
35 83 1
35 131 1
35 179 1
35 227 1
35 275 1
35 323 1
35 371 1
36 36 2
36 84 1
36 132 1
36 180 1
36 228 1
36 276 1
36 324 1
36 372 1
37 37 2
37 85 1
37 133 1
37 181 1
37 229 1
37 277 1
37 325 1
37 373 1
38 38 2
38 86 1
38 134 1
38 182 1
38 230 1
38 278 1
38 326 1
38 374 1
39 39 2
39 87 1
39 135 1
39 183 1
39 231 1
39 279 1
39 327 1
39 375 1
40 40 2
40 88 1
40 136 1
40 184 1
40 232 1
40 280 1
40 328 1
40 376 1
41 41 2
41 89 1
41 137 1
41 185 1
41 233 1
41 281 1
41 329 1
41 377 1
42 42 2
42 90 1
42 138 1
42 186 1
42 234 1
42 282 1
42 330 1
42 378 1
43 43 2
43 91 1
43 139 1
43 187 1
43 235 1
43 283 1
43 331 1
43 379 1
44 44 2
44 92 1
44 140 1
44 188 1
44 236 1
44 284 1
44 332 1
44 380 1
45 45 2
45 93 1
45 141 1
45 189 1
45 237 1
45 285 1
45 333 1
45 381 1
46 46 2
46 94 1
46 142 1
46 190 1
46 238 1
46 286 1
46 334 1
46 382 1
47 47 2
47 95 1
47 143 1
47 191 1
47 239 1
47 287 1
47 335 1
47 383 1
48 48 2
48 96 1
48 144 1
48 192 1
48 240 1
48 288 1
48 336 1
48 384 1
49 1 1
49 82 2
49 144 1
49 168 1
49 227 1
49 279 1
49 302 1
49 383 1
50 2 1
50 83 2
50 97 1
50 169 1
50 228 1
50 280 1
50 303 1
50 384 1
51 3 1
51 84 2
51 98 1
51 170 1
51 229 1
51 281 1
51 304 1
51 337 1
52 4 1
52 85 2
52 99 1
52 171 1
52 230 1
52 282 1
52 305 1
52 338 1
53 5 1
53 86 2
53 100 1
53 172 1
53 231 1
53 283 1
53 306 1
53 339 1
54 6 1
54 87 2
54 101 1
54 173 1
54 232 1
54 284 1
54 307 1
54 340 1
55 7 1
55 88 2
55 102 1
55 174 1
55 233 1
55 285 1
55 308 1
55 341 1
56 8 1
56 89 2
56 103 1
56 175 1
56 234 1
56 286 1
56 309 1
56 342 1
57 9 1
57 90 2
57 104 1
57 176 1
57 235 1
57 287 1
57 310 1
57 343 1
58 10 1
58 91 2
58 105 1
58 177 1
58 236 1
58 288 1
58 311 1
58 344 1
59 11 1
59 92 2
59 106 1
59 178 1
59 237 1
59 241 1
59 312 1
59 345 1
60 12 1
60 93 2
60 107 1
60 179 1
60 238 1
60 242 1
60 313 1
60 346 1
61 13 1
61 94 2
61 108 1
61 180 1
61 239 1
61 243 1
61 314 1
61 347 1
62 14 1
62 95 2
62 109 1
62 181 1
62 240 1
62 244 1
62 315 1
62 348 1
63 15 1
63 96 2
63 110 1
63 182 1
63 193 1
63 245 1
63 316 1
63 349 1
64 16 1
64 49 2
64 111 1
64 183 1
64 194 1
64 246 1
64 317 1
64 350 1
65 17 1
65 50 2
65 112 1
65 184 1
65 195 1
65 247 1
65 318 1
65 351 1
66 18 1
66 51 2
66 113 1
66 185 1
66 196 1
66 248 1
66 319 1
66 352 1
67 19 1
67 52 2
67 114 1
67 186 1
67 197 1
67 249 1
67 320 1
67 353 1
68 20 1
68 53 2
68 115 1
68 187 1
68 198 1
68 250 1
68 321 1
68 354 1
69 21 1
69 54 2
69 116 1
69 188 1
69 199 1
69 251 1
69 322 1
69 355 1
70 22 1
70 55 2
70 117 1
70 189 1
70 200 1
70 252 1
70 323 1
70 356 1
71 23 1
71 56 2
71 118 1
71 190 1
71 201 1
71 253 1
71 324 1
71 357 1
72 24 1
72 57 2
72 119 1
72 191 1
72 202 1
72 254 1
72 325 1
72 358 1
73 25 1
73 58 2
73 120 1
73 192 1
73 203 1
73 255 1
73 326 1
73 359 1
74 26 1
74 59 2
74 121 1
74 145 1
74 204 1
74 256 1
74 327 1
74 360 1
75 27 1
75 60 2
75 122 1
75 146 1
75 205 1
75 257 1
75 328 1
75 361 1
76 28 1
76 61 2
76 123 1
76 147 1
76 206 1
76 258 1
76 329 1
76 362 1
77 29 1
77 62 2
77 124 1
77 148 1
77 207 1
77 259 1
77 330 1
77 363 1
78 30 1
78 63 2
78 125 1
78 149 1
78 208 1
78 260 1
78 331 1
78 364 1
79 31 1
79 64 2
79 126 1
79 150 1
79 209 1
79 261 1
79 332 1
79 365 1
80 32 1
80 65 2
80 127 1
80 151 1
80 210 1
80 262 1
80 333 1
80 366 1
81 33 1
81 66 2
81 128 1
81 152 1
81 211 1
81 263 1
81 334 1
81 367 1
82 34 1
82 67 2
82 129 1
82 153 1
82 212 1
82 264 1
82 335 1
82 368 1
83 35 1
83 68 2
83 130 1
83 154 1
83 213 1
83 265 1
83 336 1
83 369 1
84 36 1
84 69 2
84 131 1
84 155 1
84 214 1
84 266 1
84 289 1
84 370 1
85 37 1
85 70 2
85 132 1
85 156 1
85 215 1
85 267 1
85 290 1
85 371 1
86 38 1
86 71 2
86 133 1
86 157 1
86 216 1
86 268 1
86 291 1
86 372 1
87 39 1
87 72 2
87 134 1
87 158 1
87 217 1
87 269 1
87 292 1
87 373 1
88 40 1
88 73 2
88 135 1
88 159 1
88 218 1
88 270 1
88 293 1
88 374 1
89 41 1
89 74 2
89 136 1
89 160 1
89 219 1
89 271 1
89 294 1
89 375 1
90 42 1
90 75 2
90 137 1
90 161 1
90 220 1
90 272 1
90 295 1
90 376 1
91 43 1
91 76 2
91 138 1
91 162 1
91 221 1
91 273 1
91 296 1
91 377 1
92 44 1
92 77 2
92 139 1
92 163 1
92 222 1
92 274 1
92 297 1
92 378 1
93 45 1
93 78 2
93 140 1
93 164 1
93 223 1
93 275 1
93 298 1
93 379 1
94 46 1
94 79 2
94 141 1
94 165 1
94 224 1
94 276 1
94 299 1
94 380 1
95 47 1
95 80 2
95 142 1
95 166 1
95 225 1
95 277 1
95 300 1
95 381 1
96 48 1
96 81 2
96 143 1
96 167 1
96 226 1
96 278 1
96 301 1
96 382 1
97 1 1
97 69 1
97 107 2
97 183 1
97 204 1
97 280 1
97 323 1
97 351 1
98 2 1
98 70 1
98 108 2
98 184 1
98 205 1
98 281 1
98 324 1
98 352 1
99 3 1
99 71 1
99 109 2
99 185 1
99 206 1
99 282 1
99 325 1
99 353 1
100 4 1
100 72 1
100 110 2
100 186 1
100 207 1
100 283 1
100 326 1
100 354 1
101 5 1
101 73 1
101 111 2
101 187 1
101 208 1
101 284 1
101 327 1
101 355 1
102 6 1
102 74 1
102 112 2
102 188 1
102 209 1
102 285 1
102 328 1
102 356 1
103 7 1
103 75 1
103 113 2
103 189 1
103 210 1
103 286 1
103 329 1
103 357 1
104 8 1
104 76 1
104 114 2
104 190 1
104 211 1
104 287 1
104 330 1
104 358 1
105 9 1
105 77 1
105 115 2
105 191 1
105 212 1
105 288 1
105 331 1
105 359 1
106 10 1
106 78 1
106 116 2
106 192 1
106 213 1
106 241 1
106 332 1
106 360 1
107 11 1
107 79 1
107 117 2
107 145 1
107 214 1
107 242 1
107 333 1
107 361 1
108 12 1
108 80 1
108 118 2
108 146 1
108 215 1
108 243 1
108 334 1
108 362 1
109 13 1
109 81 1
109 119 2
109 147 1
109 216 1
109 244 1
109 335 1
109 363 1
110 14 1
110 82 1
110 120 2
110 148 1
110 217 1
110 245 1
110 336 1
110 364 1
111 15 1
111 83 1
111 121 2
111 149 1
111 218 1
111 246 1
111 289 1
111 365 1
112 16 1
112 84 1
112 122 2
112 150 1
112 219 1
112 247 1
112 290 1
112 366 1
113 17 1
113 85 1
113 123 2
113 151 1
113 220 1
113 248 1
113 291 1
113 367 1
114 18 1
114 86 1
114 124 2
114 152 1
114 221 1
114 249 1
114 292 1
114 368 1
115 19 1
115 87 1
115 125 2
115 153 1
115 222 1
115 250 1
115 293 1
115 369 1
116 20 1
116 88 1
116 126 2
116 154 1
116 223 1
116 251 1
116 294 1
116 370 1
117 21 1
117 89 1
117 127 2
117 155 1
117 224 1
117 252 1
117 295 1
117 371 1
118 22 1
118 90 1
118 128 2
118 156 1
118 225 1
118 253 1
118 296 1
118 372 1
119 23 1
119 91 1
119 129 2
119 157 1
119 226 1
119 254 1
119 297 1
119 373 1
120 24 1
120 92 1
120 130 2
120 158 1
120 227 1
120 255 1
120 298 1
120 374 1
121 25 1
121 93 1
121 131 2
121 159 1
121 228 1
121 256 1
121 299 1
121 375 1
122 26 1
122 94 1
122 132 2
122 160 1
122 229 1
122 257 1
122 300 1
122 376 1
123 27 1
123 95 1
123 133 2
123 161 1
123 230 1
123 258 1
123 301 1
123 377 1
124 28 1
124 96 1
124 134 2
124 162 1
124 231 1
124 259 1
124 302 1
124 378 1
125 29 1
125 49 1
125 135 2
125 163 1
125 232 1
125 260 1
125 303 1
125 379 1
126 30 1
126 50 1
126 136 2
126 164 1
126 233 1
126 261 1
126 304 1
126 380 1
127 31 1
127 51 1
127 137 2
127 165 1
127 234 1
127 262 1
127 305 1
127 381 1
128 32 1
128 52 1
128 138 2
128 166 1
128 235 1
128 263 1
128 306 1
128 382 1
129 33 1
129 53 1
129 139 2
129 167 1
129 236 1
129 264 1
129 307 1
129 383 1
130 34 1
130 54 1
130 140 2
130 168 1
130 237 1
130 265 1
130 308 1
130 384 1
131 35 1
131 55 1
131 141 2
131 169 1
131 238 1
131 266 1
131 309 1
131 337 1
132 36 1
132 56 1
132 142 2
132 170 1
132 239 1
132 267 1
132 310 1
132 338 1
133 37 1
133 57 1
133 143 2
133 171 1
133 240 1
133 268 1
133 311 1
133 339 1
134 38 1
134 58 1
134 144 2
134 172 1
134 193 1
134 269 1
134 312 1
134 340 1
135 39 1
135 59 1
135 97 2
135 173 1
135 194 1
135 270 1
135 313 1
135 341 1
136 40 1
136 60 1
136 98 2
136 174 1
136 195 1
136 271 1
136 314 1
136 342 1
137 41 1
137 61 1
137 99 2
137 175 1
137 196 1
137 272 1
137 315 1
137 343 1
138 42 1
138 62 1
138 100 2
138 176 1
138 197 1
138 273 1
138 316 1
138 344 1
139 43 1
139 63 1
139 101 2
139 177 1
139 198 1
139 274 1
139 317 1
139 345 1
140 44 1
140 64 1
140 102 2
140 178 1
140 199 1
140 275 1
140 318 1
140 346 1
141 45 1
141 65 1
141 103 2
141 179 1
141 200 1
141 276 1
141 319 1
141 347 1
142 46 1
142 66 1
142 104 2
142 180 1
142 201 1
142 277 1
142 320 1
142 348 1
143 47 1
143 67 1
143 105 2
143 181 1
143 202 1
143 278 1
143 321 1
143 349 1
144 48 1
144 68 1
144 106 2
144 182 1
144 203 1
144 279 1
144 322 1
144 350 1
