%%MatrixMarket matrix coordinate integer general
% Binary matrix over GF(2).
% Coordinate indices are 1-based; omitted entries are zero.
288 768 2448
1 1 1
1 191 1
1 287 1
1 365 1
1 386 1
1 557 1
1 603 1
1 699 1
2 2 1
2 192 1
2 288 1
2 366 1
2 385 1
2 386 1
2 558 1
2 604 1
2 700 1
3 3 1
3 97 1
3 193 1
3 367 1
3 388 1
3 559 1
3 605 1
3 701 1
4 4 1
4 98 1
4 194 1
4 368 1
4 387 1
4 388 1
4 560 1
4 606 1
4 702 1
5 5 1
5 99 1
5 195 1
5 369 1
5 390 1
5 561 1
5 607 1
5 703 1
6 6 1
6 100 1
6 196 1
6 370 1
6 389 1
6 390 1
6 562 1
6 608 1
6 704 1
7 7 1
7 101 1
7 197 1
7 371 1
7 392 1
7 563 1
7 609 1
7 705 1
8 8 1
8 102 1
8 198 1
8 372 1
8 391 1
8 392 1
8 564 1
8 610 1
8 706 1
9 9 1
9 103 1
9 199 1
9 373 1
9 394 1
9 565 1
9 611 1
9 707 1
10 10 1
10 104 1
10 200 1
10 374 1
10 393 1
10 394 1
10 566 1
10 612 1
10 708 1
11 11 1
11 105 1
11 201 1
11 375 1
11 396 1
11 567 1
11 613 1
11 709 1
12 12 1
12 106 1
12 202 1
12 376 1
12 395 1
12 396 1
12 568 1
12 614 1
12 710 1
13 13 1
13 107 1
13 203 1
13 377 1
13 398 1
13 569 1
13 615 1
13 711 1
14 14 1
14 108 1
14 204 1
14 378 1
14 397 1
14 398 1
14 570 1
14 616 1
14 712 1
15 15 1
15 109 1
15 205 1
15 379 1
15 400 1
15 571 1
15 617 1
15 713 1
16 16 1
16 110 1
16 206 1
16 380 1
16 399 1
16 400 1
16 572 1
16 618 1
16 714 1
17 17 1
17 111 1
17 207 1
17 381 1
17 402 1
17 573 1
17 619 1
17 715 1
18 18 1
18 112 1
18 208 1
18 382 1
18 401 1
18 402 1
18 574 1
18 620 1
18 716 1
19 19 1
19 113 1
19 209 1
19 383 1
19 404 1
19 575 1
19 621 1
19 717 1
20 20 1
20 114 1
20 210 1
20 384 1
20 403 1
20 404 1
20 576 1
20 622 1
20 718 1
21 21 1
21 115 1
21 211 1
21 289 1
21 406 1
21 481 1
21 623 1
21 719 1
22 22 1
22 116 1
22 212 1
22 290 1
22 405 1
22 406 1
22 482 1
22 624 1
22 720 1
23 23 1
23 117 1
23 213 1
23 291 1
23 408 1
23 483 1
23 625 1
23 721 1
24 24 1
24 118 1
24 214 1
24 292 1
24 407 1
24 408 1
24 484 1
24 626 1
24 722 1
25 25 1
25 119 1
25 215 1
25 293 1
25 410 1
25 485 1
25 627 1
25 723 1
26 26 1
26 120 1
26 216 1
26 294 1
26 409 1
26 410 1
26 486 1
26 628 1
26 724 1
27 27 1
27 121 1
27 217 1
27 295 1
27 412 1
27 487 1
27 629 1
27 725 1
28 28 1
28 122 1
28 218 1
28 296 1
28 411 1
28 412 1
28 488 1
28 630 1
28 726 1
29 29 1
29 123 1
29 219 1
29 297 1
29 414 1
29 489 1
29 631 1
29 727 1
30 30 1
30 124 1
30 220 1
30 298 1
30 413 1
30 414 1
30 490 1
30 632 1
30 728 1
31 31 1
31 125 1
31 221 1
31 299 1
31 416 1
31 491 1
31 633 1
31 729 1
32 32 1
32 126 1
32 222 1
32 300 1
32 415 1
32 416 1
32 492 1
32 634 1
32 730 1
33 33 1
33 127 1
33 223 1
33 301 1
33 418 1
33 493 1
33 635 1
33 731 1
34 34 1
34 128 1
34 224 1
34 302 1
34 417 1
34 418 1
34 494 1
34 636 1
34 732 1
35 35 1
35 129 1
35 225 1
35 303 1
35 420 1
35 495 1
35 637 1
35 733 1
36 36 1
36 130 1
36 226 1
36 304 1
36 419 1
36 420 1
36 496 1
36 638 1
36 734 1
37 37 1
37 131 1
37 227 1
37 305 1
37 422 1
37 497 1
37 639 1
37 735 1
38 38 1
38 132 1
38 228 1
38 306 1
38 421 1
38 422 1
38 498 1
38 640 1
38 736 1
39 39 1
39 133 1
39 229 1
39 307 1
39 424 1
39 499 1
39 641 1
39 737 1
40 40 1
40 134 1
40 230 1
40 308 1
40 423 1
40 424 1
40 500 1
40 642 1
40 738 1
41 41 1
41 135 1
41 231 1
41 309 1
41 426 1
41 501 1
41 643 1
41 739 1
42 42 1
42 136 1
42 232 1
42 310 1
42 425 1
42 426 1
42 502 1
42 644 1
42 740 1
43 43 1
43 137 1
43 233 1
43 311 1
43 428 1
43 503 1
43 645 1
43 741 1
44 44 1
44 138 1
44 234 1
44 312 1
44 427 1
44 428 1
44 504 1
44 646 1
44 742 1
45 45 1
45 139 1
45 235 1
45 313 1
45 430 1
45 505 1
45 647 1
45 743 1
46 46 1
46 140 1
46 236 1
46 314 1
46 429 1
46 430 1
46 506 1
46 648 1
46 744 1
47 47 1
47 141 1
47 237 1
47 315 1
47 432 1
47 507 1
47 649 1
47 745 1
48 48 1
48 142 1
48 238 1
48 316 1
48 431 1
48 432 1
48 508 1
48 650 1
48 746 1
49 49 1
49 143 1
49 239 1
49 317 1
49 434 1
49 509 1
49 651 1
49 747 1
50 50 1
50 144 1
50 240 1
50 318 1
50 433 1
50 434 1
50 510 1
50 652 1
50 748 1
51 51 1
51 145 1
51 241 1
51 319 1
51 436 1
51 511 1
51 653 1
51 749 1
52 52 1
52 146 1
52 242 1
52 320 1
52 435 1
52 436 1
52 512 1
52 654 1
52 750 1
53 53 1
53 147 1
53 243 1
53 321 1
53 438 1
53 513 1
53 655 1
53 751 1
54 54 1
54 148 1
54 244 1
54 322 1
54 437 1
54 438 1
54 514 1
54 656 1
54 752 1
55 55 1
55 149 1
55 245 1
55 323 1
55 440 1
55 515 1
55 657 1
55 753 1
56 56 1
56 150 1
56 246 1
56 324 1
56 439 1
56 440 1
56 516 1
56 658 1
56 754 1
57 57 1
57 151 1
57 247 1
57 325 1
57 442 1
57 517 1
57 659 1
57 755 1
58 58 1
58 152 1
58 248 1
58 326 1
58 441 1
58 442 1
58 518 1
58 660 1
58 756 1
59 59 1
59 153 1
59 249 1
59 327 1
59 444 1
59 519 1
59 661 1
59 757 1
60 60 1
60 154 1
60 250 1
60 328 1
60 443 1
60 444 1
60 520 1
60 662 1
60 758 1
61 61 1
61 155 1
61 251 1
61 329 1
61 446 1
61 521 1
61 663 1
61 759 1
62 62 1
62 156 1
62 252 1
62 330 1
62 445 1
62 446 1
62 522 1
62 664 1
62 760 1
63 63 1
63 157 1
63 253 1
63 331 1
63 448 1
63 523 1
63 665 1
63 761 1
64 64 1
64 158 1
64 254 1
64 332 1
64 447 1
64 448 1
64 524 1
64 666 1
64 762 1
65 65 1
65 159 1
65 255 1
65 333 1
65 450 1
65 525 1
65 667 1
65 763 1
66 66 1
66 160 1
66 256 1
66 334 1
66 449 1
66 450 1
66 526 1
66 668 1
66 764 1
67 67 1
67 161 1
67 257 1
67 335 1
67 452 1
67 527 1
67 669 1
67 765 1
68 68 1
68 162 1
68 258 1
68 336 1
68 451 1
68 452 1
68 528 1
68 670 1
68 766 1
69 69 1
69 163 1
69 259 1
69 337 1
69 454 1
69 529 1
69 671 1
69 767 1
70 70 1
70 164 1
70 260 1
70 338 1
70 453 1
70 454 1
70 530 1
70 672 1
70 768 1
71 71 1
71 165 1
71 261 1
71 339 1
71 456 1
71 531 1
71 577 1
71 673 1
72 72 1
72 166 1
72 262 1
72 340 1
72 455 1
72 456 1
72 532 1
72 578 1
72 674 1
73 73 1
73 167 1
73 263 1
73 341 1
73 458 1
73 533 1
73 579 1
73 675 1
74 74 1
74 168 1
74 264 1
74 342 1
74 457 1
74 458 1
74 534 1
74 580 1
74 676 1
75 75 1
75 169 1
75 265 1
75 343 1
75 460 1
75 535 1
75 581 1
75 677 1
76 76 1
76 170 1
76 266 1
76 344 1
76 459 1
76 460 1
76 536 1
76 582 1
76 678 1
77 77 1
77 171 1
77 267 1
77 345 1
77 462 1
77 537 1
77 583 1
77 679 1
78 78 1
78 172 1
78 268 1
78 346 1
78 461 1
78 462 1
78 538 1
78 584 1
78 680 1
79 79 1
79 173 1
79 269 1
79 347 1
79 464 1
79 539 1
79 585 1
79 681 1
80 80 1
80 174 1
80 270 1
80 348 1
80 463 1
80 464 1
80 540 1
80 586 1
80 682 1
81 81 1
81 175 1
81 271 1
81 349 1
81 466 1
81 541 1
81 587 1
81 683 1
82 82 1
82 176 1
82 272 1
82 350 1
82 465 1
82 466 1
82 542 1
82 588 1
82 684 1
83 83 1
83 177 1
83 273 1
83 351 1
83 468 1
83 543 1
83 589 1
83 685 1
84 84 1
84 178 1
84 274 1
84 352 1
84 467 1
84 468 1
84 544 1
84 590 1
84 686 1
85 85 1
85 179 1
85 275 1
85 353 1
85 470 1
85 545 1
85 591 1
85 687 1
86 86 1
86 180 1
86 276 1
86 354 1
86 469 1
86 470 1
86 546 1
86 592 1
86 688 1
87 87 1
87 181 1
87 277 1
87 355 1
87 472 1
87 547 1
87 593 1
87 689 1
88 88 1
88 182 1
88 278 1
88 356 1
88 471 1
88 472 1
88 548 1
88 594 1
88 690 1
89 89 1
89 183 1
89 279 1
89 357 1
89 474 1
89 549 1
89 595 1
89 691 1
90 90 1
90 184 1
90 280 1
90 358 1
90 473 1
90 474 1
90 550 1
90 596 1
90 692 1
91 91 1
91 185 1
91 281 1
91 359 1
91 476 1
91 551 1
91 597 1
91 693 1
92 92 1
92 186 1
92 282 1
92 360 1
92 475 1
92 476 1
92 552 1
92 598 1
92 694 1
93 93 1
93 187 1
93 283 1
93 361 1
93 478 1
93 553 1
93 599 1
93 695 1
94 94 1
94 188 1
94 284 1
94 362 1
94 477 1
94 478 1
94 554 1
94 600 1
94 696 1
95 95 1
95 189 1
95 285 1
95 363 1
95 480 1
95 555 1
95 601 1
95 697 1
96 96 1
96 190 1
96 286 1
96 364 1
96 479 1
96 480 1
96 556 1
96 602 1
96 698 1
97 1 1
97 183 1
97 231 1
97 375 1
97 453 1
97 482 1
97 645 1
97 711 1
98 2 1
98 184 1
98 232 1
98 376 1
98 454 1
98 481 1
98 482 1
98 646 1
98 712 1
99 3 1
99 185 1
99 233 1
99 377 1
99 455 1
99 484 1
99 647 1
99 713 1
100 4 1
100 186 1
100 234 1
100 378 1
100 456 1
100 483 1
100 484 1
100 648 1
100 714 1
101 5 1
101 187 1
101 235 1
101 379 1
101 457 1
101 486 1
101 649 1
101 715 1
102 6 1
102 188 1
102 236 1
102 380 1
102 458 1
102 485 1
102 486 1
102 650 1
102 716 1
103 7 1
103 189 1
103 237 1
103 381 1
103 459 1
103 488 1
103 651 1
103 717 1
104 8 1
104 190 1
104 238 1
104 382 1
104 460 1
104 487 1
104 488 1
104 652 1
104 718 1
105 9 1
105 191 1
105 239 1
105 383 1
105 461 1
105 490 1
105 653 1
105 719 1
106 10 1
106 192 1
106 240 1
106 384 1
106 462 1
106 489 1
106 490 1
106 654 1
106 720 1
107 11 1
107 97 1
107 241 1
107 289 1
107 463 1
107 492 1
107 655 1
107 721 1
108 12 1
108 98 1
108 242 1
108 290 1
108 464 1
108 491 1
108 492 1
108 656 1
108 722 1
109 13 1
109 99 1
109 243 1
109 291 1
109 465 1
109 494 1
109 657 1
109 723 1
110 14 1
110 100 1
110 244 1
110 292 1
110 466 1
110 493 1
110 494 1
110 658 1
110 724 1
111 15 1
111 101 1
111 245 1
111 293 1
111 467 1
111 496 1
111 659 1
111 725 1
112 16 1
112 102 1
112 246 1
112 294 1
112 468 1
112 495 1
112 496 1
112 660 1
112 726 1
113 17 1
113 103 1
113 247 1
113 295 1
113 469 1
113 498 1
113 661 1
113 727 1
114 18 1
114 104 1
114 248 1
114 296 1
114 470 1
114 497 1
114 498 1
114 662 1
114 728 1
115 19 1
115 105 1
115 249 1
115 297 1
115 471 1
115 500 1
115 663 1
115 729 1
116 20 1
116 106 1
116 250 1
116 298 1
116 472 1
116 499 1
116 500 1
116 664 1
116 730 1
117 21 1
117 107 1
117 251 1
117 299 1
117 473 1
117 502 1
117 665 1
117 731 1
118 22 1
118 108 1
118 252 1
118 300 1
118 474 1
118 501 1
118 502 1
118 666 1
118 732 1
119 23 1
119 109 1
119 253 1
119 301 1
119 475 1
119 504 1
119 667 1
119 733 1
120 24 1
120 110 1
120 254 1
120 302 1
120 476 1
120 503 1
120 504 1
120 668 1
120 734 1
121 25 1
121 111 1
121 255 1
121 303 1
121 477 1
121 506 1
121 669 1
121 735 1
122 26 1
122 112 1
122 256 1
122 304 1
122 478 1
122 505 1
122 506 1
122 670 1
122 736 1
123 27 1
123 113 1
123 257 1
123 305 1
123 479 1
123 508 1
123 671 1
123 737 1
124 28 1
124 114 1
124 258 1
124 306 1
124 480 1
124 507 1
124 508 1
124 672 1
124 738 1
125 29 1
125 115 1
125 259 1
125 307 1
125 385 1
125 510 1
125 577 1
125 739 1
126 30 1
126 116 1
126 260 1
126 308 1
126 386 1
126 509 1
126 510 1
126 578 1
126 740 1
127 31 1
127 117 1
127 261 1
127 309 1
127 387 1
127 512 1
127 579 1
127 741 1
128 32 1
128 118 1
128 262 1
128 310 1
128 388 1
128 511 1
128 512 1
128 580 1
128 742 1
129 33 1
129 119 1
129 263 1
129 311 1
129 389 1
129 514 1
129 581 1
129 743 1
130 34 1
130 120 1
130 264 1
130 312 1
130 390 1
130 513 1
130 514 1
130 582 1
130 744 1
131 35 1
131 121 1
131 265 1
131 313 1
131 391 1
131 516 1
131 583 1
131 745 1
132 36 1
132 122 1
132 266 1
132 314 1
132 392 1
132 515 1
132 516 1
132 584 1
132 746 1
133 37 1
133 123 1
133 267 1
133 315 1
133 393 1
133 518 1
133 585 1
133 747 1
134 38 1
134 124 1
134 268 1
134 316 1
134 394 1
134 517 1
134 518 1
134 586 1
134 748 1
135 39 1
135 125 1
135 269 1
135 317 1
135 395 1
135 520 1
135 587 1
135 749 1
136 40 1
136 126 1
136 270 1
136 318 1
136 396 1
136 519 1
136 520 1
136 588 1
136 750 1
137 41 1
137 127 1
137 271 1
137 319 1
137 397 1
137 522 1
137 589 1
137 751 1
138 42 1
138 128 1
138 272 1
138 320 1
138 398 1
138 521 1
138 522 1
138 590 1
138 752 1
139 43 1
139 129 1
139 273 1
139 321 1
139 399 1
139 524 1
139 591 1
139 753 1
140 44 1
140 130 1
140 274 1
140 322 1
140 400 1
140 523 1
140 524 1
140 592 1
140 754 1
141 45 1
141 131 1
141 275 1
141 323 1
141 401 1
141 526 1
141 593 1
141 755 1
142 46 1
142 132 1
142 276 1
142 324 1
142 402 1
142 525 1
142 526 1
142 594 1
142 756 1
143 47 1
143 133 1
143 277 1
143 325 1
143 403 1
143 528 1
143 595 1
143 757 1
144 48 1
144 134 1
144 278 1
144 326 1
144 404 1
144 527 1
144 528 1
144 596 1
144 758 1
145 49 1
145 135 1
145 279 1
145 327 1
145 405 1
145 530 1
145 597 1
145 759 1
146 50 1
146 136 1
146 280 1
146 328 1
146 406 1
146 529 1
146 530 1
146 598 1
146 760 1
147 51 1
147 137 1
147 281 1
147 329 1
147 407 1
147 532 1
147 599 1
147 761 1
148 52 1
148 138 1
148 282 1
148 330 1
148 408 1
148 531 1
148 532 1
148 600 1
148 762 1
149 53 1
149 139 1
149 283 1
149 331 1
149 409 1
149 534 1
149 601 1
149 763 1
150 54 1
150 140 1
150 284 1
150 332 1
150 410 1
150 533 1
150 534 1
150 602 1
150 764 1
151 55 1
151 141 1
151 285 1
151 333 1
151 411 1
151 536 1
151 603 1
151 765 1
152 56 1
152 142 1
152 286 1
152 334 1
152 412 1
152 535 1
152 536 1
152 604 1
152 766 1
153 57 1
153 143 1
153 287 1
153 335 1
153 413 1
153 538 1
153 605 1
153 767 1
154 58 1
154 144 1
154 288 1
154 336 1
154 414 1
154 537 1
154 538 1
154 606 1
154 768 1
155 59 1
155 145 1
155 193 1
155 337 1
155 415 1
155 540 1
155 607 1
155 673 1
156 60 1
156 146 1
156 194 1
156 338 1
156 416 1
156 539 1
156 540 1
156 608 1
156 674 1
157 61 1
157 147 1
157 195 1
157 339 1
157 417 1
157 542 1
157 609 1
157 675 1
158 62 1
158 148 1
158 196 1
158 340 1
158 418 1
158 541 1
158 542 1
158 610 1
158 676 1
159 63 1
159 149 1
159 197 1
159 341 1
159 419 1
159 544 1
159 611 1
159 677 1
160 64 1
160 150 1
160 198 1
160 342 1
160 420 1
160 543 1
160 544 1
160 612 1
160 678 1
161 65 1
161 151 1
161 199 1
161 343 1
161 421 1
161 546 1
161 613 1
161 679 1
162 66 1
162 152 1
162 200 1
162 344 1
162 422 1
162 545 1
162 546 1
162 614 1
162 680 1
163 67 1
163 153 1
163 201 1
163 345 1
163 423 1
163 548 1
163 615 1
163 681 1
164 68 1
164 154 1
164 202 1
164 346 1
164 424 1
164 547 1
164 548 1
164 616 1
164 682 1
165 69 1
165 155 1
165 203 1
165 347 1
165 425 1
165 550 1
165 617 1
165 683 1
166 70 1
166 156 1
166 204 1
166 348 1
166 426 1
166 549 1
166 550 1
166 618 1
166 684 1
167 71 1
167 157 1
167 205 1
167 349 1
167 427 1
167 552 1
167 619 1
167 685 1
168 72 1
168 158 1
168 206 1
168 350 1
168 428 1
168 551 1
168 552 1
168 620 1
168 686 1
169 73 1
169 159 1
169 207 1
169 351 1
169 429 1
169 554 1
169 621 1
169 687 1
170 74 1
170 160 1
170 208 1
170 352 1
170 430 1
170 553 1
170 554 1
170 622 1
170 688 1
171 75 1
171 161 1
171 209 1
171 353 1
171 431 1
171 556 1
171 623 1
171 689 1
172 76 1
172 162 1
172 210 1
172 354 1
172 432 1
172 555 1
172 556 1
172 624 1
172 690 1
173 77 1
173 163 1
173 211 1
173 355 1
173 433 1
173 558 1
173 625 1
173 691 1
174 78 1
174 164 1
174 212 1
174 356 1
174 434 1
174 557 1
174 558 1
174 626 1
174 692 1
175 79 1
175 165 1
175 213 1
175 357 1
175 435 1
175 560 1
175 627 1
175 693 1
176 80 1
176 166 1
176 214 1
176 358 1
176 436 1
176 559 1
176 560 1
176 628 1
176 694 1
177 81 1
177 167 1
177 215 1
177 359 1
177 437 1
177 562 1
177 629 1
177 695 1
178 82 1
178 168 1
178 216 1
178 360 1
178 438 1
178 561 1
178 562 1
178 630 1
178 696 1
179 83 1
179 169 1
179 217 1
179 361 1
179 439 1
179 564 1
179 631 1
179 697 1
180 84 1
180 170 1
180 218 1
180 362 1
180 440 1
180 563 1
180 564 1
180 632 1
180 698 1
181 85 1
181 171 1
181 219 1
181 363 1
181 441 1
181 566 1
181 633 1
181 699 1
182 86 1
182 172 1
182 220 1
182 364 1
182 442 1
182 565 1
182 566 1
182 634 1
182 700 1
183 87 1
183 173 1
183 221 1
183 365 1
183 443 1
183 568 1
183 635 1
183 701 1
184 88 1
184 174 1
184 222 1
184 366 1
184 444 1
184 567 1
184 568 1
184 636 1
184 702 1
185 89 1
185 175 1
185 223 1
185 367 1
185 445 1
185 570 1
185 637 1
185 703 1
186 90 1
186 176 1
186 224 1
186 368 1
186 446 1
186 569 1
186 570 1
186 638 1
186 704 1
187 91 1
187 177 1
187 225 1
187 369 1
187 447 1
187 572 1
187 639 1
187 705 1
188 92 1
188 178 1
188 226 1
188 370 1
188 448 1
188 571 1
188 572 1
188 640 1
188 706 1
189 93 1
189 179 1
189 227 1
189 371 1
189 449 1
189 574 1
189 641 1
189 707 1
190 94 1
190 180 1
190 228 1
190 372 1
190 450 1
190 573 1
190 574 1
190 642 1
190 708 1
191 95 1
191 181 1
191 229 1
191 373 1
191 451 1
191 576 1
191 643 1
191 709 1
192 96 1
192 182 1
192 230 1
192 374 1
192 452 1
192 575 1
192 576 1
192 644 1
192 710 1
193 1 1
193 137 1
193 241 1
193 335 1
193 425 1
193 529 1
193 578 1
193 719 1
194 2 1
194 138 1
194 242 1
194 336 1
194 426 1
194 530 1
194 577 1
194 578 1
194 720 1
195 3 1
195 139 1
195 243 1
195 337 1
195 427 1
195 531 1
195 580 1
195 721 1
196 4 1
196 140 1
196 244 1
196 338 1
196 428 1
196 532 1
196 579 1
196 580 1
196 722 1
197 5 1
197 141 1
197 245 1
197 339 1
197 429 1
197 533 1
197 582 1
197 723 1
198 6 1
198 142 1
198 246 1
198 340 1
198 430 1
198 534 1
198 581 1
198 582 1
198 724 1
199 7 1
199 143 1
199 247 1
199 341 1
199 431 1
199 535 1
199 584 1
199 725 1
200 8 1
200 144 1
200 248 1
200 342 1
200 432 1
200 536 1
200 583 1
200 584 1
200 726 1
201 9 1
201 145 1
201 249 1
201 343 1
201 433 1
201 537 1
201 586 1
201 727 1
202 10 1
202 146 1
202 250 1
202 344 1
202 434 1
202 538 1
202 585 1
202 586 1
202 728 1
203 11 1
203 147 1
203 251 1
203 345 1
203 435 1
203 539 1
203 588 1
203 729 1
204 12 1
204 148 1
204 252 1
204 346 1
204 436 1
204 540 1
204 587 1
204 588 1
204 730 1
205 13 1
205 149 1
205 253 1
205 347 1
205 437 1
205 541 1
205 590 1
205 731 1
206 14 1
206 150 1
206 254 1
206 348 1
206 438 1
206 542 1
206 589 1
206 590 1
206 732 1
207 15 1
207 151 1
207 255 1
207 349 1
207 439 1
207 543 1
207 592 1
207 733 1
208 16 1
208 152 1
208 256 1
208 350 1
208 440 1
208 544 1
208 591 1
208 592 1
208 734 1
209 17 1
209 153 1
209 257 1
209 351 1
209 441 1
209 545 1
209 594 1
209 735 1
210 18 1
210 154 1
210 258 1
210 352 1
210 442 1
210 546 1
210 593 1
210 594 1
210 736 1
211 19 1
211 155 1
211 259 1
211 353 1
211 443 1
211 547 1
211 596 1
211 737 1
212 20 1
212 156 1
212 260 1
212 354 1
212 444 1
212 548 1
212 595 1
212 596 1
212 738 1
213 21 1
213 157 1
213 261 1
213 355 1
213 445 1
213 549 1
213 598 1
213 739 1
214 22 1
214 158 1
214 262 1
214 356 1
214 446 1
214 550 1
214 597 1
214 598 1
214 740 1
215 23 1
215 159 1
215 263 1
215 357 1
215 447 1
215 551 1
215 600 1
215 741 1
216 24 1
216 160 1
216 264 1
216 358 1
216 448 1
216 552 1
216 599 1
216 600 1
216 742 1
217 25 1
217 161 1
217 265 1
217 359 1
217 449 1
217 553 1
217 602 1
217 743 1
218 26 1
218 162 1
218 266 1
218 360 1
218 450 1
218 554 1
218 601 1
218 602 1
218 744 1
219 27 1
219 163 1
219 267 1
219 361 1
219 451 1
219 555 1
219 604 1
219 745 1
220 28 1
220 164 1
220 268 1
220 362 1
220 452 1
220 556 1
220 603 1
220 604 1
220 746 1
221 29 1
221 165 1
221 269 1
221 363 1
221 453 1
221 557 1
221 606 1
221 747 1
222 30 1
222 166 1
222 270 1
222 364 1
222 454 1
222 558 1
222 605 1
222 606 1
222 748 1
223 31 1
223 167 1
223 271 1
223 365 1
223 455 1
223 559 1
223 608 1
223 749 1
224 32 1
224 168 1
224 272 1
224 366 1
224 456 1
224 560 1
224 607 1
224 608 1
224 750 1
225 33 1
225 169 1
225 273 1
225 367 1
225 457 1
225 561 1
225 610 1
225 751 1
226 34 1
226 170 1
226 274 1
226 368 1
226 458 1
226 562 1
226 609 1
226 610 1
226 752 1
227 35 1
227 171 1
227 275 1
227 369 1
227 459 1
227 563 1
227 612 1
227 753 1
228 36 1
228 172 1
228 276 1
228 370 1
228 460 1
228 564 1
228 611 1
228 612 1
228 754 1
229 37 1
229 173 1
229 277 1
229 371 1
229 461 1
229 565 1
229 614 1
229 755 1
230 38 1
230 174 1
230 278 1
230 372 1
230 462 1
230 566 1
230 613 1
230 614 1
230 756 1
231 39 1
231 175 1
231 279 1
231 373 1
231 463 1
231 567 1
231 616 1
231 757 1
232 40 1
232 176 1
232 280 1
232 374 1
232 464 1
232 568 1
232 615 1
232 616 1
232 758 1
233 41 1
233 177 1
233 281 1
233 375 1
233 465 1
233 569 1
233 618 1
233 759 1
234 42 1
234 178 1
234 282 1
234 376 1
234 466 1
234 570 1
234 617 1
234 618 1
234 760 1
235 43 1
235 179 1
235 283 1
235 377 1
235 467 1
235 571 1
235 620 1
235 761 1
236 44 1
236 180 1
236 284 1
236 378 1
236 468 1
236 572 1
236 619 1
236 620 1
236 762 1
237 45 1
237 181 1
237 285 1
237 379 1
237 469 1
237 573 1
237 622 1
237 763 1
238 46 1
238 182 1
238 286 1
238 380 1
238 470 1
238 574 1
238 621 1
238 622 1
238 764 1
239 47 1
239 183 1
239 287 1
239 381 1
239 471 1
239 575 1
239 624 1
239 765 1
240 48 1
240 184 1
240 288 1
240 382 1
240 472 1
240 576 1
240 623 1
240 624 1
240 766 1
241 49 1
241 185 1
241 193 1
241 383 1
241 473 1
241 481 1
241 626 1
241 767 1
242 50 1
242 186 1
242 194 1
242 384 1
242 474 1
242 482 1
242 625 1
242 626 1
242 768 1
243 51 1
243 187 1
243 195 1
243 289 1
243 475 1
243 483 1
243 628 1
243 673 1
244 52 1
244 188 1
244 196 1
244 290 1
244 476 1
244 484 1
244 627 1
244 628 1
244 674 1
245 53 1
245 189 1
245 197 1
245 291 1
245 477 1
245 485 1
245 630 1
245 675 1
246 54 1
246 190 1
246 198 1
246 292 1
246 478 1
246 486 1
246 629 1
246 630 1
246 676 1
247 55 1
247 191 1
247 199 1
247 293 1
247 479 1
247 487 1
247 632 1
247 677 1
248 56 1
248 192 1
248 200 1
248 294 1
248 480 1
248 488 1
248 631 1
248 632 1
248 678 1
249 57 1
249 97 1
249 201 1
249 295 1
249 385 1
249 489 1
249 634 1
249 679 1
250 58 1
250 98 1
250 202 1
250 296 1
250 386 1
250 490 1
250 633 1
250 634 1
250 680 1
251 59 1
251 99 1
251 203 1
251 297 1
251 387 1
251 491 1
251 636 1
251 681 1
252 60 1
252 100 1
252 204 1
252 298 1
252 388 1
252 492 1
252 635 1
252 636 1
252 682 1
253 61 1
253 101 1
253 205 1
253 299 1
253 389 1
253 493 1
253 638 1
253 683 1
254 62 1
254 102 1
254 206 1
254 300 1
254 390 1
254 494 1
254 637 1
254 638 1
254 684 1
255 63 1
255 103 1
255 207 1
255 301 1
255 391 1
255 495 1
255 640 1
255 685 1
256 64 1
256 104 1
256 208 1
256 302 1
256 392 1
256 496 1
256 639 1
256 640 1
256 686 1
257 65 1
257 105 1
257 209 1
257 303 1
257 393 1
257 497 1
257 642 1
257 687 1
258 66 1
258 106 1
258 210 1
258 304 1
258 394 1
258 498 1
258 641 1
258 642 1
258 688 1
259 67 1
259 107 1
259 211 1
259 305 1
259 395 1
259 499 1
259 644 1
259 689 1
260 68 1
260 108 1
260 212 1
260 306 1
260 396 1
260 500 1
260 643 1
260 644 1
260 690 1
261 69 1
261 109 1
261 213 1
261 307 1
261 397 1
261 501 1
261 646 1
261 691 1
262 70 1
262 110 1
262 214 1
262 308 1
262 398 1
262 502 1
262 645 1
262 646 1
262 692 1
263 71 1
263 111 1
263 215 1
263 309 1
263 399 1
263 503 1
263 648 1
263 693 1
264 72 1
264 112 1
264 216 1
264 310 1
264 400 1
264 504 1
264 647 1
264 648 1
264 694 1
265 73 1
265 113 1
265 217 1
265 311 1
265 401 1
265 505 1
265 650 1
265 695 1
266 74 1
266 114 1
266 218 1
266 312 1
266 402 1
266 506 1
266 649 1
266 650 1
266 696 1
267 75 1
267 115 1
267 219 1
267 313 1
267 403 1
267 507 1
267 652 1
267 697 1
268 76 1
268 116 1
268 220 1
268 314 1
268 404 1
268 508 1
268 651 1
268 652 1
268 698 1
269 77 1
269 117 1
269 221 1
269 315 1
269 405 1
269 509 1
269 654 1
269 699 1
270 78 1
270 118 1
270 222 1
270 316 1
270 406 1
270 510 1
270 653 1
270 654 1
270 700 1
271 79 1
271 119 1
271 223 1
271 317 1
271 407 1
271 511 1
271 656 1
271 701 1
272 80 1
272 120 1
272 224 1
272 318 1
272 408 1
272 512 1
272 655 1
272 656 1
272 702 1
273 81 1
273 121 1
273 225 1
273 319 1
273 409 1
273 513 1
273 658 1
273 703 1
274 82 1
274 122 1
274 226 1
274 320 1
274 410 1
274 514 1
274 657 1
274 658 1
274 704 1
275 83 1
275 123 1
275 227 1
275 321 1
275 411 1
275 515 1
275 660 1
275 705 1
276 84 1
276 124 1
276 228 1
276 322 1
276 412 1
276 516 1
276 659 1
276 660 1
276 706 1
277 85 1
277 125 1
277 229 1
277 323 1
277 413 1
277 517 1
277 662 1
277 707 1
278 86 1
278 126 1
278 230 1
278 324 1
278 414 1
278 518 1
278 661 1
278 662 1
278 708 1
279 87 1
279 127 1
279 231 1
279 325 1
279 415 1
279 519 1
279 664 1
279 709 1
280 88 1
280 128 1
280 232 1
280 326 1
280 416 1
280 520 1
280 663 1
280 664 1
280 710 1
281 89 1
281 129 1
281 233 1
281 327 1
281 417 1
281 521 1
281 666 1
281 711 1
282 90 1
282 130 1
282 234 1
282 328 1
282 418 1
282 522 1
282 665 1
282 666 1
282 712 1
283 91 1
283 131 1
283 235 1
283 329 1
283 419 1
283 523 1
283 668 1
283 713 1
284 92 1
284 132 1
284 236 1
284 330 1
284 420 1
284 524 1
284 667 1
284 668 1
284 714 1
285 93 1
285 133 1
285 237 1
285 331 1
285 421 1
285 525 1
285 670 1
285 715 1
286 94 1
286 134 1
286 238 1
286 332 1
286 422 1
286 526 1
286 669 1
286 670 1
286 716 1
287 95 1
287 135 1
287 239 1
287 333 1
287 423 1
287 527 1
287 672 1
287 717 1
288 96 1
288 136 1
288 240 1
288 334 1
288 424 1
288 528 1
288 671 1
288 672 1
288 718 1
