%%MatrixMarket matrix coordinate integer general
% GF(4) labels 0,1,2=omega,3=omega+1; arithmetic is NOT integer arithmetic.
% Coordinate indices are 1-based; omitted entries are zero.
144 384 1152
1 1 1
1 96 1
1 144 1
1 183 1
1 193 2
1 279 1
1 302 1
1 350 1
2 2 1
2 49 1
2 97 1
2 184 1
2 194 2
2 280 1
2 303 1
2 351 1
3 3 1
3 50 1
3 98 1
3 185 1
3 195 2
3 281 1
3 304 1
3 352 1
4 4 1
4 51 1
4 99 1
4 186 1
4 196 2
4 282 1
4 305 1
4 353 1
5 5 1
5 52 1
5 100 1
5 187 1
5 197 2
5 283 1
5 306 1
5 354 1
6 6 1
6 53 1
6 101 1
6 188 1
6 198 2
6 284 1
6 307 1
6 355 1
7 7 1
7 54 1
7 102 1
7 189 1
7 199 2
7 285 1
7 308 1
7 356 1
8 8 1
8 55 1
8 103 1
8 190 1
8 200 2
8 286 1
8 309 1
8 357 1
9 9 1
9 56 1
9 104 1
9 191 1
9 201 2
9 287 1
9 310 1
9 358 1
10 10 1
10 57 1
10 105 1
10 192 1
10 202 2
10 288 1
10 311 1
10 359 1
11 11 1
11 58 1
11 106 1
11 145 1
11 203 2
11 241 1
11 312 1
11 360 1
12 12 1
12 59 1
12 107 1
12 146 1
12 204 2
12 242 1
12 313 1
12 361 1
13 13 1
13 60 1
13 108 1
13 147 1
13 205 2
13 243 1
13 314 1
13 362 1
14 14 1
14 61 1
14 109 1
14 148 1
14 206 2
14 244 1
14 315 1
14 363 1
15 15 1
15 62 1
15 110 1
15 149 1
15 207 2
15 245 1
15 316 1
15 364 1
16 16 1
16 63 1
16 111 1
16 150 1
16 208 2
16 246 1
16 317 1
16 365 1
17 17 1
17 64 1
17 112 1
17 151 1
17 209 2
17 247 1
17 318 1
17 366 1
18 18 1
18 65 1
18 113 1
18 152 1
18 210 2
18 248 1
18 319 1
18 367 1
19 19 1
19 66 1
19 114 1
19 153 1
19 211 2
19 249 1
19 320 1
19 368 1
20 20 1
20 67 1
20 115 1
20 154 1
20 212 2
20 250 1
20 321 1
20 369 1
21 21 1
21 68 1
21 116 1
21 155 1
21 213 2
21 251 1
21 322 1
21 370 1
22 22 1
22 69 1
22 117 1
22 156 1
22 214 2
22 252 1
22 323 1
22 371 1
23 23 1
23 70 1
23 118 1
23 157 1
23 215 2
23 253 1
23 324 1
23 372 1
24 24 1
24 71 1
24 119 1
24 158 1
24 216 2
24 254 1
24 325 1
24 373 1
25 25 1
25 72 1
25 120 1
25 159 1
25 217 2
25 255 1
25 326 1
25 374 1
26 26 1
26 73 1
26 121 1
26 160 1
26 218 2
26 256 1
26 327 1
26 375 1
27 27 1
27 74 1
27 122 1
27 161 1
27 219 2
27 257 1
27 328 1
27 376 1
28 28 1
28 75 1
28 123 1
28 162 1
28 220 2
28 258 1
28 329 1
28 377 1
29 29 1
29 76 1
29 124 1
29 163 1
29 221 2
29 259 1
29 330 1
29 378 1
30 30 1
30 77 1
30 125 1
30 164 1
30 222 2
30 260 1
30 331 1
30 379 1
31 31 1
31 78 1
31 126 1
31 165 1
31 223 2
31 261 1
31 332 1
31 380 1
32 32 1
32 79 1
32 127 1
32 166 1
32 224 2
32 262 1
32 333 1
32 381 1
33 33 1
33 80 1
33 128 1
33 167 1
33 225 2
33 263 1
33 334 1
33 382 1
34 34 1
34 81 1
34 129 1
34 168 1
34 226 2
34 264 1
34 335 1
34 383 1
35 35 1
35 82 1
35 130 1
35 169 1
35 227 2
35 265 1
35 336 1
35 384 1
36 36 1
36 83 1
36 131 1
36 170 1
36 228 2
36 266 1
36 289 1
36 337 1
37 37 1
37 84 1
37 132 1
37 171 1
37 229 2
37 267 1
37 290 1
37 338 1
38 38 1
38 85 1
38 133 1
38 172 1
38 230 2
38 268 1
38 291 1
38 339 1
39 39 1
39 86 1
39 134 1
39 173 1
39 231 2
39 269 1
39 292 1
39 340 1
40 40 1
40 87 1
40 135 1
40 174 1
40 232 2
40 270 1
40 293 1
40 341 1
41 41 1
41 88 1
41 136 1
41 175 1
41 233 2
41 271 1
41 294 1
41 342 1
42 42 1
42 89 1
42 137 1
42 176 1
42 234 2
42 272 1
42 295 1
42 343 1
43 43 1
43 90 1
43 138 1
43 177 1
43 235 2
43 273 1
43 296 1
43 344 1
44 44 1
44 91 1
44 139 1
44 178 1
44 236 2
44 274 1
44 297 1
44 345 1
45 45 1
45 92 1
45 140 1
45 179 1
45 237 2
45 275 1
45 298 1
45 346 1
46 46 1
46 93 1
46 141 1
46 180 1
46 238 2
46 276 1
46 299 1
46 347 1
47 47 1
47 94 1
47 142 1
47 181 1
47 239 2
47 277 1
47 300 1
47 348 1
48 48 1
48 95 1
48 143 1
48 182 1
48 240 2
48 278 1
48 301 1
48 349 1
49 1 1
49 92 1
49 116 1
49 188 1
49 227 1
49 241 2
49 323 1
49 356 1
50 2 1
50 93 1
50 117 1
50 189 1
50 228 1
50 242 2
50 324 1
50 357 1
51 3 1
51 94 1
51 118 1
51 190 1
51 229 1
51 243 2
51 325 1
51 358 1
52 4 1
52 95 1
52 119 1
52 191 1
52 230 1
52 244 2
52 326 1
52 359 1
53 5 1
53 96 1
53 120 1
53 192 1
53 231 1
53 245 2
53 327 1
53 360 1
54 6 1
54 49 1
54 121 1
54 145 1
54 232 1
54 246 2
54 328 1
54 361 1
55 7 1
55 50 1
55 122 1
55 146 1
55 233 1
55 247 2
55 329 1
55 362 1
56 8 1
56 51 1
56 123 1
56 147 1
56 234 1
56 248 2
56 330 1
56 363 1
57 9 1
57 52 1
57 124 1
57 148 1
57 235 1
57 249 2
57 331 1
57 364 1
58 10 1
58 53 1
58 125 1
58 149 1
58 236 1
58 250 2
58 332 1
58 365 1
59 11 1
59 54 1
59 126 1
59 150 1
59 237 1
59 251 2
59 333 1
59 366 1
60 12 1
60 55 1
60 127 1
60 151 1
60 238 1
60 252 2
60 334 1
60 367 1
61 13 1
61 56 1
61 128 1
61 152 1
61 239 1
61 253 2
61 335 1
61 368 1
62 14 1
62 57 1
62 129 1
62 153 1
62 240 1
62 254 2
62 336 1
62 369 1
63 15 1
63 58 1
63 130 1
63 154 1
63 193 1
63 255 2
63 289 1
63 370 1
64 16 1
64 59 1
64 131 1
64 155 1
64 194 1
64 256 2
64 290 1
64 371 1
65 17 1
65 60 1
65 132 1
65 156 1
65 195 1
65 257 2
65 291 1
65 372 1
66 18 1
66 61 1
66 133 1
66 157 1
66 196 1
66 258 2
66 292 1
66 373 1
67 19 1
67 62 1
67 134 1
67 158 1
67 197 1
67 259 2
67 293 1
67 374 1
68 20 1
68 63 1
68 135 1
68 159 1
68 198 1
68 260 2
68 294 1
68 375 1
69 21 1
69 64 1
69 136 1
69 160 1
69 199 1
69 261 2
69 295 1
69 376 1
70 22 1
70 65 1
70 137 1
70 161 1
70 200 1
70 262 2
70 296 1
70 377 1
71 23 1
71 66 1
71 138 1
71 162 1
71 201 1
71 263 2
71 297 1
71 378 1
72 24 1
72 67 1
72 139 1
72 163 1
72 202 1
72 264 2
72 298 1
72 379 1
73 25 1
73 68 1
73 140 1
73 164 1
73 203 1
73 265 2
73 299 1
73 380 1
74 26 1
74 69 1
74 141 1
74 165 1
74 204 1
74 266 2
74 300 1
74 381 1
75 27 1
75 70 1
75 142 1
75 166 1
75 205 1
75 267 2
75 301 1
75 382 1
76 28 1
76 71 1
76 143 1
76 167 1
76 206 1
76 268 2
76 302 1
76 383 1
77 29 1
77 72 1
77 144 1
77 168 1
77 207 1
77 269 2
77 303 1
77 384 1
78 30 1
78 73 1
78 97 1
78 169 1
78 208 1
78 270 2
78 304 1
78 337 1
79 31 1
79 74 1
79 98 1
79 170 1
79 209 1
79 271 2
79 305 1
79 338 1
80 32 1
80 75 1
80 99 1
80 171 1
80 210 1
80 272 2
80 306 1
80 339 1
81 33 1
81 76 1
81 100 1
81 172 1
81 211 1
81 273 2
81 307 1
81 340 1
82 34 1
82 77 1
82 101 1
82 173 1
82 212 1
82 274 2
82 308 1
82 341 1
83 35 1
83 78 1
83 102 1
83 174 1
83 213 1
83 275 2
83 309 1
83 342 1
84 36 1
84 79 1
84 103 1
84 175 1
84 214 1
84 276 2
84 310 1
84 343 1
85 37 1
85 80 1
85 104 1
85 176 1
85 215 1
85 277 2
85 311 1
85 344 1
86 38 1
86 81 1
86 105 1
86 177 1
86 216 1
86 278 2
86 312 1
86 345 1
87 39 1
87 82 1
87 106 1
87 178 1
87 217 1
87 279 2
87 313 1
87 346 1
88 40 1
88 83 1
88 107 1
88 179 1
88 218 1
88 280 2
88 314 1
88 347 1
89 41 1
89 84 1
89 108 1
89 180 1
89 219 1
89 281 2
89 315 1
89 348 1
90 42 1
90 85 1
90 109 1
90 181 1
90 220 1
90 282 2
90 316 1
90 349 1
91 43 1
91 86 1
91 110 1
91 182 1
91 221 1
91 283 2
91 317 1
91 350 1
92 44 1
92 87 1
92 111 1
92 183 1
92 222 1
92 284 2
92 318 1
92 351 1
93 45 1
93 88 1
93 112 1
93 184 1
93 223 1
93 285 2
93 319 1
93 352 1
94 46 1
94 89 1
94 113 1
94 185 1
94 224 1
94 286 2
94 320 1
94 353 1
95 47 1
95 90 1
95 114 1
95 186 1
95 225 1
95 287 2
95 321 1
95 354 1
96 48 1
96 91 1
96 115 1
96 187 1
96 226 1
96 288 2
96 322 1
96 355 1
97 1 1
97 69 1
97 121 1
97 168 1
97 213 1
97 265 1
97 289 2
97 360 1
98 2 1
98 70 1
98 122 1
98 169 1
98 214 1
98 266 1
98 290 2
98 361 1
99 3 1
99 71 1
99 123 1
99 170 1
99 215 1
99 267 1
99 291 2
99 362 1
100 4 1
100 72 1
100 124 1
100 171 1
100 216 1
100 268 1
100 292 2
100 363 1
101 5 1
101 73 1
101 125 1
101 172 1
101 217 1
101 269 1
101 293 2
101 364 1
102 6 1
102 74 1
102 126 1
102 173 1
102 218 1
102 270 1
102 294 2
102 365 1
103 7 1
103 75 1
103 127 1
103 174 1
103 219 1
103 271 1
103 295 2
103 366 1
104 8 1
104 76 1
104 128 1
104 175 1
104 220 1
104 272 1
104 296 2
104 367 1
105 9 1
105 77 1
105 129 1
105 176 1
105 221 1
105 273 1
105 297 2
105 368 1
106 10 1
106 78 1
106 130 1
106 177 1
106 222 1
106 274 1
106 298 2
106 369 1
107 11 1
107 79 1
107 131 1
107 178 1
107 223 1
107 275 1
107 299 2
107 370 1
108 12 1
108 80 1
108 132 1
108 179 1
108 224 1
108 276 1
108 300 2
108 371 1
109 13 1
109 81 1
109 133 1
109 180 1
109 225 1
109 277 1
109 301 2
109 372 1
110 14 1
110 82 1
110 134 1
110 181 1
110 226 1
110 278 1
110 302 2
110 373 1
111 15 1
111 83 1
111 135 1
111 182 1
111 227 1
111 279 1
111 303 2
111 374 1
112 16 1
112 84 1
112 136 1
112 183 1
112 228 1
112 280 1
112 304 2
112 375 1
113 17 1
113 85 1
113 137 1
113 184 1
113 229 1
113 281 1
113 305 2
113 376 1
114 18 1
114 86 1
114 138 1
114 185 1
114 230 1
114 282 1
114 306 2
114 377 1
115 19 1
115 87 1
115 139 1
115 186 1
115 231 1
115 283 1
115 307 2
115 378 1
116 20 1
116 88 1
116 140 1
116 187 1
116 232 1
116 284 1
116 308 2
116 379 1
117 21 1
117 89 1
117 141 1
117 188 1
117 233 1
117 285 1
117 309 2
117 380 1
118 22 1
118 90 1
118 142 1
118 189 1
118 234 1
118 286 1
118 310 2
118 381 1
119 23 1
119 91 1
119 143 1
119 190 1
119 235 1
119 287 1
119 311 2
119 382 1
120 24 1
120 92 1
120 144 1
120 191 1
120 236 1
120 288 1
120 312 2
120 383 1
121 25 1
121 93 1
121 97 1
121 192 1
121 237 1
121 241 1
121 313 2
121 384 1
122 26 1
122 94 1
122 98 1
122 145 1
122 238 1
122 242 1
122 314 2
122 337 1
123 27 1
123 95 1
123 99 1
123 146 1
123 239 1
123 243 1
123 315 2
123 338 1
124 28 1
124 96 1
124 100 1
124 147 1
124 240 1
124 244 1
124 316 2
124 339 1
125 29 1
125 49 1
125 101 1
125 148 1
125 193 1
125 245 1
125 317 2
125 340 1
126 30 1
126 50 1
126 102 1
126 149 1
126 194 1
126 246 1
126 318 2
126 341 1
127 31 1
127 51 1
127 103 1
127 150 1
127 195 1
127 247 1
127 319 2
127 342 1
128 32 1
128 52 1
128 104 1
128 151 1
128 196 1
128 248 1
128 320 2
128 343 1
129 33 1
129 53 1
129 105 1
129 152 1
129 197 1
129 249 1
129 321 2
129 344 1
130 34 1
130 54 1
130 106 1
130 153 1
130 198 1
130 250 1
130 322 2
130 345 1
131 35 1
131 55 1
131 107 1
131 154 1
131 199 1
131 251 1
131 323 2
131 346 1
132 36 1
132 56 1
132 108 1
132 155 1
132 200 1
132 252 1
132 324 2
132 347 1
133 37 1
133 57 1
133 109 1
133 156 1
133 201 1
133 253 1
133 325 2
133 348 1
134 38 1
134 58 1
134 110 1
134 157 1
134 202 1
134 254 1
134 326 2
134 349 1
135 39 1
135 59 1
135 111 1
135 158 1
135 203 1
135 255 1
135 327 2
135 350 1
136 40 1
136 60 1
136 112 1
136 159 1
136 204 1
136 256 1
136 328 2
136 351 1
137 41 1
137 61 1
137 113 1
137 160 1
137 205 1
137 257 1
137 329 2
137 352 1
138 42 1
138 62 1
138 114 1
138 161 1
138 206 1
138 258 1
138 330 2
138 353 1
139 43 1
139 63 1
139 115 1
139 162 1
139 207 1
139 259 1
139 331 2
139 354 1
140 44 1
140 64 1
140 116 1
140 163 1
140 208 1
140 260 1
140 332 2
140 355 1
141 45 1
141 65 1
141 117 1
141 164 1
141 209 1
141 261 1
141 333 2
141 356 1
142 46 1
142 66 1
142 118 1
142 165 1
142 210 1
142 262 1
142 334 2
142 357 1
143 47 1
143 67 1
143 119 1
143 166 1
143 211 1
143 263 1
143 335 2
143 358 1
144 48 1
144 68 1
144 120 1
144 167 1
144 212 1
144 264 1
144 336 2
144 359 1
