%%MatrixMarket matrix coordinate integer general
% Binary matrix over GF(2).
% Coordinate indices are 1-based; omitted entries are zero.
192 768 5088
1 1 1
1 3 1
1 51 1
1 52 1
1 60 1
1 78 1
1 87 1
1 289 1
1 290 1
1 337 1
1 338 1
1 346 1
1 406 1
1 415 1
1 436 1
1 443 1
1 453 1
1 455 1
1 492 1
1 529 1
1 532 1
1 547 1
1 557 1
1 559 1
2 3 1
2 5 1
2 53 1
2 54 1
2 62 1
2 80 1
2 89 1
2 291 1
2 292 1
2 339 1
2 340 1
2 348 1
2 408 1
2 417 1
2 438 1
2 445 1
2 455 1
2 457 1
2 494 1
2 531 1
2 534 1
2 549 1
2 559 1
2 561 1
3 5 1
3 7 1
3 55 1
3 56 1
3 64 1
3 82 1
3 91 1
3 293 1
3 294 1
3 341 1
3 342 1
3 350 1
3 410 1
3 419 1
3 440 1
3 447 1
3 457 1
3 459 1
3 496 1
3 533 1
3 536 1
3 551 1
3 561 1
3 563 1
4 7 1
4 9 1
4 57 1
4 58 1
4 66 1
4 84 1
4 93 1
4 295 1
4 296 1
4 343 1
4 344 1
4 352 1
4 412 1
4 421 1
4 442 1
4 449 1
4 459 1
4 461 1
4 498 1
4 535 1
4 538 1
4 553 1
4 563 1
4 565 1
5 9 1
5 11 1
5 59 1
5 60 1
5 68 1
5 86 1
5 95 1
5 297 1
5 298 1
5 345 1
5 346 1
5 354 1
5 414 1
5 423 1
5 444 1
5 451 1
5 461 1
5 463 1
5 500 1
5 537 1
5 540 1
5 555 1
5 565 1
5 567 1
6 1 1
6 11 1
6 13 1
6 61 1
6 62 1
6 70 1
6 88 1
6 299 1
6 300 1
6 347 1
6 348 1
6 356 1
6 416 1
6 425 1
6 446 1
6 453 1
6 463 1
6 465 1
6 502 1
6 539 1
6 542 1
6 557 1
6 567 1
6 569 1
7 3 1
7 13 1
7 15 1
7 63 1
7 64 1
7 72 1
7 90 1
7 301 1
7 302 1
7 349 1
7 350 1
7 358 1
7 418 1
7 427 1
7 448 1
7 455 1
7 465 1
7 467 1
7 504 1
7 541 1
7 544 1
7 559 1
7 569 1
7 571 1
8 5 1
8 15 1
8 17 1
8 65 1
8 66 1
8 74 1
8 92 1
8 303 1
8 304 1
8 351 1
8 352 1
8 360 1
8 420 1
8 429 1
8 450 1
8 457 1
8 467 1
8 469 1
8 506 1
8 543 1
8 546 1
8 561 1
8 571 1
8 573 1
9 7 1
9 17 1
9 19 1
9 67 1
9 68 1
9 76 1
9 94 1
9 305 1
9 306 1
9 353 1
9 354 1
9 362 1
9 422 1
9 431 1
9 452 1
9 459 1
9 469 1
9 471 1
9 508 1
9 545 1
9 548 1
9 563 1
9 573 1
9 575 1
10 9 1
10 19 1
10 21 1
10 69 1
10 70 1
10 78 1
10 96 1
10 307 1
10 308 1
10 355 1
10 356 1
10 364 1
10 424 1
10 433 1
10 454 1
10 461 1
10 471 1
10 473 1
10 481 1
10 510 1
10 547 1
10 550 1
10 565 1
10 575 1
11 2 1
11 11 1
11 21 1
11 23 1
11 71 1
11 72 1
11 80 1
11 309 1
11 310 1
11 357 1
11 358 1
11 366 1
11 426 1
11 435 1
11 456 1
11 463 1
11 473 1
11 475 1
11 481 1
11 483 1
11 512 1
11 549 1
11 552 1
11 567 1
12 4 1
12 13 1
12 23 1
12 25 1
12 73 1
12 74 1
12 82 1
12 311 1
12 312 1
12 359 1
12 360 1
12 368 1
12 428 1
12 437 1
12 458 1
12 465 1
12 475 1
12 477 1
12 483 1
12 485 1
12 514 1
12 551 1
12 554 1
12 569 1
13 6 1
13 15 1
13 25 1
13 27 1
13 75 1
13 76 1
13 84 1
13 313 1
13 314 1
13 361 1
13 362 1
13 370 1
13 430 1
13 439 1
13 460 1
13 467 1
13 477 1
13 479 1
13 485 1
13 487 1
13 516 1
13 553 1
13 556 1
13 571 1
14 8 1
14 17 1
14 27 1
14 29 1
14 77 1
14 78 1
14 86 1
14 315 1
14 316 1
14 363 1
14 364 1
14 372 1
14 385 1
14 432 1
14 441 1
14 462 1
14 469 1
14 479 1
14 487 1
14 489 1
14 518 1
14 555 1
14 558 1
14 573 1
15 10 1
15 19 1
15 29 1
15 31 1
15 79 1
15 80 1
15 88 1
15 317 1
15 318 1
15 365 1
15 366 1
15 374 1
15 385 1
15 387 1
15 434 1
15 443 1
15 464 1
15 471 1
15 489 1
15 491 1
15 520 1
15 557 1
15 560 1
15 575 1
16 12 1
16 21 1
16 31 1
16 33 1
16 81 1
16 82 1
16 90 1
16 319 1
16 320 1
16 367 1
16 368 1
16 376 1
16 387 1
16 389 1
16 436 1
16 445 1
16 466 1
16 473 1
16 481 1
16 491 1
16 493 1
16 522 1
16 559 1
16 562 1
17 14 1
17 23 1
17 33 1
17 35 1
17 83 1
17 84 1
17 92 1
17 321 1
17 322 1
17 369 1
17 370 1
17 378 1
17 389 1
17 391 1
17 438 1
17 447 1
17 468 1
17 475 1
17 483 1
17 493 1
17 495 1
17 524 1
17 561 1
17 564 1
18 16 1
18 25 1
18 35 1
18 37 1
18 85 1
18 86 1
18 94 1
18 323 1
18 324 1
18 371 1
18 372 1
18 380 1
18 391 1
18 393 1
18 440 1
18 449 1
18 470 1
18 477 1
18 485 1
18 495 1
18 497 1
18 526 1
18 563 1
18 566 1
19 18 1
19 27 1
19 37 1
19 39 1
19 87 1
19 88 1
19 96 1
19 325 1
19 326 1
19 373 1
19 374 1
19 382 1
19 393 1
19 395 1
19 442 1
19 451 1
19 472 1
19 479 1
19 487 1
19 497 1
19 499 1
19 528 1
19 565 1
19 568 1
20 2 1
20 20 1
20 29 1
20 39 1
20 41 1
20 89 1
20 90 1
20 327 1
20 328 1
20 375 1
20 376 1
20 384 1
20 385 1
20 395 1
20 397 1
20 444 1
20 453 1
20 474 1
20 489 1
20 499 1
20 501 1
20 530 1
20 567 1
20 570 1
21 4 1
21 22 1
21 31 1
21 41 1
21 43 1
21 91 1
21 92 1
21 290 1
21 329 1
21 330 1
21 377 1
21 378 1
21 387 1
21 397 1
21 399 1
21 446 1
21 455 1
21 476 1
21 491 1
21 501 1
21 503 1
21 532 1
21 569 1
21 572 1
22 6 1
22 24 1
22 33 1
22 43 1
22 45 1
22 93 1
22 94 1
22 292 1
22 331 1
22 332 1
22 379 1
22 380 1
22 389 1
22 399 1
22 401 1
22 448 1
22 457 1
22 478 1
22 493 1
22 503 1
22 505 1
22 534 1
22 571 1
22 574 1
23 8 1
23 26 1
23 35 1
23 45 1
23 47 1
23 95 1
23 96 1
23 294 1
23 333 1
23 334 1
23 381 1
23 382 1
23 391 1
23 401 1
23 403 1
23 450 1
23 459 1
23 480 1
23 495 1
23 505 1
23 507 1
23 536 1
23 573 1
23 576 1
24 1 1
24 2 1
24 10 1
24 28 1
24 37 1
24 47 1
24 49 1
24 296 1
24 335 1
24 336 1
24 383 1
24 384 1
24 386 1
24 393 1
24 403 1
24 405 1
24 452 1
24 461 1
24 482 1
24 497 1
24 507 1
24 509 1
24 538 1
24 575 1
25 3 1
25 4 1
25 12 1
25 30 1
25 39 1
25 49 1
25 51 1
25 289 1
25 290 1
25 298 1
25 337 1
25 338 1
25 388 1
25 395 1
25 405 1
25 407 1
25 454 1
25 463 1
25 481 1
25 484 1
25 499 1
25 509 1
25 511 1
25 540 1
26 5 1
26 6 1
26 14 1
26 32 1
26 41 1
26 51 1
26 53 1
26 291 1
26 292 1
26 300 1
26 339 1
26 340 1
26 390 1
26 397 1
26 407 1
26 409 1
26 456 1
26 465 1
26 483 1
26 486 1
26 501 1
26 511 1
26 513 1
26 542 1
27 7 1
27 8 1
27 16 1
27 34 1
27 43 1
27 53 1
27 55 1
27 293 1
27 294 1
27 302 1
27 341 1
27 342 1
27 392 1
27 399 1
27 409 1
27 411 1
27 458 1
27 467 1
27 485 1
27 488 1
27 503 1
27 513 1
27 515 1
27 544 1
28 9 1
28 10 1
28 18 1
28 36 1
28 45 1
28 55 1
28 57 1
28 295 1
28 296 1
28 304 1
28 343 1
28 344 1
28 394 1
28 401 1
28 411 1
28 413 1
28 460 1
28 469 1
28 487 1
28 490 1
28 505 1
28 515 1
28 517 1
28 546 1
29 11 1
29 12 1
29 20 1
29 38 1
29 47 1
29 57 1
29 59 1
29 297 1
29 298 1
29 306 1
29 345 1
29 346 1
29 396 1
29 403 1
29 413 1
29 415 1
29 462 1
29 471 1
29 489 1
29 492 1
29 507 1
29 517 1
29 519 1
29 548 1
30 13 1
30 14 1
30 22 1
30 40 1
30 49 1
30 59 1
30 61 1
30 299 1
30 300 1
30 308 1
30 347 1
30 348 1
30 398 1
30 405 1
30 415 1
30 417 1
30 464 1
30 473 1
30 491 1
30 494 1
30 509 1
30 519 1
30 521 1
30 550 1
31 15 1
31 16 1
31 24 1
31 42 1
31 51 1
31 61 1
31 63 1
31 301 1
31 302 1
31 310 1
31 349 1
31 350 1
31 400 1
31 407 1
31 417 1
31 419 1
31 466 1
31 475 1
31 493 1
31 496 1
31 511 1
31 521 1
31 523 1
31 552 1
32 17 1
32 18 1
32 26 1
32 44 1
32 53 1
32 63 1
32 65 1
32 303 1
32 304 1
32 312 1
32 351 1
32 352 1
32 402 1
32 409 1
32 419 1
32 421 1
32 468 1
32 477 1
32 495 1
32 498 1
32 513 1
32 523 1
32 525 1
32 554 1
33 19 1
33 20 1
33 28 1
33 46 1
33 55 1
33 65 1
33 67 1
33 305 1
33 306 1
33 314 1
33 353 1
33 354 1
33 404 1
33 411 1
33 421 1
33 423 1
33 470 1
33 479 1
33 497 1
33 500 1
33 515 1
33 525 1
33 527 1
33 556 1
34 21 1
34 22 1
34 30 1
34 48 1
34 57 1
34 67 1
34 69 1
34 307 1
34 308 1
34 316 1
34 355 1
34 356 1
34 385 1
34 406 1
34 413 1
34 423 1
34 425 1
34 472 1
34 499 1
34 502 1
34 517 1
34 527 1
34 529 1
34 558 1
35 23 1
35 24 1
35 32 1
35 50 1
35 59 1
35 69 1
35 71 1
35 309 1
35 310 1
35 318 1
35 357 1
35 358 1
35 387 1
35 408 1
35 415 1
35 425 1
35 427 1
35 474 1
35 501 1
35 504 1
35 519 1
35 529 1
35 531 1
35 560 1
36 25 1
36 26 1
36 34 1
36 52 1
36 61 1
36 71 1
36 73 1
36 311 1
36 312 1
36 320 1
36 359 1
36 360 1
36 389 1
36 410 1
36 417 1
36 427 1
36 429 1
36 476 1
36 503 1
36 506 1
36 521 1
36 531 1
36 533 1
36 562 1
37 27 1
37 28 1
37 36 1
37 54 1
37 63 1
37 73 1
37 75 1
37 313 1
37 314 1
37 322 1
37 361 1
37 362 1
37 391 1
37 412 1
37 419 1
37 429 1
37 431 1
37 478 1
37 505 1
37 508 1
37 523 1
37 533 1
37 535 1
37 564 1
38 29 1
38 30 1
38 38 1
38 56 1
38 65 1
38 75 1
38 77 1
38 315 1
38 316 1
38 324 1
38 363 1
38 364 1
38 393 1
38 414 1
38 421 1
38 431 1
38 433 1
38 480 1
38 507 1
38 510 1
38 525 1
38 535 1
38 537 1
38 566 1
39 31 1
39 32 1
39 40 1
39 58 1
39 67 1
39 77 1
39 79 1
39 317 1
39 318 1
39 326 1
39 365 1
39 366 1
39 386 1
39 395 1
39 416 1
39 423 1
39 433 1
39 435 1
39 509 1
39 512 1
39 527 1
39 537 1
39 539 1
39 568 1
40 33 1
40 34 1
40 42 1
40 60 1
40 69 1
40 79 1
40 81 1
40 319 1
40 320 1
40 328 1
40 367 1
40 368 1
40 388 1
40 397 1
40 418 1
40 425 1
40 435 1
40 437 1
40 511 1
40 514 1
40 529 1
40 539 1
40 541 1
40 570 1
41 35 1
41 36 1
41 44 1
41 62 1
41 71 1
41 81 1
41 83 1
41 321 1
41 322 1
41 330 1
41 369 1
41 370 1
41 390 1
41 399 1
41 420 1
41 427 1
41 437 1
41 439 1
41 513 1
41 516 1
41 531 1
41 541 1
41 543 1
41 572 1
42 37 1
42 38 1
42 46 1
42 64 1
42 73 1
42 83 1
42 85 1
42 323 1
42 324 1
42 332 1
42 371 1
42 372 1
42 392 1
42 401 1
42 422 1
42 429 1
42 439 1
42 441 1
42 515 1
42 518 1
42 533 1
42 543 1
42 545 1
42 574 1
43 39 1
43 40 1
43 48 1
43 66 1
43 75 1
43 85 1
43 87 1
43 325 1
43 326 1
43 334 1
43 373 1
43 374 1
43 394 1
43 403 1
43 424 1
43 431 1
43 441 1
43 443 1
43 517 1
43 520 1
43 535 1
43 545 1
43 547 1
43 576 1
44 41 1
44 42 1
44 50 1
44 68 1
44 77 1
44 87 1
44 89 1
44 327 1
44 328 1
44 336 1
44 375 1
44 376 1
44 396 1
44 405 1
44 426 1
44 433 1
44 443 1
44 445 1
44 482 1
44 519 1
44 522 1
44 537 1
44 547 1
44 549 1
45 43 1
45 44 1
45 52 1
45 70 1
45 79 1
45 89 1
45 91 1
45 329 1
45 330 1
45 338 1
45 377 1
45 378 1
45 398 1
45 407 1
45 428 1
45 435 1
45 445 1
45 447 1
45 484 1
45 521 1
45 524 1
45 539 1
45 549 1
45 551 1
46 45 1
46 46 1
46 54 1
46 72 1
46 81 1
46 91 1
46 93 1
46 331 1
46 332 1
46 340 1
46 379 1
46 380 1
46 400 1
46 409 1
46 430 1
46 437 1
46 447 1
46 449 1
46 486 1
46 523 1
46 526 1
46 541 1
46 551 1
46 553 1
47 47 1
47 48 1
47 56 1
47 74 1
47 83 1
47 93 1
47 95 1
47 333 1
47 334 1
47 342 1
47 381 1
47 382 1
47 402 1
47 411 1
47 432 1
47 439 1
47 449 1
47 451 1
47 488 1
47 525 1
47 528 1
47 543 1
47 553 1
47 555 1
48 1 1
48 49 1
48 50 1
48 58 1
48 76 1
48 85 1
48 95 1
48 335 1
48 336 1
48 344 1
48 383 1
48 384 1
48 404 1
48 413 1
48 434 1
48 441 1
48 451 1
48 453 1
48 490 1
48 527 1
48 530 1
48 545 1
48 555 1
48 557 1
49 2 1
49 4 1
49 51 1
49 59 1
49 60 1
49 77 1
49 78 1
49 88 1
49 289 1
49 337 1
49 345 1
49 346 1
49 405 1
49 406 1
49 416 1
49 435 1
49 436 1
49 444 1
49 454 1
49 456 1
49 491 1
49 492 1
49 530 1
49 531 1
49 532 1
49 548 1
49 558 1
49 560 1
50 4 1
50 6 1
50 53 1
50 61 1
50 62 1
50 79 1
50 80 1
50 90 1
50 291 1
50 339 1
50 347 1
50 348 1
50 407 1
50 408 1
50 418 1
50 437 1
50 438 1
50 446 1
50 456 1
50 458 1
50 493 1
50 494 1
50 532 1
50 533 1
50 534 1
50 550 1
50 560 1
50 562 1
51 6 1
51 8 1
51 55 1
51 63 1
51 64 1
51 81 1
51 82 1
51 92 1
51 293 1
51 341 1
51 349 1
51 350 1
51 409 1
51 410 1
51 420 1
51 439 1
51 440 1
51 448 1
51 458 1
51 460 1
51 495 1
51 496 1
51 534 1
51 535 1
51 536 1
51 552 1
51 562 1
51 564 1
52 8 1
52 10 1
52 57 1
52 65 1
52 66 1
52 83 1
52 84 1
52 94 1
52 295 1
52 343 1
52 351 1
52 352 1
52 411 1
52 412 1
52 422 1
52 441 1
52 442 1
52 450 1
52 460 1
52 462 1
52 497 1
52 498 1
52 536 1
52 537 1
52 538 1
52 554 1
52 564 1
52 566 1
53 10 1
53 12 1
53 59 1
53 67 1
53 68 1
53 85 1
53 86 1
53 96 1
53 297 1
53 345 1
53 353 1
53 354 1
53 413 1
53 414 1
53 424 1
53 443 1
53 444 1
53 452 1
53 462 1
53 464 1
53 499 1
53 500 1
53 538 1
53 539 1
53 540 1
53 556 1
53 566 1
53 568 1
54 2 1
54 12 1
54 14 1
54 61 1
54 69 1
54 70 1
54 87 1
54 88 1
54 299 1
54 347 1
54 355 1
54 356 1
54 415 1
54 416 1
54 426 1
54 445 1
54 446 1
54 454 1
54 464 1
54 466 1
54 501 1
54 502 1
54 540 1
54 541 1
54 542 1
54 558 1
54 568 1
54 570 1
55 4 1
55 14 1
55 16 1
55 63 1
55 71 1
55 72 1
55 89 1
55 90 1
55 301 1
55 349 1
55 357 1
55 358 1
55 417 1
55 418 1
55 428 1
55 447 1
55 448 1
55 456 1
55 466 1
55 468 1
55 503 1
55 504 1
55 542 1
55 543 1
55 544 1
55 560 1
55 570 1
55 572 1
56 6 1
56 16 1
56 18 1
56 65 1
56 73 1
56 74 1
56 91 1
56 92 1
56 303 1
56 351 1
56 359 1
56 360 1
56 419 1
56 420 1
56 430 1
56 449 1
56 450 1
56 458 1
56 468 1
56 470 1
56 505 1
56 506 1
56 544 1
56 545 1
56 546 1
56 562 1
56 572 1
56 574 1
57 8 1
57 18 1
57 20 1
57 67 1
57 75 1
57 76 1
57 93 1
57 94 1
57 305 1
57 353 1
57 361 1
57 362 1
57 421 1
57 422 1
57 432 1
57 451 1
57 452 1
57 460 1
57 470 1
57 472 1
57 507 1
57 508 1
57 546 1
57 547 1
57 548 1
57 564 1
57 574 1
57 576 1
58 10 1
58 20 1
58 22 1
58 69 1
58 77 1
58 78 1
58 95 1
58 96 1
58 307 1
58 355 1
58 363 1
58 364 1
58 423 1
58 424 1
58 434 1
58 453 1
58 454 1
58 462 1
58 472 1
58 474 1
58 482 1
58 509 1
58 510 1
58 548 1
58 549 1
58 550 1
58 566 1
58 576 1
59 1 1
59 2 1
59 12 1
59 22 1
59 24 1
59 71 1
59 79 1
59 80 1
59 309 1
59 357 1
59 365 1
59 366 1
59 425 1
59 426 1
59 436 1
59 455 1
59 456 1
59 464 1
59 474 1
59 476 1
59 482 1
59 484 1
59 511 1
59 512 1
59 550 1
59 551 1
59 552 1
59 568 1
60 3 1
60 4 1
60 14 1
60 24 1
60 26 1
60 73 1
60 81 1
60 82 1
60 311 1
60 359 1
60 367 1
60 368 1
60 427 1
60 428 1
60 438 1
60 457 1
60 458 1
60 466 1
60 476 1
60 478 1
60 484 1
60 486 1
60 513 1
60 514 1
60 552 1
60 553 1
60 554 1
60 570 1
61 5 1
61 6 1
61 16 1
61 26 1
61 28 1
61 75 1
61 83 1
61 84 1
61 313 1
61 361 1
61 369 1
61 370 1
61 429 1
61 430 1
61 440 1
61 459 1
61 460 1
61 468 1
61 478 1
61 480 1
61 486 1
61 488 1
61 515 1
61 516 1
61 554 1
61 555 1
61 556 1
61 572 1
62 7 1
62 8 1
62 18 1
62 28 1
62 30 1
62 77 1
62 85 1
62 86 1
62 315 1
62 363 1
62 371 1
62 372 1
62 386 1
62 431 1
62 432 1
62 442 1
62 461 1
62 462 1
62 470 1
62 480 1
62 488 1
62 490 1
62 517 1
62 518 1
62 556 1
62 557 1
62 558 1
62 574 1
63 9 1
63 10 1
63 20 1
63 30 1
63 32 1
63 79 1
63 87 1
63 88 1
63 317 1
63 365 1
63 373 1
63 374 1
63 386 1
63 388 1
63 433 1
63 434 1
63 444 1
63 463 1
63 464 1
63 472 1
63 490 1
63 492 1
63 519 1
63 520 1
63 558 1
63 559 1
63 560 1
63 576 1
64 11 1
64 12 1
64 22 1
64 32 1
64 34 1
64 81 1
64 89 1
64 90 1
64 319 1
64 367 1
64 375 1
64 376 1
64 388 1
64 390 1
64 435 1
64 436 1
64 446 1
64 465 1
64 466 1
64 474 1
64 482 1
64 492 1
64 494 1
64 521 1
64 522 1
64 560 1
64 561 1
64 562 1
65 13 1
65 14 1
65 24 1
65 34 1
65 36 1
65 83 1
65 91 1
65 92 1
65 321 1
65 369 1
65 377 1
65 378 1
65 390 1
65 392 1
65 437 1
65 438 1
65 448 1
65 467 1
65 468 1
65 476 1
65 484 1
65 494 1
65 496 1
65 523 1
65 524 1
65 562 1
65 563 1
65 564 1
66 15 1
66 16 1
66 26 1
66 36 1
66 38 1
66 85 1
66 93 1
66 94 1
66 323 1
66 371 1
66 379 1
66 380 1
66 392 1
66 394 1
66 439 1
66 440 1
66 450 1
66 469 1
66 470 1
66 478 1
66 486 1
66 496 1
66 498 1
66 525 1
66 526 1
66 564 1
66 565 1
66 566 1
67 17 1
67 18 1
67 28 1
67 38 1
67 40 1
67 87 1
67 95 1
67 96 1
67 325 1
67 373 1
67 381 1
67 382 1
67 394 1
67 396 1
67 441 1
67 442 1
67 452 1
67 471 1
67 472 1
67 480 1
67 488 1
67 498 1
67 500 1
67 527 1
67 528 1
67 566 1
67 567 1
67 568 1
68 1 1
68 2 1
68 19 1
68 20 1
68 30 1
68 40 1
68 42 1
68 89 1
68 327 1
68 375 1
68 383 1
68 384 1
68 386 1
68 396 1
68 398 1
68 443 1
68 444 1
68 454 1
68 473 1
68 474 1
68 490 1
68 500 1
68 502 1
68 529 1
68 530 1
68 568 1
68 569 1
68 570 1
69 3 1
69 4 1
69 21 1
69 22 1
69 32 1
69 42 1
69 44 1
69 91 1
69 289 1
69 290 1
69 329 1
69 377 1
69 388 1
69 398 1
69 400 1
69 445 1
69 446 1
69 456 1
69 475 1
69 476 1
69 492 1
69 502 1
69 504 1
69 531 1
69 532 1
69 570 1
69 571 1
69 572 1
70 5 1
70 6 1
70 23 1
70 24 1
70 34 1
70 44 1
70 46 1
70 93 1
70 291 1
70 292 1
70 331 1
70 379 1
70 390 1
70 400 1
70 402 1
70 447 1
70 448 1
70 458 1
70 477 1
70 478 1
70 494 1
70 504 1
70 506 1
70 533 1
70 534 1
70 572 1
70 573 1
70 574 1
71 7 1
71 8 1
71 25 1
71 26 1
71 36 1
71 46 1
71 48 1
71 95 1
71 293 1
71 294 1
71 333 1
71 381 1
71 392 1
71 402 1
71 404 1
71 449 1
71 450 1
71 460 1
71 479 1
71 480 1
71 496 1
71 506 1
71 508 1
71 535 1
71 536 1
71 574 1
71 575 1
71 576 1
72 1 1
72 9 1
72 10 1
72 27 1
72 28 1
72 38 1
72 48 1
72 50 1
72 295 1
72 296 1
72 335 1
72 383 1
72 385 1
72 386 1
72 394 1
72 404 1
72 406 1
72 451 1
72 452 1
72 462 1
72 481 1
72 482 1
72 498 1
72 508 1
72 510 1
72 537 1
72 538 1
72 576 1
73 3 1
73 11 1
73 12 1
73 29 1
73 30 1
73 40 1
73 50 1
73 52 1
73 289 1
73 297 1
73 298 1
73 337 1
73 387 1
73 388 1
73 396 1
73 406 1
73 408 1
73 453 1
73 454 1
73 464 1
73 482 1
73 483 1
73 484 1
73 500 1
73 510 1
73 512 1
73 539 1
73 540 1
74 5 1
74 13 1
74 14 1
74 31 1
74 32 1
74 42 1
74 52 1
74 54 1
74 291 1
74 299 1
74 300 1
74 339 1
74 389 1
74 390 1
74 398 1
74 408 1
74 410 1
74 455 1
74 456 1
74 466 1
74 484 1
74 485 1
74 486 1
74 502 1
74 512 1
74 514 1
74 541 1
74 542 1
75 7 1
75 15 1
75 16 1
75 33 1
75 34 1
75 44 1
75 54 1
75 56 1
75 293 1
75 301 1
75 302 1
75 341 1
75 391 1
75 392 1
75 400 1
75 410 1
75 412 1
75 457 1
75 458 1
75 468 1
75 486 1
75 487 1
75 488 1
75 504 1
75 514 1
75 516 1
75 543 1
75 544 1
76 9 1
76 17 1
76 18 1
76 35 1
76 36 1
76 46 1
76 56 1
76 58 1
76 295 1
76 303 1
76 304 1
76 343 1
76 393 1
76 394 1
76 402 1
76 412 1
76 414 1
76 459 1
76 460 1
76 470 1
76 488 1
76 489 1
76 490 1
76 506 1
76 516 1
76 518 1
76 545 1
76 546 1
77 11 1
77 19 1
77 20 1
77 37 1
77 38 1
77 48 1
77 58 1
77 60 1
77 297 1
77 305 1
77 306 1
77 345 1
77 395 1
77 396 1
77 404 1
77 414 1
77 416 1
77 461 1
77 462 1
77 472 1
77 490 1
77 491 1
77 492 1
77 508 1
77 518 1
77 520 1
77 547 1
77 548 1
78 13 1
78 21 1
78 22 1
78 39 1
78 40 1
78 50 1
78 60 1
78 62 1
78 299 1
78 307 1
78 308 1
78 347 1
78 397 1
78 398 1
78 406 1
78 416 1
78 418 1
78 463 1
78 464 1
78 474 1
78 492 1
78 493 1
78 494 1
78 510 1
78 520 1
78 522 1
78 549 1
78 550 1
79 15 1
79 23 1
79 24 1
79 41 1
79 42 1
79 52 1
79 62 1
79 64 1
79 301 1
79 309 1
79 310 1
79 349 1
79 399 1
79 400 1
79 408 1
79 418 1
79 420 1
79 465 1
79 466 1
79 476 1
79 494 1
79 495 1
79 496 1
79 512 1
79 522 1
79 524 1
79 551 1
79 552 1
80 17 1
80 25 1
80 26 1
80 43 1
80 44 1
80 54 1
80 64 1
80 66 1
80 303 1
80 311 1
80 312 1
80 351 1
80 401 1
80 402 1
80 410 1
80 420 1
80 422 1
80 467 1
80 468 1
80 478 1
80 496 1
80 497 1
80 498 1
80 514 1
80 524 1
80 526 1
80 553 1
80 554 1
81 19 1
81 27 1
81 28 1
81 45 1
81 46 1
81 56 1
81 66 1
81 68 1
81 305 1
81 313 1
81 314 1
81 353 1
81 403 1
81 404 1
81 412 1
81 422 1
81 424 1
81 469 1
81 470 1
81 480 1
81 498 1
81 499 1
81 500 1
81 516 1
81 526 1
81 528 1
81 555 1
81 556 1
82 21 1
82 29 1
82 30 1
82 47 1
82 48 1
82 58 1
82 68 1
82 70 1
82 307 1
82 315 1
82 316 1
82 355 1
82 386 1
82 405 1
82 406 1
82 414 1
82 424 1
82 426 1
82 471 1
82 472 1
82 500 1
82 501 1
82 502 1
82 518 1
82 528 1
82 530 1
82 557 1
82 558 1
83 23 1
83 31 1
83 32 1
83 49 1
83 50 1
83 60 1
83 70 1
83 72 1
83 309 1
83 317 1
83 318 1
83 357 1
83 388 1
83 407 1
83 408 1
83 416 1
83 426 1
83 428 1
83 473 1
83 474 1
83 502 1
83 503 1
83 504 1
83 520 1
83 530 1
83 532 1
83 559 1
83 560 1
84 25 1
84 33 1
84 34 1
84 51 1
84 52 1
84 62 1
84 72 1
84 74 1
84 311 1
84 319 1
84 320 1
84 359 1
84 390 1
84 409 1
84 410 1
84 418 1
84 428 1
84 430 1
84 475 1
84 476 1
84 504 1
84 505 1
84 506 1
84 522 1
84 532 1
84 534 1
84 561 1
84 562 1
85 27 1
85 35 1
85 36 1
85 53 1
85 54 1
85 64 1
85 74 1
85 76 1
85 313 1
85 321 1
85 322 1
85 361 1
85 392 1
85 411 1
85 412 1
85 420 1
85 430 1
85 432 1
85 477 1
85 478 1
85 506 1
85 507 1
85 508 1
85 524 1
85 534 1
85 536 1
85 563 1
85 564 1
86 29 1
86 37 1
86 38 1
86 55 1
86 56 1
86 66 1
86 76 1
86 78 1
86 315 1
86 323 1
86 324 1
86 363 1
86 394 1
86 413 1
86 414 1
86 422 1
86 432 1
86 434 1
86 479 1
86 480 1
86 508 1
86 509 1
86 510 1
86 526 1
86 536 1
86 538 1
86 565 1
86 566 1
87 31 1
87 39 1
87 40 1
87 57 1
87 58 1
87 68 1
87 78 1
87 80 1
87 317 1
87 325 1
87 326 1
87 365 1
87 385 1
87 386 1
87 396 1
87 415 1
87 416 1
87 424 1
87 434 1
87 436 1
87 510 1
87 511 1
87 512 1
87 528 1
87 538 1
87 540 1
87 567 1
87 568 1
88 33 1
88 41 1
88 42 1
88 59 1
88 60 1
88 70 1
88 80 1
88 82 1
88 319 1
88 327 1
88 328 1
88 367 1
88 387 1
88 388 1
88 398 1
88 417 1
88 418 1
88 426 1
88 436 1
88 438 1
88 512 1
88 513 1
88 514 1
88 530 1
88 540 1
88 542 1
88 569 1
88 570 1
89 35 1
89 43 1
89 44 1
89 61 1
89 62 1
89 72 1
89 82 1
89 84 1
89 321 1
89 329 1
89 330 1
89 369 1
89 389 1
89 390 1
89 400 1
89 419 1
89 420 1
89 428 1
89 438 1
89 440 1
89 514 1
89 515 1
89 516 1
89 532 1
89 542 1
89 544 1
89 571 1
89 572 1
90 37 1
90 45 1
90 46 1
90 63 1
90 64 1
90 74 1
90 84 1
90 86 1
90 323 1
90 331 1
90 332 1
90 371 1
90 391 1
90 392 1
90 402 1
90 421 1
90 422 1
90 430 1
90 440 1
90 442 1
90 516 1
90 517 1
90 518 1
90 534 1
90 544 1
90 546 1
90 573 1
90 574 1
91 39 1
91 47 1
91 48 1
91 65 1
91 66 1
91 76 1
91 86 1
91 88 1
91 325 1
91 333 1
91 334 1
91 373 1
91 393 1
91 394 1
91 404 1
91 423 1
91 424 1
91 432 1
91 442 1
91 444 1
91 518 1
91 519 1
91 520 1
91 536 1
91 546 1
91 548 1
91 575 1
91 576 1
92 41 1
92 49 1
92 50 1
92 67 1
92 68 1
92 78 1
92 88 1
92 90 1
92 327 1
92 335 1
92 336 1
92 375 1
92 395 1
92 396 1
92 406 1
92 425 1
92 426 1
92 434 1
92 444 1
92 446 1
92 481 1
92 482 1
92 520 1
92 521 1
92 522 1
92 538 1
92 548 1
92 550 1
93 43 1
93 51 1
93 52 1
93 69 1
93 70 1
93 80 1
93 90 1
93 92 1
93 329 1
93 337 1
93 338 1
93 377 1
93 397 1
93 398 1
93 408 1
93 427 1
93 428 1
93 436 1
93 446 1
93 448 1
93 483 1
93 484 1
93 522 1
93 523 1
93 524 1
93 540 1
93 550 1
93 552 1
94 45 1
94 53 1
94 54 1
94 71 1
94 72 1
94 82 1
94 92 1
94 94 1
94 331 1
94 339 1
94 340 1
94 379 1
94 399 1
94 400 1
94 410 1
94 429 1
94 430 1
94 438 1
94 448 1
94 450 1
94 485 1
94 486 1
94 524 1
94 525 1
94 526 1
94 542 1
94 552 1
94 554 1
95 47 1
95 55 1
95 56 1
95 73 1
95 74 1
95 84 1
95 94 1
95 96 1
95 333 1
95 341 1
95 342 1
95 381 1
95 401 1
95 402 1
95 412 1
95 431 1
95 432 1
95 440 1
95 450 1
95 452 1
95 487 1
95 488 1
95 526 1
95 527 1
95 528 1
95 544 1
95 554 1
95 556 1
96 2 1
96 49 1
96 57 1
96 58 1
96 75 1
96 76 1
96 86 1
96 96 1
96 335 1
96 343 1
96 344 1
96 383 1
96 403 1
96 404 1
96 414 1
96 433 1
96 434 1
96 442 1
96 452 1
96 454 1
96 489 1
96 490 1
96 528 1
96 529 1
96 530 1
96 546 1
96 556 1
96 558 1
97 4 1
97 11 1
97 12 1
97 31 1
97 32 1
97 40 1
97 51 1
97 52 1
97 396 1
97 408 1
97 435 1
97 436 1
97 455 1
97 464 1
97 484 1
97 500 1
97 512 1
97 531 1
97 532 1
97 539 1
97 540 1
97 560 1
97 673 1
97 721 1
97 729 1
97 730 1
98 6 1
98 13 1
98 14 1
98 33 1
98 34 1
98 42 1
98 53 1
98 54 1
98 398 1
98 410 1
98 437 1
98 438 1
98 457 1
98 466 1
98 486 1
98 502 1
98 514 1
98 533 1
98 534 1
98 541 1
98 542 1
98 562 1
98 675 1
98 723 1
98 731 1
98 732 1
99 8 1
99 15 1
99 16 1
99 35 1
99 36 1
99 44 1
99 55 1
99 56 1
99 400 1
99 412 1
99 439 1
99 440 1
99 459 1
99 468 1
99 488 1
99 504 1
99 516 1
99 535 1
99 536 1
99 543 1
99 544 1
99 564 1
99 677 1
99 725 1
99 733 1
99 734 1
100 10 1
100 17 1
100 18 1
100 37 1
100 38 1
100 46 1
100 57 1
100 58 1
100 402 1
100 414 1
100 441 1
100 442 1
100 461 1
100 470 1
100 490 1
100 506 1
100 518 1
100 537 1
100 538 1
100 545 1
100 546 1
100 566 1
100 679 1
100 727 1
100 735 1
100 736 1
101 12 1
101 19 1
101 20 1
101 39 1
101 40 1
101 48 1
101 59 1
101 60 1
101 404 1
101 416 1
101 443 1
101 444 1
101 463 1
101 472 1
101 492 1
101 508 1
101 520 1
101 539 1
101 540 1
101 547 1
101 548 1
101 568 1
101 681 1
101 729 1
101 737 1
101 738 1
102 14 1
102 21 1
102 22 1
102 41 1
102 42 1
102 50 1
102 61 1
102 62 1
102 406 1
102 418 1
102 445 1
102 446 1
102 465 1
102 474 1
102 494 1
102 510 1
102 522 1
102 541 1
102 542 1
102 549 1
102 550 1
102 570 1
102 683 1
102 731 1
102 739 1
102 740 1
103 16 1
103 23 1
103 24 1
103 43 1
103 44 1
103 52 1
103 63 1
103 64 1
103 408 1
103 420 1
103 447 1
103 448 1
103 467 1
103 476 1
103 496 1
103 512 1
103 524 1
103 543 1
103 544 1
103 551 1
103 552 1
103 572 1
103 685 1
103 733 1
103 741 1
103 742 1
104 18 1
104 25 1
104 26 1
104 45 1
104 46 1
104 54 1
104 65 1
104 66 1
104 410 1
104 422 1
104 449 1
104 450 1
104 469 1
104 478 1
104 498 1
104 514 1
104 526 1
104 545 1
104 546 1
104 553 1
104 554 1
104 574 1
104 687 1
104 735 1
104 743 1
104 744 1
105 20 1
105 27 1
105 28 1
105 47 1
105 48 1
105 56 1
105 67 1
105 68 1
105 412 1
105 424 1
105 451 1
105 452 1
105 471 1
105 480 1
105 500 1
105 516 1
105 528 1
105 547 1
105 548 1
105 555 1
105 556 1
105 576 1
105 689 1
105 737 1
105 745 1
105 746 1
106 22 1
106 29 1
106 30 1
106 49 1
106 50 1
106 58 1
106 69 1
106 70 1
106 386 1
106 414 1
106 426 1
106 453 1
106 454 1
106 473 1
106 482 1
106 502 1
106 518 1
106 530 1
106 549 1
106 550 1
106 557 1
106 558 1
106 691 1
106 739 1
106 747 1
106 748 1
107 24 1
107 31 1
107 32 1
107 51 1
107 52 1
107 60 1
107 71 1
107 72 1
107 388 1
107 416 1
107 428 1
107 455 1
107 456 1
107 475 1
107 484 1
107 504 1
107 520 1
107 532 1
107 551 1
107 552 1
107 559 1
107 560 1
107 693 1
107 741 1
107 749 1
107 750 1
108 26 1
108 33 1
108 34 1
108 53 1
108 54 1
108 62 1
108 73 1
108 74 1
108 390 1
108 418 1
108 430 1
108 457 1
108 458 1
108 477 1
108 486 1
108 506 1
108 522 1
108 534 1
108 553 1
108 554 1
108 561 1
108 562 1
108 695 1
108 743 1
108 751 1
108 752 1
109 28 1
109 35 1
109 36 1
109 55 1
109 56 1
109 64 1
109 75 1
109 76 1
109 392 1
109 420 1
109 432 1
109 459 1
109 460 1
109 479 1
109 488 1
109 508 1
109 524 1
109 536 1
109 555 1
109 556 1
109 563 1
109 564 1
109 697 1
109 745 1
109 753 1
109 754 1
110 30 1
110 37 1
110 38 1
110 57 1
110 58 1
110 66 1
110 77 1
110 78 1
110 385 1
110 394 1
110 422 1
110 434 1
110 461 1
110 462 1
110 490 1
110 510 1
110 526 1
110 538 1
110 557 1
110 558 1
110 565 1
110 566 1
110 699 1
110 747 1
110 755 1
110 756 1
111 32 1
111 39 1
111 40 1
111 59 1
111 60 1
111 68 1
111 79 1
111 80 1
111 387 1
111 396 1
111 424 1
111 436 1
111 463 1
111 464 1
111 492 1
111 512 1
111 528 1
111 540 1
111 559 1
111 560 1
111 567 1
111 568 1
111 701 1
111 749 1
111 757 1
111 758 1
112 34 1
112 41 1
112 42 1
112 61 1
112 62 1
112 70 1
112 81 1
112 82 1
112 389 1
112 398 1
112 426 1
112 438 1
112 465 1
112 466 1
112 494 1
112 514 1
112 530 1
112 542 1
112 561 1
112 562 1
112 569 1
112 570 1
112 703 1
112 751 1
112 759 1
112 760 1
113 36 1
113 43 1
113 44 1
113 63 1
113 64 1
113 72 1
113 83 1
113 84 1
113 391 1
113 400 1
113 428 1
113 440 1
113 467 1
113 468 1
113 496 1
113 516 1
113 532 1
113 544 1
113 563 1
113 564 1
113 571 1
113 572 1
113 705 1
113 753 1
113 761 1
113 762 1
114 38 1
114 45 1
114 46 1
114 65 1
114 66 1
114 74 1
114 85 1
114 86 1
114 393 1
114 402 1
114 430 1
114 442 1
114 469 1
114 470 1
114 498 1
114 518 1
114 534 1
114 546 1
114 565 1
114 566 1
114 573 1
114 574 1
114 707 1
114 755 1
114 763 1
114 764 1
115 40 1
115 47 1
115 48 1
115 67 1
115 68 1
115 76 1
115 87 1
115 88 1
115 395 1
115 404 1
115 432 1
115 444 1
115 471 1
115 472 1
115 500 1
115 520 1
115 536 1
115 548 1
115 567 1
115 568 1
115 575 1
115 576 1
115 709 1
115 757 1
115 765 1
115 766 1
116 42 1
116 49 1
116 50 1
116 69 1
116 70 1
116 78 1
116 89 1
116 90 1
116 397 1
116 406 1
116 434 1
116 446 1
116 473 1
116 474 1
116 481 1
116 482 1
116 502 1
116 522 1
116 538 1
116 550 1
116 569 1
116 570 1
116 711 1
116 759 1
116 767 1
116 768 1
117 44 1
117 51 1
117 52 1
117 71 1
117 72 1
117 80 1
117 91 1
117 92 1
117 399 1
117 408 1
117 436 1
117 448 1
117 475 1
117 476 1
117 483 1
117 484 1
117 504 1
117 524 1
117 540 1
117 552 1
117 571 1
117 572 1
117 673 1
117 674 1
117 713 1
117 761 1
118 46 1
118 53 1
118 54 1
118 73 1
118 74 1
118 82 1
118 93 1
118 94 1
118 401 1
118 410 1
118 438 1
118 450 1
118 477 1
118 478 1
118 485 1
118 486 1
118 506 1
118 526 1
118 542 1
118 554 1
118 573 1
118 574 1
118 675 1
118 676 1
118 715 1
118 763 1
119 48 1
119 55 1
119 56 1
119 75 1
119 76 1
119 84 1
119 95 1
119 96 1
119 403 1
119 412 1
119 440 1
119 452 1
119 479 1
119 480 1
119 487 1
119 488 1
119 508 1
119 528 1
119 544 1
119 556 1
119 575 1
119 576 1
119 677 1
119 678 1
119 717 1
119 765 1
120 1 1
120 2 1
120 50 1
120 57 1
120 58 1
120 77 1
120 78 1
120 86 1
120 385 1
120 386 1
120 405 1
120 414 1
120 442 1
120 454 1
120 481 1
120 482 1
120 489 1
120 490 1
120 510 1
120 530 1
120 546 1
120 558 1
120 679 1
120 680 1
120 719 1
120 767 1
121 3 1
121 4 1
121 52 1
121 59 1
121 60 1
121 79 1
121 80 1
121 88 1
121 387 1
121 388 1
121 407 1
121 416 1
121 444 1
121 456 1
121 483 1
121 484 1
121 491 1
121 492 1
121 512 1
121 532 1
121 548 1
121 560 1
121 673 1
121 681 1
121 682 1
121 721 1
122 5 1
122 6 1
122 54 1
122 61 1
122 62 1
122 81 1
122 82 1
122 90 1
122 389 1
122 390 1
122 409 1
122 418 1
122 446 1
122 458 1
122 485 1
122 486 1
122 493 1
122 494 1
122 514 1
122 534 1
122 550 1
122 562 1
122 675 1
122 683 1
122 684 1
122 723 1
123 7 1
123 8 1
123 56 1
123 63 1
123 64 1
123 83 1
123 84 1
123 92 1
123 391 1
123 392 1
123 411 1
123 420 1
123 448 1
123 460 1
123 487 1
123 488 1
123 495 1
123 496 1
123 516 1
123 536 1
123 552 1
123 564 1
123 677 1
123 685 1
123 686 1
123 725 1
124 9 1
124 10 1
124 58 1
124 65 1
124 66 1
124 85 1
124 86 1
124 94 1
124 393 1
124 394 1
124 413 1
124 422 1
124 450 1
124 462 1
124 489 1
124 490 1
124 497 1
124 498 1
124 518 1
124 538 1
124 554 1
124 566 1
124 679 1
124 687 1
124 688 1
124 727 1
125 11 1
125 12 1
125 60 1
125 67 1
125 68 1
125 87 1
125 88 1
125 96 1
125 395 1
125 396 1
125 415 1
125 424 1
125 452 1
125 464 1
125 491 1
125 492 1
125 499 1
125 500 1
125 520 1
125 540 1
125 556 1
125 568 1
125 681 1
125 689 1
125 690 1
125 729 1
126 2 1
126 13 1
126 14 1
126 62 1
126 69 1
126 70 1
126 89 1
126 90 1
126 397 1
126 398 1
126 417 1
126 426 1
126 454 1
126 466 1
126 493 1
126 494 1
126 501 1
126 502 1
126 522 1
126 542 1
126 558 1
126 570 1
126 683 1
126 691 1
126 692 1
126 731 1
127 4 1
127 15 1
127 16 1
127 64 1
127 71 1
127 72 1
127 91 1
127 92 1
127 399 1
127 400 1
127 419 1
127 428 1
127 456 1
127 468 1
127 495 1
127 496 1
127 503 1
127 504 1
127 524 1
127 544 1
127 560 1
127 572 1
127 685 1
127 693 1
127 694 1
127 733 1
128 6 1
128 17 1
128 18 1
128 66 1
128 73 1
128 74 1
128 93 1
128 94 1
128 401 1
128 402 1
128 421 1
128 430 1
128 458 1
128 470 1
128 497 1
128 498 1
128 505 1
128 506 1
128 526 1
128 546 1
128 562 1
128 574 1
128 687 1
128 695 1
128 696 1
128 735 1
129 8 1
129 19 1
129 20 1
129 68 1
129 75 1
129 76 1
129 95 1
129 96 1
129 403 1
129 404 1
129 423 1
129 432 1
129 460 1
129 472 1
129 499 1
129 500 1
129 507 1
129 508 1
129 528 1
129 548 1
129 564 1
129 576 1
129 689 1
129 697 1
129 698 1
129 737 1
130 1 1
130 2 1
130 10 1
130 21 1
130 22 1
130 70 1
130 77 1
130 78 1
130 405 1
130 406 1
130 425 1
130 434 1
130 462 1
130 474 1
130 482 1
130 501 1
130 502 1
130 509 1
130 510 1
130 530 1
130 550 1
130 566 1
130 691 1
130 699 1
130 700 1
130 739 1
131 3 1
131 4 1
131 12 1
131 23 1
131 24 1
131 72 1
131 79 1
131 80 1
131 407 1
131 408 1
131 427 1
131 436 1
131 464 1
131 476 1
131 484 1
131 503 1
131 504 1
131 511 1
131 512 1
131 532 1
131 552 1
131 568 1
131 693 1
131 701 1
131 702 1
131 741 1
132 5 1
132 6 1
132 14 1
132 25 1
132 26 1
132 74 1
132 81 1
132 82 1
132 409 1
132 410 1
132 429 1
132 438 1
132 466 1
132 478 1
132 486 1
132 505 1
132 506 1
132 513 1
132 514 1
132 534 1
132 554 1
132 570 1
132 695 1
132 703 1
132 704 1
132 743 1
133 7 1
133 8 1
133 16 1
133 27 1
133 28 1
133 76 1
133 83 1
133 84 1
133 411 1
133 412 1
133 431 1
133 440 1
133 468 1
133 480 1
133 488 1
133 507 1
133 508 1
133 515 1
133 516 1
133 536 1
133 556 1
133 572 1
133 697 1
133 705 1
133 706 1
133 745 1
134 9 1
134 10 1
134 18 1
134 29 1
134 30 1
134 78 1
134 85 1
134 86 1
134 386 1
134 413 1
134 414 1
134 433 1
134 442 1
134 470 1
134 490 1
134 509 1
134 510 1
134 517 1
134 518 1
134 538 1
134 558 1
134 574 1
134 699 1
134 707 1
134 708 1
134 747 1
135 11 1
135 12 1
135 20 1
135 31 1
135 32 1
135 80 1
135 87 1
135 88 1
135 388 1
135 415 1
135 416 1
135 435 1
135 444 1
135 472 1
135 492 1
135 511 1
135 512 1
135 519 1
135 520 1
135 540 1
135 560 1
135 576 1
135 701 1
135 709 1
135 710 1
135 749 1
136 13 1
136 14 1
136 22 1
136 33 1
136 34 1
136 82 1
136 89 1
136 90 1
136 390 1
136 417 1
136 418 1
136 437 1
136 446 1
136 474 1
136 482 1
136 494 1
136 513 1
136 514 1
136 521 1
136 522 1
136 542 1
136 562 1
136 703 1
136 711 1
136 712 1
136 751 1
137 15 1
137 16 1
137 24 1
137 35 1
137 36 1
137 84 1
137 91 1
137 92 1
137 392 1
137 419 1
137 420 1
137 439 1
137 448 1
137 476 1
137 484 1
137 496 1
137 515 1
137 516 1
137 523 1
137 524 1
137 544 1
137 564 1
137 705 1
137 713 1
137 714 1
137 753 1
138 17 1
138 18 1
138 26 1
138 37 1
138 38 1
138 86 1
138 93 1
138 94 1
138 394 1
138 421 1
138 422 1
138 441 1
138 450 1
138 478 1
138 486 1
138 498 1
138 517 1
138 518 1
138 525 1
138 526 1
138 546 1
138 566 1
138 707 1
138 715 1
138 716 1
138 755 1
139 19 1
139 20 1
139 28 1
139 39 1
139 40 1
139 88 1
139 95 1
139 96 1
139 396 1
139 423 1
139 424 1
139 443 1
139 452 1
139 480 1
139 488 1
139 500 1
139 519 1
139 520 1
139 527 1
139 528 1
139 548 1
139 568 1
139 709 1
139 717 1
139 718 1
139 757 1
140 1 1
140 2 1
140 21 1
140 22 1
140 30 1
140 41 1
140 42 1
140 90 1
140 386 1
140 398 1
140 425 1
140 426 1
140 445 1
140 454 1
140 490 1
140 502 1
140 521 1
140 522 1
140 529 1
140 530 1
140 550 1
140 570 1
140 711 1
140 719 1
140 720 1
140 759 1
141 3 1
141 4 1
141 23 1
141 24 1
141 32 1
141 43 1
141 44 1
141 92 1
141 388 1
141 400 1
141 427 1
141 428 1
141 447 1
141 456 1
141 492 1
141 504 1
141 523 1
141 524 1
141 531 1
141 532 1
141 552 1
141 572 1
141 713 1
141 721 1
141 722 1
141 761 1
142 5 1
142 6 1
142 25 1
142 26 1
142 34 1
142 45 1
142 46 1
142 94 1
142 390 1
142 402 1
142 429 1
142 430 1
142 449 1
142 458 1
142 494 1
142 506 1
142 525 1
142 526 1
142 533 1
142 534 1
142 554 1
142 574 1
142 715 1
142 723 1
142 724 1
142 763 1
143 7 1
143 8 1
143 27 1
143 28 1
143 36 1
143 47 1
143 48 1
143 96 1
143 392 1
143 404 1
143 431 1
143 432 1
143 451 1
143 460 1
143 496 1
143 508 1
143 527 1
143 528 1
143 535 1
143 536 1
143 556 1
143 576 1
143 717 1
143 725 1
143 726 1
143 765 1
144 2 1
144 9 1
144 10 1
144 29 1
144 30 1
144 38 1
144 49 1
144 50 1
144 394 1
144 406 1
144 433 1
144 434 1
144 453 1
144 462 1
144 482 1
144 498 1
144 510 1
144 529 1
144 530 1
144 537 1
144 538 1
144 558 1
144 719 1
144 727 1
144 728 1
144 767 1
145 3 1
145 4 1
145 11 1
145 31 1
145 39 1
145 40 1
145 51 1
145 395 1
145 396 1
145 407 1
145 408 1
145 435 1
145 456 1
145 463 1
145 464 1
145 483 1
145 484 1
145 499 1
145 500 1
145 511 1
145 512 1
145 531 1
145 539 1
145 559 1
145 560 1
145 674 1
145 722 1
145 729 1
146 5 1
146 6 1
146 13 1
146 33 1
146 41 1
146 42 1
146 53 1
146 397 1
146 398 1
146 409 1
146 410 1
146 437 1
146 458 1
146 465 1
146 466 1
146 485 1
146 486 1
146 501 1
146 502 1
146 513 1
146 514 1
146 533 1
146 541 1
146 561 1
146 562 1
146 676 1
146 724 1
146 731 1
147 7 1
147 8 1
147 15 1
147 35 1
147 43 1
147 44 1
147 55 1
147 399 1
147 400 1
147 411 1
147 412 1
147 439 1
147 460 1
147 467 1
147 468 1
147 487 1
147 488 1
147 503 1
147 504 1
147 515 1
147 516 1
147 535 1
147 543 1
147 563 1
147 564 1
147 678 1
147 726 1
147 733 1
148 9 1
148 10 1
148 17 1
148 37 1
148 45 1
148 46 1
148 57 1
148 401 1
148 402 1
148 413 1
148 414 1
148 441 1
148 462 1
148 469 1
148 470 1
148 489 1
148 490 1
148 505 1
148 506 1
148 517 1
148 518 1
148 537 1
148 545 1
148 565 1
148 566 1
148 680 1
148 728 1
148 735 1
149 11 1
149 12 1
149 19 1
149 39 1
149 47 1
149 48 1
149 59 1
149 403 1
149 404 1
149 415 1
149 416 1
149 443 1
149 464 1
149 471 1
149 472 1
149 491 1
149 492 1
149 507 1
149 508 1
149 519 1
149 520 1
149 539 1
149 547 1
149 567 1
149 568 1
149 682 1
149 730 1
149 737 1
150 13 1
150 14 1
150 21 1
150 41 1
150 49 1
150 50 1
150 61 1
150 405 1
150 406 1
150 417 1
150 418 1
150 445 1
150 466 1
150 473 1
150 474 1
150 493 1
150 494 1
150 509 1
150 510 1
150 521 1
150 522 1
150 541 1
150 549 1
150 569 1
150 570 1
150 684 1
150 732 1
150 739 1
151 15 1
151 16 1
151 23 1
151 43 1
151 51 1
151 52 1
151 63 1
151 407 1
151 408 1
151 419 1
151 420 1
151 447 1
151 468 1
151 475 1
151 476 1
151 495 1
151 496 1
151 511 1
151 512 1
151 523 1
151 524 1
151 543 1
151 551 1
151 571 1
151 572 1
151 686 1
151 734 1
151 741 1
152 17 1
152 18 1
152 25 1
152 45 1
152 53 1
152 54 1
152 65 1
152 409 1
152 410 1
152 421 1
152 422 1
152 449 1
152 470 1
152 477 1
152 478 1
152 497 1
152 498 1
152 513 1
152 514 1
152 525 1
152 526 1
152 545 1
152 553 1
152 573 1
152 574 1
152 688 1
152 736 1
152 743 1
153 19 1
153 20 1
153 27 1
153 47 1
153 55 1
153 56 1
153 67 1
153 411 1
153 412 1
153 423 1
153 424 1
153 451 1
153 472 1
153 479 1
153 480 1
153 499 1
153 500 1
153 515 1
153 516 1
153 527 1
153 528 1
153 547 1
153 555 1
153 575 1
153 576 1
153 690 1
153 738 1
153 745 1
154 21 1
154 22 1
154 29 1
154 49 1
154 57 1
154 58 1
154 69 1
154 385 1
154 386 1
154 413 1
154 414 1
154 425 1
154 426 1
154 453 1
154 474 1
154 481 1
154 482 1
154 501 1
154 502 1
154 517 1
154 518 1
154 529 1
154 530 1
154 549 1
154 557 1
154 692 1
154 740 1
154 747 1
155 23 1
155 24 1
155 31 1
155 51 1
155 59 1
155 60 1
155 71 1
155 387 1
155 388 1
155 415 1
155 416 1
155 427 1
155 428 1
155 455 1
155 476 1
155 483 1
155 484 1
155 503 1
155 504 1
155 519 1
155 520 1
155 531 1
155 532 1
155 551 1
155 559 1
155 694 1
155 742 1
155 749 1
156 25 1
156 26 1
156 33 1
156 53 1
156 61 1
156 62 1
156 73 1
156 389 1
156 390 1
156 417 1
156 418 1
156 429 1
156 430 1
156 457 1
156 478 1
156 485 1
156 486 1
156 505 1
156 506 1
156 521 1
156 522 1
156 533 1
156 534 1
156 553 1
156 561 1
156 696 1
156 744 1
156 751 1
157 27 1
157 28 1
157 35 1
157 55 1
157 63 1
157 64 1
157 75 1
157 391 1
157 392 1
157 419 1
157 420 1
157 431 1
157 432 1
157 459 1
157 480 1
157 487 1
157 488 1
157 507 1
157 508 1
157 523 1
157 524 1
157 535 1
157 536 1
157 555 1
157 563 1
157 698 1
157 746 1
157 753 1
158 29 1
158 30 1
158 37 1
158 57 1
158 65 1
158 66 1
158 77 1
158 386 1
158 393 1
158 394 1
158 421 1
158 422 1
158 433 1
158 434 1
158 461 1
158 489 1
158 490 1
158 509 1
158 510 1
158 525 1
158 526 1
158 537 1
158 538 1
158 557 1
158 565 1
158 700 1
158 748 1
158 755 1
159 31 1
159 32 1
159 39 1
159 59 1
159 67 1
159 68 1
159 79 1
159 388 1
159 395 1
159 396 1
159 423 1
159 424 1
159 435 1
159 436 1
159 463 1
159 491 1
159 492 1
159 511 1
159 512 1
159 527 1
159 528 1
159 539 1
159 540 1
159 559 1
159 567 1
159 702 1
159 750 1
159 757 1
160 33 1
160 34 1
160 41 1
160 61 1
160 69 1
160 70 1
160 81 1
160 390 1
160 397 1
160 398 1
160 425 1
160 426 1
160 437 1
160 438 1
160 465 1
160 493 1
160 494 1
160 513 1
160 514 1
160 529 1
160 530 1
160 541 1
160 542 1
160 561 1
160 569 1
160 704 1
160 752 1
160 759 1
161 35 1
161 36 1
161 43 1
161 63 1
161 71 1
161 72 1
161 83 1
161 392 1
161 399 1
161 400 1
161 427 1
161 428 1
161 439 1
161 440 1
161 467 1
161 495 1
161 496 1
161 515 1
161 516 1
161 531 1
161 532 1
161 543 1
161 544 1
161 563 1
161 571 1
161 706 1
161 754 1
161 761 1
162 37 1
162 38 1
162 45 1
162 65 1
162 73 1
162 74 1
162 85 1
162 394 1
162 401 1
162 402 1
162 429 1
162 430 1
162 441 1
162 442 1
162 469 1
162 497 1
162 498 1
162 517 1
162 518 1
162 533 1
162 534 1
162 545 1
162 546 1
162 565 1
162 573 1
162 708 1
162 756 1
162 763 1
163 39 1
163 40 1
163 47 1
163 67 1
163 75 1
163 76 1
163 87 1
163 396 1
163 403 1
163 404 1
163 431 1
163 432 1
163 443 1
163 444 1
163 471 1
163 499 1
163 500 1
163 519 1
163 520 1
163 535 1
163 536 1
163 547 1
163 548 1
163 567 1
163 575 1
163 710 1
163 758 1
163 765 1
164 41 1
164 42 1
164 49 1
164 69 1
164 77 1
164 78 1
164 89 1
164 398 1
164 405 1
164 406 1
164 433 1
164 434 1
164 445 1
164 446 1
164 473 1
164 481 1
164 501 1
164 502 1
164 521 1
164 522 1
164 537 1
164 538 1
164 549 1
164 550 1
164 569 1
164 712 1
164 760 1
164 767 1
165 43 1
165 44 1
165 51 1
165 71 1
165 79 1
165 80 1
165 91 1
165 400 1
165 407 1
165 408 1
165 435 1
165 436 1
165 447 1
165 448 1
165 475 1
165 483 1
165 503 1
165 504 1
165 523 1
165 524 1
165 539 1
165 540 1
165 551 1
165 552 1
165 571 1
165 673 1
165 714 1
165 762 1
166 45 1
166 46 1
166 53 1
166 73 1
166 81 1
166 82 1
166 93 1
166 402 1
166 409 1
166 410 1
166 437 1
166 438 1
166 449 1
166 450 1
166 477 1
166 485 1
166 505 1
166 506 1
166 525 1
166 526 1
166 541 1
166 542 1
166 553 1
166 554 1
166 573 1
166 675 1
166 716 1
166 764 1
167 47 1
167 48 1
167 55 1
167 75 1
167 83 1
167 84 1
167 95 1
167 404 1
167 411 1
167 412 1
167 439 1
167 440 1
167 451 1
167 452 1
167 479 1
167 487 1
167 507 1
167 508 1
167 527 1
167 528 1
167 543 1
167 544 1
167 555 1
167 556 1
167 575 1
167 677 1
167 718 1
167 766 1
168 1 1
168 49 1
168 50 1
168 57 1
168 77 1
168 85 1
168 86 1
168 385 1
168 406 1
168 413 1
168 414 1
168 441 1
168 442 1
168 453 1
168 454 1
168 481 1
168 489 1
168 509 1
168 510 1
168 529 1
168 530 1
168 545 1
168 546 1
168 557 1
168 558 1
168 679 1
168 720 1
168 768 1
169 3 1
169 51 1
169 52 1
169 59 1
169 79 1
169 87 1
169 88 1
169 387 1
169 408 1
169 415 1
169 416 1
169 443 1
169 444 1
169 455 1
169 456 1
169 483 1
169 491 1
169 511 1
169 512 1
169 531 1
169 532 1
169 547 1
169 548 1
169 559 1
169 560 1
169 674 1
169 681 1
169 722 1
170 5 1
170 53 1
170 54 1
170 61 1
170 81 1
170 89 1
170 90 1
170 389 1
170 410 1
170 417 1
170 418 1
170 445 1
170 446 1
170 457 1
170 458 1
170 485 1
170 493 1
170 513 1
170 514 1
170 533 1
170 534 1
170 549 1
170 550 1
170 561 1
170 562 1
170 676 1
170 683 1
170 724 1
171 7 1
171 55 1
171 56 1
171 63 1
171 83 1
171 91 1
171 92 1
171 391 1
171 412 1
171 419 1
171 420 1
171 447 1
171 448 1
171 459 1
171 460 1
171 487 1
171 495 1
171 515 1
171 516 1
171 535 1
171 536 1
171 551 1
171 552 1
171 563 1
171 564 1
171 678 1
171 685 1
171 726 1
172 9 1
172 57 1
172 58 1
172 65 1
172 85 1
172 93 1
172 94 1
172 393 1
172 414 1
172 421 1
172 422 1
172 449 1
172 450 1
172 461 1
172 462 1
172 489 1
172 497 1
172 517 1
172 518 1
172 537 1
172 538 1
172 553 1
172 554 1
172 565 1
172 566 1
172 680 1
172 687 1
172 728 1
173 11 1
173 59 1
173 60 1
173 67 1
173 87 1
173 95 1
173 96 1
173 395 1
173 416 1
173 423 1
173 424 1
173 451 1
173 452 1
173 463 1
173 464 1
173 491 1
173 499 1
173 519 1
173 520 1
173 539 1
173 540 1
173 555 1
173 556 1
173 567 1
173 568 1
173 682 1
173 689 1
173 730 1
174 1 1
174 2 1
174 13 1
174 61 1
174 62 1
174 69 1
174 89 1
174 397 1
174 418 1
174 425 1
174 426 1
174 453 1
174 454 1
174 465 1
174 466 1
174 493 1
174 501 1
174 521 1
174 522 1
174 541 1
174 542 1
174 557 1
174 558 1
174 569 1
174 570 1
174 684 1
174 691 1
174 732 1
175 3 1
175 4 1
175 15 1
175 63 1
175 64 1
175 71 1
175 91 1
175 399 1
175 420 1
175 427 1
175 428 1
175 455 1
175 456 1
175 467 1
175 468 1
175 495 1
175 503 1
175 523 1
175 524 1
175 543 1
175 544 1
175 559 1
175 560 1
175 571 1
175 572 1
175 686 1
175 693 1
175 734 1
176 5 1
176 6 1
176 17 1
176 65 1
176 66 1
176 73 1
176 93 1
176 401 1
176 422 1
176 429 1
176 430 1
176 457 1
176 458 1
176 469 1
176 470 1
176 497 1
176 505 1
176 525 1
176 526 1
176 545 1
176 546 1
176 561 1
176 562 1
176 573 1
176 574 1
176 688 1
176 695 1
176 736 1
177 7 1
177 8 1
177 19 1
177 67 1
177 68 1
177 75 1
177 95 1
177 403 1
177 424 1
177 431 1
177 432 1
177 459 1
177 460 1
177 471 1
177 472 1
177 499 1
177 507 1
177 527 1
177 528 1
177 547 1
177 548 1
177 563 1
177 564 1
177 575 1
177 576 1
177 690 1
177 697 1
177 738 1
178 1 1
178 9 1
178 10 1
178 21 1
178 69 1
178 70 1
178 77 1
178 405 1
178 426 1
178 433 1
178 434 1
178 461 1
178 462 1
178 473 1
178 474 1
178 481 1
178 482 1
178 501 1
178 509 1
178 529 1
178 530 1
178 549 1
178 550 1
178 565 1
178 566 1
178 692 1
178 699 1
178 740 1
179 3 1
179 11 1
179 12 1
179 23 1
179 71 1
179 72 1
179 79 1
179 407 1
179 428 1
179 435 1
179 436 1
179 463 1
179 464 1
179 475 1
179 476 1
179 483 1
179 484 1
179 503 1
179 511 1
179 531 1
179 532 1
179 551 1
179 552 1
179 567 1
179 568 1
179 694 1
179 701 1
179 742 1
180 5 1
180 13 1
180 14 1
180 25 1
180 73 1
180 74 1
180 81 1
180 409 1
180 430 1
180 437 1
180 438 1
180 465 1
180 466 1
180 477 1
180 478 1
180 485 1
180 486 1
180 505 1
180 513 1
180 533 1
180 534 1
180 553 1
180 554 1
180 569 1
180 570 1
180 696 1
180 703 1
180 744 1
181 7 1
181 15 1
181 16 1
181 27 1
181 75 1
181 76 1
181 83 1
181 411 1
181 432 1
181 439 1
181 440 1
181 467 1
181 468 1
181 479 1
181 480 1
181 487 1
181 488 1
181 507 1
181 515 1
181 535 1
181 536 1
181 555 1
181 556 1
181 571 1
181 572 1
181 698 1
181 705 1
181 746 1
182 9 1
182 17 1
182 18 1
182 29 1
182 77 1
182 78 1
182 85 1
182 385 1
182 386 1
182 413 1
182 434 1
182 441 1
182 442 1
182 469 1
182 470 1
182 489 1
182 490 1
182 509 1
182 517 1
182 537 1
182 538 1
182 557 1
182 558 1
182 573 1
182 574 1
182 700 1
182 707 1
182 748 1
183 11 1
183 19 1
183 20 1
183 31 1
183 79 1
183 80 1
183 87 1
183 387 1
183 388 1
183 415 1
183 436 1
183 443 1
183 444 1
183 471 1
183 472 1
183 491 1
183 492 1
183 511 1
183 519 1
183 539 1
183 540 1
183 559 1
183 560 1
183 575 1
183 576 1
183 702 1
183 709 1
183 750 1
184 13 1
184 21 1
184 22 1
184 33 1
184 81 1
184 82 1
184 89 1
184 389 1
184 390 1
184 417 1
184 438 1
184 445 1
184 446 1
184 473 1
184 474 1
184 481 1
184 482 1
184 493 1
184 494 1
184 513 1
184 521 1
184 541 1
184 542 1
184 561 1
184 562 1
184 704 1
184 711 1
184 752 1
185 15 1
185 23 1
185 24 1
185 35 1
185 83 1
185 84 1
185 91 1
185 391 1
185 392 1
185 419 1
185 440 1
185 447 1
185 448 1
185 475 1
185 476 1
185 483 1
185 484 1
185 495 1
185 496 1
185 515 1
185 523 1
185 543 1
185 544 1
185 563 1
185 564 1
185 706 1
185 713 1
185 754 1
186 17 1
186 25 1
186 26 1
186 37 1
186 85 1
186 86 1
186 93 1
186 393 1
186 394 1
186 421 1
186 442 1
186 449 1
186 450 1
186 477 1
186 478 1
186 485 1
186 486 1
186 497 1
186 498 1
186 517 1
186 525 1
186 545 1
186 546 1
186 565 1
186 566 1
186 708 1
186 715 1
186 756 1
187 19 1
187 27 1
187 28 1
187 39 1
187 87 1
187 88 1
187 95 1
187 395 1
187 396 1
187 423 1
187 444 1
187 451 1
187 452 1
187 479 1
187 480 1
187 487 1
187 488 1
187 499 1
187 500 1
187 519 1
187 527 1
187 547 1
187 548 1
187 567 1
187 568 1
187 710 1
187 717 1
187 758 1
188 1 1
188 21 1
188 29 1
188 30 1
188 41 1
188 89 1
188 90 1
188 385 1
188 386 1
188 397 1
188 398 1
188 425 1
188 446 1
188 453 1
188 454 1
188 489 1
188 490 1
188 501 1
188 502 1
188 521 1
188 529 1
188 549 1
188 550 1
188 569 1
188 570 1
188 712 1
188 719 1
188 760 1
189 3 1
189 23 1
189 31 1
189 32 1
189 43 1
189 91 1
189 92 1
189 387 1
189 388 1
189 399 1
189 400 1
189 427 1
189 448 1
189 455 1
189 456 1
189 491 1
189 492 1
189 503 1
189 504 1
189 523 1
189 531 1
189 551 1
189 552 1
189 571 1
189 572 1
189 714 1
189 721 1
189 762 1
190 5 1
190 25 1
190 33 1
190 34 1
190 45 1
190 93 1
190 94 1
190 389 1
190 390 1
190 401 1
190 402 1
190 429 1
190 450 1
190 457 1
190 458 1
190 493 1
190 494 1
190 505 1
190 506 1
190 525 1
190 533 1
190 553 1
190 554 1
190 573 1
190 574 1
190 716 1
190 723 1
190 764 1
191 7 1
191 27 1
191 35 1
191 36 1
191 47 1
191 95 1
191 96 1
191 391 1
191 392 1
191 403 1
191 404 1
191 431 1
191 452 1
191 459 1
191 460 1
191 495 1
191 496 1
191 507 1
191 508 1
191 527 1
191 535 1
191 555 1
191 556 1
191 575 1
191 576 1
191 718 1
191 725 1
191 766 1
192 1 1
192 2 1
192 9 1
192 29 1
192 37 1
192 38 1
192 49 1
192 393 1
192 394 1
192 405 1
192 406 1
192 433 1
192 454 1
192 461 1
192 462 1
192 481 1
192 482 1
192 497 1
192 498 1
192 509 1
192 510 1
192 529 1
192 537 1
192 557 1
192 558 1
192 720 1
192 727 1
192 768 1
