%%MatrixMarket matrix coordinate integer general
% GF(4) labels 0,1,2=omega,3=omega+1; arithmetic is NOT integer arithmetic.
% Coordinate indices are 1-based; omitted entries are zero.
96 384 1920
1 1 1
1 2 1
1 26 3
1 30 2
1 39 2
1 44 1
1 145 3
1 169 3
1 173 2
1 203 2
1 208 1
1 218 2
1 222 1
1 227 1
1 228 1
1 246 2
1 265 1
1 266 2
1 274 1
1 279 1
1 280 1
2 2 1
2 3 1
2 27 3
2 31 2
2 40 2
2 45 1
2 146 3
2 170 3
2 174 2
2 204 2
2 209 1
2 219 2
2 223 1
2 228 1
2 229 1
2 247 2
2 266 1
2 267 2
2 275 1
2 280 1
2 281 1
3 3 1
3 4 1
3 28 3
3 32 2
3 41 2
3 46 1
3 147 3
3 171 3
3 175 2
3 205 2
3 210 1
3 220 2
3 224 1
3 229 1
3 230 1
3 248 2
3 267 1
3 268 2
3 276 1
3 281 1
3 282 1
4 4 1
4 5 1
4 29 3
4 33 2
4 42 2
4 47 1
4 148 3
4 172 3
4 176 2
4 206 2
4 211 1
4 221 2
4 225 1
4 230 1
4 231 1
4 249 2
4 268 1
4 269 2
4 277 1
4 282 1
4 283 1
5 5 1
5 6 1
5 30 3
5 34 2
5 43 2
5 48 1
5 149 3
5 173 3
5 177 2
5 207 2
5 212 1
5 222 2
5 226 1
5 231 1
5 232 1
5 250 2
5 269 1
5 270 2
5 278 1
5 283 1
5 284 1
6 1 1
6 6 1
6 7 1
6 31 3
6 35 2
6 44 2
6 150 3
6 174 3
6 178 2
6 208 2
6 213 1
6 223 2
6 227 1
6 232 1
6 233 1
6 251 2
6 270 1
6 271 2
6 279 1
6 284 1
6 285 1
7 2 1
7 7 1
7 8 1
7 32 3
7 36 2
7 45 2
7 151 3
7 175 3
7 179 2
7 209 2
7 214 1
7 224 2
7 228 1
7 233 1
7 234 1
7 252 2
7 271 1
7 272 2
7 280 1
7 285 1
7 286 1
8 3 1
8 8 1
8 9 1
8 33 3
8 37 2
8 46 2
8 152 3
8 176 3
8 180 2
8 210 2
8 215 1
8 225 2
8 229 1
8 234 1
8 235 1
8 253 2
8 272 1
8 273 2
8 281 1
8 286 1
8 287 1
9 4 1
9 9 1
9 10 1
9 34 3
9 38 2
9 47 2
9 153 3
9 177 3
9 181 2
9 211 2
9 216 1
9 226 2
9 230 1
9 235 1
9 236 1
9 254 2
9 273 1
9 274 2
9 282 1
9 287 1
9 288 1
10 5 1
10 10 1
10 11 1
10 35 3
10 39 2
10 48 2
10 154 3
10 178 3
10 182 2
10 212 2
10 217 1
10 227 2
10 231 1
10 236 1
10 237 1
10 241 1
10 255 2
10 274 1
10 275 2
10 283 1
10 288 1
11 1 2
11 6 1
11 11 1
11 12 1
11 36 3
11 40 2
11 155 3
11 179 3
11 183 2
11 213 2
11 218 1
11 228 2
11 232 1
11 237 1
11 238 1
11 241 1
11 242 1
11 256 2
11 275 1
11 276 2
11 284 1
12 2 2
12 7 1
12 12 1
12 13 1
12 37 3
12 41 2
12 156 3
12 180 3
12 184 2
12 214 2
12 219 1
12 229 2
12 233 1
12 238 1
12 239 1
12 242 1
12 243 1
12 257 2
12 276 1
12 277 2
12 285 1
13 3 2
13 8 1
13 13 1
13 14 1
13 38 3
13 42 2
13 157 3
13 181 3
13 185 2
13 215 2
13 220 1
13 230 2
13 234 1
13 239 1
13 240 1
13 243 1
13 244 1
13 258 2
13 277 1
13 278 2
13 286 1
14 4 2
14 9 1
14 14 1
14 15 1
14 39 3
14 43 2
14 158 3
14 182 3
14 186 2
14 193 1
14 216 2
14 221 1
14 231 2
14 235 1
14 240 1
14 244 1
14 245 1
14 259 2
14 278 1
14 279 2
14 287 1
15 5 2
15 10 1
15 15 1
15 16 1
15 40 3
15 44 2
15 159 3
15 183 3
15 187 2
15 193 1
15 194 1
15 217 2
15 222 1
15 232 2
15 236 1
15 245 1
15 246 1
15 260 2
15 279 1
15 280 2
15 288 1
16 6 2
16 11 1
16 16 1
16 17 1
16 41 3
16 45 2
16 160 3
16 184 3
16 188 2
16 194 1
16 195 1
16 218 2
16 223 1
16 233 2
16 237 1
16 241 1
16 246 1
16 247 1
16 261 2
16 280 1
16 281 2
17 7 2
17 12 1
17 17 1
17 18 1
17 42 3
17 46 2
17 161 3
17 185 3
17 189 2
17 195 1
17 196 1
17 219 2
17 224 1
17 234 2
17 238 1
17 242 1
17 247 1
17 248 1
17 262 2
17 281 1
17 282 2
18 8 2
18 13 1
18 18 1
18 19 1
18 43 3
18 47 2
18 162 3
18 186 3
18 190 2
18 196 1
18 197 1
18 220 2
18 225 1
18 235 2
18 239 1
18 243 1
18 248 1
18 249 1
18 263 2
18 282 1
18 283 2
19 9 2
19 14 1
19 19 1
19 20 1
19 44 3
19 48 2
19 163 3
19 187 3
19 191 2
19 197 1
19 198 1
19 221 2
19 226 1
19 236 2
19 240 1
19 244 1
19 249 1
19 250 1
19 264 2
19 283 1
19 284 2
20 1 2
20 10 2
20 15 1
20 20 1
20 21 1
20 45 3
20 164 3
20 188 3
20 192 2
20 193 1
20 198 1
20 199 1
20 222 2
20 227 1
20 237 2
20 245 1
20 250 1
20 251 1
20 265 2
20 284 1
20 285 2
21 2 2
21 11 2
21 16 1
21 21 1
21 22 1
21 46 3
21 145 2
21 165 3
21 189 3
21 194 1
21 199 1
21 200 1
21 223 2
21 228 1
21 238 2
21 246 1
21 251 1
21 252 1
21 266 2
21 285 1
21 286 2
22 3 2
22 12 2
22 17 1
22 22 1
22 23 1
22 47 3
22 146 2
22 166 3
22 190 3
22 195 1
22 200 1
22 201 1
22 224 2
22 229 1
22 239 2
22 247 1
22 252 1
22 253 1
22 267 2
22 286 1
22 287 2
23 4 2
23 13 2
23 18 1
23 23 1
23 24 1
23 48 3
23 147 2
23 167 3
23 191 3
23 196 1
23 201 1
23 202 1
23 225 2
23 230 1
23 240 2
23 248 1
23 253 1
23 254 1
23 268 2
23 287 1
23 288 2
24 1 3
24 5 2
24 14 2
24 19 1
24 24 1
24 25 1
24 148 2
24 168 3
24 192 3
24 193 2
24 197 1
24 202 1
24 203 1
24 226 2
24 231 1
24 241 2
24 249 1
24 254 1
24 255 1
24 269 2
24 288 1
25 2 3
25 6 2
25 15 2
25 20 1
25 25 1
25 26 1
25 145 3
25 149 2
25 169 3
25 194 2
25 198 1
25 203 1
25 204 1
25 227 2
25 232 1
25 241 1
25 242 2
25 250 1
25 255 1
25 256 1
25 270 2
26 3 3
26 7 2
26 16 2
26 21 1
26 26 1
26 27 1
26 146 3
26 150 2
26 170 3
26 195 2
26 199 1
26 204 1
26 205 1
26 228 2
26 233 1
26 242 1
26 243 2
26 251 1
26 256 1
26 257 1
26 271 2
27 4 3
27 8 2
27 17 2
27 22 1
27 27 1
27 28 1
27 147 3
27 151 2
27 171 3
27 196 2
27 200 1
27 205 1
27 206 1
27 229 2
27 234 1
27 243 1
27 244 2
27 252 1
27 257 1
27 258 1
27 272 2
28 5 3
28 9 2
28 18 2
28 23 1
28 28 1
28 29 1
28 148 3
28 152 2
28 172 3
28 197 2
28 201 1
28 206 1
28 207 1
28 230 2
28 235 1
28 244 1
28 245 2
28 253 1
28 258 1
28 259 1
28 273 2
29 6 3
29 10 2
29 19 2
29 24 1
29 29 1
29 30 1
29 149 3
29 153 2
29 173 3
29 198 2
29 202 1
29 207 1
29 208 1
29 231 2
29 236 1
29 245 1
29 246 2
29 254 1
29 259 1
29 260 1
29 274 2
30 7 3
30 11 2
30 20 2
30 25 1
30 30 1
30 31 1
30 150 3
30 154 2
30 174 3
30 199 2
30 203 1
30 208 1
30 209 1
30 232 2
30 237 1
30 246 1
30 247 2
30 255 1
30 260 1
30 261 1
30 275 2
31 8 3
31 12 2
31 21 2
31 26 1
31 31 1
31 32 1
31 151 3
31 155 2
31 175 3
31 200 2
31 204 1
31 209 1
31 210 1
31 233 2
31 238 1
31 247 1
31 248 2
31 256 1
31 261 1
31 262 1
31 276 2
32 9 3
32 13 2
32 22 2
32 27 1
32 32 1
32 33 1
32 152 3
32 156 2
32 176 3
32 201 2
32 205 1
32 210 1
32 211 1
32 234 2
32 239 1
32 248 1
32 249 2
32 257 1
32 262 1
32 263 1
32 277 2
33 10 3
33 14 2
33 23 2
33 28 1
33 33 1
33 34 1
33 153 3
33 157 2
33 177 3
33 202 2
33 206 1
33 211 1
33 212 1
33 235 2
33 240 1
33 249 1
33 250 2
33 258 1
33 263 1
33 264 1
33 278 2
34 11 3
34 15 2
34 24 2
34 29 1
34 34 1
34 35 1
34 154 3
34 158 2
34 178 3
34 193 1
34 203 2
34 207 1
34 212 1
34 213 1
34 236 2
34 250 1
34 251 2
34 259 1
34 264 1
34 265 1
34 279 2
35 12 3
35 16 2
35 25 2
35 30 1
35 35 1
35 36 1
35 155 3
35 159 2
35 179 3
35 194 1
35 204 2
35 208 1
35 213 1
35 214 1
35 237 2
35 251 1
35 252 2
35 260 1
35 265 1
35 266 1
35 280 2
36 13 3
36 17 2
36 26 2
36 31 1
36 36 1
36 37 1
36 156 3
36 160 2
36 180 3
36 195 1
36 205 2
36 209 1
36 214 1
36 215 1
36 238 2
36 252 1
36 253 2
36 261 1
36 266 1
36 267 1
36 281 2
37 14 3
37 18 2
37 27 2
37 32 1
37 37 1
37 38 1
37 157 3
37 161 2
37 181 3
37 196 1
37 206 2
37 210 1
37 215 1
37 216 1
37 239 2
37 253 1
37 254 2
37 262 1
37 267 1
37 268 1
37 282 2
38 15 3
38 19 2
38 28 2
38 33 1
38 38 1
38 39 1
38 158 3
38 162 2
38 182 3
38 197 1
38 207 2
38 211 1
38 216 1
38 217 1
38 240 2
38 254 1
38 255 2
38 263 1
38 268 1
38 269 1
38 283 2
39 16 3
39 20 2
39 29 2
39 34 1
39 39 1
39 40 1
39 159 3
39 163 2
39 183 3
39 193 2
39 198 1
39 208 2
39 212 1
39 217 1
39 218 1
39 255 1
39 256 2
39 264 1
39 269 1
39 270 1
39 284 2
40 17 3
40 21 2
40 30 2
40 35 1
40 40 1
40 41 1
40 160 3
40 164 2
40 184 3
40 194 2
40 199 1
40 209 2
40 213 1
40 218 1
40 219 1
40 256 1
40 257 2
40 265 1
40 270 1
40 271 1
40 285 2
41 18 3
41 22 2
41 31 2
41 36 1
41 41 1
41 42 1
41 161 3
41 165 2
41 185 3
41 195 2
41 200 1
41 210 2
41 214 1
41 219 1
41 220 1
41 257 1
41 258 2
41 266 1
41 271 1
41 272 1
41 286 2
42 19 3
42 23 2
42 32 2
42 37 1
42 42 1
42 43 1
42 162 3
42 166 2
42 186 3
42 196 2
42 201 1
42 211 2
42 215 1
42 220 1
42 221 1
42 258 1
42 259 2
42 267 1
42 272 1
42 273 1
42 287 2
43 20 3
43 24 2
43 33 2
43 38 1
43 43 1
43 44 1
43 163 3
43 167 2
43 187 3
43 197 2
43 202 1
43 212 2
43 216 1
43 221 1
43 222 1
43 259 1
43 260 2
43 268 1
43 273 1
43 274 1
43 288 2
44 21 3
44 25 2
44 34 2
44 39 1
44 44 1
44 45 1
44 164 3
44 168 2
44 188 3
44 198 2
44 203 1
44 213 2
44 217 1
44 222 1
44 223 1
44 241 2
44 260 1
44 261 2
44 269 1
44 274 1
44 275 1
45 22 3
45 26 2
45 35 2
45 40 1
45 45 1
45 46 1
45 165 3
45 169 2
45 189 3
45 199 2
45 204 1
45 214 2
45 218 1
45 223 1
45 224 1
45 242 2
45 261 1
45 262 2
45 270 1
45 275 1
45 276 1
46 23 3
46 27 2
46 36 2
46 41 1
46 46 1
46 47 1
46 166 3
46 170 2
46 190 3
46 200 2
46 205 1
46 215 2
46 219 1
46 224 1
46 225 1
46 243 2
46 262 1
46 263 2
46 271 1
46 276 1
46 277 1
47 24 3
47 28 2
47 37 2
47 42 1
47 47 1
47 48 1
47 167 3
47 171 2
47 191 3
47 201 2
47 206 1
47 216 2
47 220 1
47 225 1
47 226 1
47 244 2
47 263 1
47 264 2
47 272 1
47 277 1
47 278 1
48 1 1
48 25 3
48 29 2
48 38 2
48 43 1
48 48 1
48 168 3
48 172 2
48 192 3
48 202 2
48 207 1
48 217 2
48 221 1
48 226 1
48 227 1
48 245 2
48 264 1
48 265 2
48 273 1
48 278 1
48 279 1
49 2 2
49 6 3
49 16 3
49 20 2
49 26 3
49 198 2
49 204 2
49 218 3
49 228 1
49 232 2
49 242 2
49 250 2
49 256 2
49 266 3
49 270 3
49 280 2
49 337 1
49 361 1
49 365 3
50 3 2
50 7 3
50 17 3
50 21 2
50 27 3
50 199 2
50 205 2
50 219 3
50 229 1
50 233 2
50 243 2
50 251 2
50 257 2
50 267 3
50 271 3
50 281 2
50 338 1
50 362 1
50 366 3
51 4 2
51 8 3
51 18 3
51 22 2
51 28 3
51 200 2
51 206 2
51 220 3
51 230 1
51 234 2
51 244 2
51 252 2
51 258 2
51 268 3
51 272 3
51 282 2
51 339 1
51 363 1
51 367 3
52 5 2
52 9 3
52 19 3
52 23 2
52 29 3
52 201 2
52 207 2
52 221 3
52 231 1
52 235 2
52 245 2
52 253 2
52 259 2
52 269 3
52 273 3
52 283 2
52 340 1
52 364 1
52 368 3
53 6 2
53 10 3
53 20 3
53 24 2
53 30 3
53 202 2
53 208 2
53 222 3
53 232 1
53 236 2
53 246 2
53 254 2
53 260 2
53 270 3
53 274 3
53 284 2
53 341 1
53 365 1
53 369 3
54 7 2
54 11 3
54 21 3
54 25 2
54 31 3
54 203 2
54 209 2
54 223 3
54 233 1
54 237 2
54 247 2
54 255 2
54 261 2
54 271 3
54 275 3
54 285 2
54 342 1
54 366 1
54 370 3
55 8 2
55 12 3
55 22 3
55 26 2
55 32 3
55 204 2
55 210 2
55 224 3
55 234 1
55 238 2
55 248 2
55 256 2
55 262 2
55 272 3
55 276 3
55 286 2
55 343 1
55 367 1
55 371 3
56 9 2
56 13 3
56 23 3
56 27 2
56 33 3
56 205 2
56 211 2
56 225 3
56 235 1
56 239 2
56 249 2
56 257 2
56 263 2
56 273 3
56 277 3
56 287 2
56 344 1
56 368 1
56 372 3
57 10 2
57 14 3
57 24 3
57 28 2
57 34 3
57 206 2
57 212 2
57 226 3
57 236 1
57 240 2
57 250 2
57 258 2
57 264 2
57 274 3
57 278 3
57 288 2
57 345 1
57 369 1
57 373 3
58 11 2
58 15 3
58 25 3
58 29 2
58 35 3
58 193 2
58 207 2
58 213 2
58 227 3
58 237 1
58 241 2
58 251 2
58 259 2
58 265 2
58 275 3
58 279 3
58 346 1
58 370 1
58 374 3
59 12 2
59 16 3
59 26 3
59 30 2
59 36 3
59 194 2
59 208 2
59 214 2
59 228 3
59 238 1
59 242 2
59 252 2
59 260 2
59 266 2
59 276 3
59 280 3
59 347 1
59 371 1
59 375 3
60 13 2
60 17 3
60 27 3
60 31 2
60 37 3
60 195 2
60 209 2
60 215 2
60 229 3
60 239 1
60 243 2
60 253 2
60 261 2
60 267 2
60 277 3
60 281 3
60 348 1
60 372 1
60 376 3
61 14 2
61 18 3
61 28 3
61 32 2
61 38 3
61 196 2
61 210 2
61 216 2
61 230 3
61 240 1
61 244 2
61 254 2
61 262 2
61 268 2
61 278 3
61 282 3
61 349 1
61 373 1
61 377 3
62 15 2
62 19 3
62 29 3
62 33 2
62 39 3
62 193 1
62 197 2
62 211 2
62 217 2
62 231 3
62 245 2
62 255 2
62 263 2
62 269 2
62 279 3
62 283 3
62 350 1
62 374 1
62 378 3
63 16 2
63 20 3
63 30 3
63 34 2
63 40 3
63 194 1
63 198 2
63 212 2
63 218 2
63 232 3
63 246 2
63 256 2
63 264 2
63 270 2
63 280 3
63 284 3
63 351 1
63 375 1
63 379 3
64 17 2
64 21 3
64 31 3
64 35 2
64 41 3
64 195 1
64 199 2
64 213 2
64 219 2
64 233 3
64 247 2
64 257 2
64 265 2
64 271 2
64 281 3
64 285 3
64 352 1
64 376 1
64 380 3
65 18 2
65 22 3
65 32 3
65 36 2
65 42 3
65 196 1
65 200 2
65 214 2
65 220 2
65 234 3
65 248 2
65 258 2
65 266 2
65 272 2
65 282 3
65 286 3
65 353 1
65 377 1
65 381 3
66 19 2
66 23 3
66 33 3
66 37 2
66 43 3
66 197 1
66 201 2
66 215 2
66 221 2
66 235 3
66 249 2
66 259 2
66 267 2
66 273 2
66 283 3
66 287 3
66 354 1
66 378 1
66 382 3
67 20 2
67 24 3
67 34 3
67 38 2
67 44 3
67 198 1
67 202 2
67 216 2
67 222 2
67 236 3
67 250 2
67 260 2
67 268 2
67 274 2
67 284 3
67 288 3
67 355 1
67 379 1
67 383 3
68 21 2
68 25 3
68 35 3
68 39 2
68 45 3
68 199 1
68 203 2
68 217 2
68 223 2
68 237 3
68 241 3
68 251 2
68 261 2
68 269 2
68 275 2
68 285 3
68 356 1
68 380 1
68 384 3
69 22 2
69 26 3
69 36 3
69 40 2
69 46 3
69 200 1
69 204 2
69 218 2
69 224 2
69 238 3
69 242 3
69 252 2
69 262 2
69 270 2
69 276 2
69 286 3
69 337 3
69 357 1
69 381 1
70 23 2
70 27 3
70 37 3
70 41 2
70 47 3
70 201 1
70 205 2
70 219 2
70 225 2
70 239 3
70 243 3
70 253 2
70 263 2
70 271 2
70 277 2
70 287 3
70 338 3
70 358 1
70 382 1
71 24 2
71 28 3
71 38 3
71 42 2
71 48 3
71 202 1
71 206 2
71 220 2
71 226 2
71 240 3
71 244 3
71 254 2
71 264 2
71 272 2
71 278 2
71 288 3
71 339 3
71 359 1
71 383 1
72 1 3
72 25 2
72 29 3
72 39 3
72 43 2
72 193 3
72 203 1
72 207 2
72 221 2
72 227 2
72 241 3
72 245 3
72 255 2
72 265 2
72 273 2
72 279 2
72 340 3
72 360 1
72 384 1
73 2 3
73 26 2
73 30 3
73 40 3
73 44 2
73 194 3
73 204 1
73 208 2
73 222 2
73 228 2
73 242 3
73 246 3
73 256 2
73 266 2
73 274 2
73 280 2
73 337 1
73 341 3
73 361 1
74 3 3
74 27 2
74 31 3
74 41 3
74 45 2
74 195 3
74 205 1
74 209 2
74 223 2
74 229 2
74 243 3
74 247 3
74 257 2
74 267 2
74 275 2
74 281 2
74 338 1
74 342 3
74 362 1
75 4 3
75 28 2
75 32 3
75 42 3
75 46 2
75 196 3
75 206 1
75 210 2
75 224 2
75 230 2
75 244 3
75 248 3
75 258 2
75 268 2
75 276 2
75 282 2
75 339 1
75 343 3
75 363 1
76 5 3
76 29 2
76 33 3
76 43 3
76 47 2
76 197 3
76 207 1
76 211 2
76 225 2
76 231 2
76 245 3
76 249 3
76 259 2
76 269 2
76 277 2
76 283 2
76 340 1
76 344 3
76 364 1
77 6 3
77 30 2
77 34 3
77 44 3
77 48 2
77 198 3
77 208 1
77 212 2
77 226 2
77 232 2
77 246 3
77 250 3
77 260 2
77 270 2
77 278 2
77 284 2
77 341 1
77 345 3
77 365 1
78 1 2
78 7 3
78 31 2
78 35 3
78 45 3
78 199 3
78 209 1
78 213 2
78 227 2
78 233 2
78 247 3
78 251 3
78 261 2
78 271 2
78 279 2
78 285 2
78 342 1
78 346 3
78 366 1
79 2 2
79 8 3
79 32 2
79 36 3
79 46 3
79 200 3
79 210 1
79 214 2
79 228 2
79 234 2
79 248 3
79 252 3
79 262 2
79 272 2
79 280 2
79 286 2
79 343 1
79 347 3
79 367 1
80 3 2
80 9 3
80 33 2
80 37 3
80 47 3
80 201 3
80 211 1
80 215 2
80 229 2
80 235 2
80 249 3
80 253 3
80 263 2
80 273 2
80 281 2
80 287 2
80 344 1
80 348 3
80 368 1
81 4 2
81 10 3
81 34 2
81 38 3
81 48 3
81 202 3
81 212 1
81 216 2
81 230 2
81 236 2
81 250 3
81 254 3
81 264 2
81 274 2
81 282 2
81 288 2
81 345 1
81 349 3
81 369 1
82 1 3
82 5 2
82 11 3
82 35 2
82 39 3
82 203 3
82 213 1
82 217 2
82 231 2
82 237 2
82 241 2
82 251 3
82 255 3
82 265 2
82 275 2
82 283 2
82 346 1
82 350 3
82 370 1
83 2 3
83 6 2
83 12 3
83 36 2
83 40 3
83 204 3
83 214 1
83 218 2
83 232 2
83 238 2
83 242 2
83 252 3
83 256 3
83 266 2
83 276 2
83 284 2
83 347 1
83 351 3
83 371 1
84 3 3
84 7 2
84 13 3
84 37 2
84 41 3
84 205 3
84 215 1
84 219 2
84 233 2
84 239 2
84 243 2
84 253 3
84 257 3
84 267 2
84 277 2
84 285 2
84 348 1
84 352 3
84 372 1
85 4 3
85 8 2
85 14 3
85 38 2
85 42 3
85 206 3
85 216 1
85 220 2
85 234 2
85 240 2
85 244 2
85 254 3
85 258 3
85 268 2
85 278 2
85 286 2
85 349 1
85 353 3
85 373 1
86 5 3
86 9 2
86 15 3
86 39 2
86 43 3
86 193 2
86 207 3
86 217 1
86 221 2
86 235 2
86 245 2
86 255 3
86 259 3
86 269 2
86 279 2
86 287 2
86 350 1
86 354 3
86 374 1
87 6 3
87 10 2
87 16 3
87 40 2
87 44 3
87 194 2
87 208 3
87 218 1
87 222 2
87 236 2
87 246 2
87 256 3
87 260 3
87 270 2
87 280 2
87 288 2
87 351 1
87 355 3
87 375 1
88 7 3
88 11 2
88 17 3
88 41 2
88 45 3
88 195 2
88 209 3
88 219 1
88 223 2
88 237 2
88 241 2
88 247 2
88 257 3
88 261 3
88 271 2
88 281 2
88 352 1
88 356 3
88 376 1
89 8 3
89 12 2
89 18 3
89 42 2
89 46 3
89 196 2
89 210 3
89 220 1
89 224 2
89 238 2
89 242 2
89 248 2
89 258 3
89 262 3
89 272 2
89 282 2
89 353 1
89 357 3
89 377 1
90 9 3
90 13 2
90 19 3
90 43 2
90 47 3
90 197 2
90 211 3
90 221 1
90 225 2
90 239 2
90 243 2
90 249 2
90 259 3
90 263 3
90 273 2
90 283 2
90 354 1
90 358 3
90 378 1
91 10 3
91 14 2
91 20 3
91 44 2
91 48 3
91 198 2
91 212 3
91 222 1
91 226 2
91 240 2
91 244 2
91 250 2
91 260 3
91 264 3
91 274 2
91 284 2
91 355 1
91 359 3
91 379 1
92 1 3
92 11 3
92 15 2
92 21 3
92 45 2
92 193 2
92 199 2
92 213 3
92 223 1
92 227 2
92 245 2
92 251 2
92 261 3
92 265 3
92 275 2
92 285 2
92 356 1
92 360 3
92 380 1
93 2 3
93 12 3
93 16 2
93 22 3
93 46 2
93 194 2
93 200 2
93 214 3
93 224 1
93 228 2
93 246 2
93 252 2
93 262 3
93 266 3
93 276 2
93 286 2
93 357 1
93 361 3
93 381 1
94 3 3
94 13 3
94 17 2
94 23 3
94 47 2
94 195 2
94 201 2
94 215 3
94 225 1
94 229 2
94 247 2
94 253 2
94 263 3
94 267 3
94 277 2
94 287 2
94 358 1
94 362 3
94 382 1
95 4 3
95 14 3
95 18 2
95 24 3
95 48 2
95 196 2
95 202 2
95 216 3
95 226 1
95 230 2
95 248 2
95 254 2
95 264 3
95 268 3
95 278 2
95 288 2
95 359 1
95 363 3
95 383 1
96 1 2
96 5 3
96 15 3
96 19 2
96 25 3
96 197 2
96 203 2
96 217 3
96 227 1
96 231 2
96 241 2
96 249 2
96 255 2
96 265 3
96 269 3
96 279 2
96 360 1
96 364 3
96 384 1
