%%MatrixMarket matrix coordinate integer general
% Binary matrix over GF(2).
% Coordinate indices are 1-based; omitted entries are zero.
192 768 5088
1 98 1
1 126 1
1 133 1
1 153 1
1 154 1
1 182 1
1 194 1
1 210 1
1 230 1
1 249 1
1 250 1
1 257 1
1 258 1
1 278 1
1 305 1
1 345 1
1 346 1
1 353 1
1 593 1
1 594 1
1 606 1
1 613 1
1 614 1
1 633 1
1 634 1
1 642 1
2 100 1
2 128 1
2 135 1
2 155 1
2 156 1
2 184 1
2 196 1
2 212 1
2 232 1
2 251 1
2 252 1
2 259 1
2 260 1
2 280 1
2 307 1
2 347 1
2 348 1
2 355 1
2 595 1
2 596 1
2 608 1
2 615 1
2 616 1
2 635 1
2 636 1
2 644 1
3 102 1
3 130 1
3 137 1
3 157 1
3 158 1
3 186 1
3 198 1
3 214 1
3 234 1
3 253 1
3 254 1
3 261 1
3 262 1
3 282 1
3 309 1
3 349 1
3 350 1
3 357 1
3 597 1
3 598 1
3 610 1
3 617 1
3 618 1
3 637 1
3 638 1
3 646 1
4 104 1
4 132 1
4 139 1
4 159 1
4 160 1
4 188 1
4 200 1
4 216 1
4 236 1
4 255 1
4 256 1
4 263 1
4 264 1
4 284 1
4 311 1
4 351 1
4 352 1
4 359 1
4 599 1
4 600 1
4 612 1
4 619 1
4 620 1
4 639 1
4 640 1
4 648 1
5 106 1
5 134 1
5 141 1
5 161 1
5 162 1
5 190 1
5 202 1
5 218 1
5 238 1
5 257 1
5 258 1
5 265 1
5 266 1
5 286 1
5 313 1
5 353 1
5 354 1
5 361 1
5 601 1
5 602 1
5 614 1
5 621 1
5 622 1
5 641 1
5 642 1
5 650 1
6 108 1
6 136 1
6 143 1
6 163 1
6 164 1
6 192 1
6 204 1
6 220 1
6 240 1
6 259 1
6 260 1
6 267 1
6 268 1
6 288 1
6 315 1
6 355 1
6 356 1
6 363 1
6 603 1
6 604 1
6 616 1
6 623 1
6 624 1
6 643 1
6 644 1
6 652 1
7 98 1
7 110 1
7 138 1
7 145 1
7 165 1
7 166 1
7 194 1
7 206 1
7 222 1
7 242 1
7 261 1
7 262 1
7 269 1
7 270 1
7 317 1
7 357 1
7 358 1
7 365 1
7 605 1
7 606 1
7 618 1
7 625 1
7 626 1
7 645 1
7 646 1
7 654 1
8 100 1
8 112 1
8 140 1
8 147 1
8 167 1
8 168 1
8 196 1
8 208 1
8 224 1
8 244 1
8 263 1
8 264 1
8 271 1
8 272 1
8 319 1
8 359 1
8 360 1
8 367 1
8 607 1
8 608 1
8 620 1
8 627 1
8 628 1
8 647 1
8 648 1
8 656 1
9 102 1
9 114 1
9 142 1
9 149 1
9 169 1
9 170 1
9 198 1
9 210 1
9 226 1
9 246 1
9 265 1
9 266 1
9 273 1
9 274 1
9 321 1
9 361 1
9 362 1
9 369 1
9 609 1
9 610 1
9 622 1
9 629 1
9 630 1
9 649 1
9 650 1
9 658 1
10 104 1
10 116 1
10 144 1
10 151 1
10 171 1
10 172 1
10 200 1
10 212 1
10 228 1
10 248 1
10 267 1
10 268 1
10 275 1
10 276 1
10 323 1
10 363 1
10 364 1
10 371 1
10 611 1
10 612 1
10 624 1
10 631 1
10 632 1
10 651 1
10 652 1
10 660 1
11 106 1
11 118 1
11 146 1
11 153 1
11 173 1
11 174 1
11 202 1
11 214 1
11 230 1
11 250 1
11 269 1
11 270 1
11 277 1
11 278 1
11 325 1
11 365 1
11 366 1
11 373 1
11 613 1
11 614 1
11 626 1
11 633 1
11 634 1
11 653 1
11 654 1
11 662 1
12 108 1
12 120 1
12 148 1
12 155 1
12 175 1
12 176 1
12 204 1
12 216 1
12 232 1
12 252 1
12 271 1
12 272 1
12 279 1
12 280 1
12 327 1
12 367 1
12 368 1
12 375 1
12 615 1
12 616 1
12 628 1
12 635 1
12 636 1
12 655 1
12 656 1
12 664 1
13 110 1
13 122 1
13 150 1
13 157 1
13 177 1
13 178 1
13 206 1
13 218 1
13 234 1
13 254 1
13 273 1
13 274 1
13 281 1
13 282 1
13 329 1
13 369 1
13 370 1
13 377 1
13 617 1
13 618 1
13 630 1
13 637 1
13 638 1
13 657 1
13 658 1
13 666 1
14 112 1
14 124 1
14 152 1
14 159 1
14 179 1
14 180 1
14 208 1
14 220 1
14 236 1
14 256 1
14 275 1
14 276 1
14 283 1
14 284 1
14 331 1
14 371 1
14 372 1
14 379 1
14 619 1
14 620 1
14 632 1
14 639 1
14 640 1
14 659 1
14 660 1
14 668 1
15 114 1
15 126 1
15 154 1
15 161 1
15 181 1
15 182 1
15 210 1
15 222 1
15 238 1
15 258 1
15 277 1
15 278 1
15 285 1
15 286 1
15 333 1
15 373 1
15 374 1
15 381 1
15 621 1
15 622 1
15 634 1
15 641 1
15 642 1
15 661 1
15 662 1
15 670 1
16 116 1
16 128 1
16 156 1
16 163 1
16 183 1
16 184 1
16 212 1
16 224 1
16 240 1
16 260 1
16 279 1
16 280 1
16 287 1
16 288 1
16 335 1
16 375 1
16 376 1
16 383 1
16 623 1
16 624 1
16 636 1
16 643 1
16 644 1
16 663 1
16 664 1
16 672 1
17 118 1
17 130 1
17 158 1
17 165 1
17 185 1
17 186 1
17 193 1
17 194 1
17 214 1
17 226 1
17 242 1
17 262 1
17 281 1
17 282 1
17 289 1
17 337 1
17 377 1
17 378 1
17 578 1
17 625 1
17 626 1
17 638 1
17 645 1
17 646 1
17 665 1
17 666 1
18 120 1
18 132 1
18 160 1
18 167 1
18 187 1
18 188 1
18 195 1
18 196 1
18 216 1
18 228 1
18 244 1
18 264 1
18 283 1
18 284 1
18 291 1
18 339 1
18 379 1
18 380 1
18 580 1
18 627 1
18 628 1
18 640 1
18 647 1
18 648 1
18 667 1
18 668 1
19 122 1
19 134 1
19 162 1
19 169 1
19 189 1
19 190 1
19 197 1
19 198 1
19 218 1
19 230 1
19 246 1
19 266 1
19 285 1
19 286 1
19 293 1
19 341 1
19 381 1
19 382 1
19 582 1
19 629 1
19 630 1
19 642 1
19 649 1
19 650 1
19 669 1
19 670 1
20 124 1
20 136 1
20 164 1
20 171 1
20 191 1
20 192 1
20 199 1
20 200 1
20 220 1
20 232 1
20 248 1
20 268 1
20 287 1
20 288 1
20 295 1
20 343 1
20 383 1
20 384 1
20 584 1
20 631 1
20 632 1
20 644 1
20 651 1
20 652 1
20 671 1
20 672 1
21 97 1
21 98 1
21 126 1
21 138 1
21 166 1
21 173 1
21 193 1
21 194 1
21 201 1
21 202 1
21 222 1
21 234 1
21 250 1
21 270 1
21 289 1
21 290 1
21 297 1
21 345 1
21 577 1
21 578 1
21 586 1
21 633 1
21 634 1
21 646 1
21 653 1
21 654 1
22 99 1
22 100 1
22 128 1
22 140 1
22 168 1
22 175 1
22 195 1
22 196 1
22 203 1
22 204 1
22 224 1
22 236 1
22 252 1
22 272 1
22 291 1
22 292 1
22 299 1
22 347 1
22 579 1
22 580 1
22 588 1
22 635 1
22 636 1
22 648 1
22 655 1
22 656 1
23 101 1
23 102 1
23 130 1
23 142 1
23 170 1
23 177 1
23 197 1
23 198 1
23 205 1
23 206 1
23 226 1
23 238 1
23 254 1
23 274 1
23 293 1
23 294 1
23 301 1
23 349 1
23 581 1
23 582 1
23 590 1
23 637 1
23 638 1
23 650 1
23 657 1
23 658 1
24 103 1
24 104 1
24 132 1
24 144 1
24 172 1
24 179 1
24 199 1
24 200 1
24 207 1
24 208 1
24 228 1
24 240 1
24 256 1
24 276 1
24 295 1
24 296 1
24 303 1
24 351 1
24 583 1
24 584 1
24 592 1
24 639 1
24 640 1
24 652 1
24 659 1
24 660 1
25 105 1
25 106 1
25 134 1
25 146 1
25 174 1
25 181 1
25 201 1
25 202 1
25 209 1
25 210 1
25 230 1
25 242 1
25 258 1
25 278 1
25 297 1
25 298 1
25 305 1
25 353 1
25 585 1
25 586 1
25 594 1
25 641 1
25 642 1
25 654 1
25 661 1
25 662 1
26 107 1
26 108 1
26 136 1
26 148 1
26 176 1
26 183 1
26 203 1
26 204 1
26 211 1
26 212 1
26 232 1
26 244 1
26 260 1
26 280 1
26 299 1
26 300 1
26 307 1
26 355 1
26 587 1
26 588 1
26 596 1
26 643 1
26 644 1
26 656 1
26 663 1
26 664 1
27 109 1
27 110 1
27 138 1
27 150 1
27 178 1
27 185 1
27 205 1
27 206 1
27 213 1
27 214 1
27 234 1
27 246 1
27 262 1
27 282 1
27 301 1
27 302 1
27 309 1
27 357 1
27 589 1
27 590 1
27 598 1
27 645 1
27 646 1
27 658 1
27 665 1
27 666 1
28 111 1
28 112 1
28 140 1
28 152 1
28 180 1
28 187 1
28 207 1
28 208 1
28 215 1
28 216 1
28 236 1
28 248 1
28 264 1
28 284 1
28 303 1
28 304 1
28 311 1
28 359 1
28 591 1
28 592 1
28 600 1
28 647 1
28 648 1
28 660 1
28 667 1
28 668 1
29 113 1
29 114 1
29 142 1
29 154 1
29 182 1
29 189 1
29 209 1
29 210 1
29 217 1
29 218 1
29 238 1
29 250 1
29 266 1
29 286 1
29 305 1
29 306 1
29 313 1
29 361 1
29 593 1
29 594 1
29 602 1
29 649 1
29 650 1
29 662 1
29 669 1
29 670 1
30 115 1
30 116 1
30 144 1
30 156 1
30 184 1
30 191 1
30 211 1
30 212 1
30 219 1
30 220 1
30 240 1
30 252 1
30 268 1
30 288 1
30 307 1
30 308 1
30 315 1
30 363 1
30 595 1
30 596 1
30 604 1
30 651 1
30 652 1
30 664 1
30 671 1
30 672 1
31 97 1
31 117 1
31 118 1
31 146 1
31 158 1
31 186 1
31 194 1
31 213 1
31 214 1
31 221 1
31 222 1
31 242 1
31 254 1
31 270 1
31 309 1
31 310 1
31 317 1
31 365 1
31 577 1
31 578 1
31 597 1
31 598 1
31 606 1
31 653 1
31 654 1
31 666 1
32 99 1
32 119 1
32 120 1
32 148 1
32 160 1
32 188 1
32 196 1
32 215 1
32 216 1
32 223 1
32 224 1
32 244 1
32 256 1
32 272 1
32 311 1
32 312 1
32 319 1
32 367 1
32 579 1
32 580 1
32 599 1
32 600 1
32 608 1
32 655 1
32 656 1
32 668 1
33 101 1
33 121 1
33 122 1
33 150 1
33 162 1
33 190 1
33 198 1
33 217 1
33 218 1
33 225 1
33 226 1
33 246 1
33 258 1
33 274 1
33 313 1
33 314 1
33 321 1
33 369 1
33 581 1
33 582 1
33 601 1
33 602 1
33 610 1
33 657 1
33 658 1
33 670 1
34 103 1
34 123 1
34 124 1
34 152 1
34 164 1
34 192 1
34 200 1
34 219 1
34 220 1
34 227 1
34 228 1
34 248 1
34 260 1
34 276 1
34 315 1
34 316 1
34 323 1
34 371 1
34 583 1
34 584 1
34 603 1
34 604 1
34 612 1
34 659 1
34 660 1
34 672 1
35 98 1
35 105 1
35 125 1
35 126 1
35 154 1
35 166 1
35 202 1
35 221 1
35 222 1
35 229 1
35 230 1
35 250 1
35 262 1
35 278 1
35 317 1
35 318 1
35 325 1
35 373 1
35 578 1
35 585 1
35 586 1
35 605 1
35 606 1
35 614 1
35 661 1
35 662 1
36 100 1
36 107 1
36 127 1
36 128 1
36 156 1
36 168 1
36 204 1
36 223 1
36 224 1
36 231 1
36 232 1
36 252 1
36 264 1
36 280 1
36 319 1
36 320 1
36 327 1
36 375 1
36 580 1
36 587 1
36 588 1
36 607 1
36 608 1
36 616 1
36 663 1
36 664 1
37 102 1
37 109 1
37 129 1
37 130 1
37 158 1
37 170 1
37 206 1
37 225 1
37 226 1
37 233 1
37 234 1
37 254 1
37 266 1
37 282 1
37 321 1
37 322 1
37 329 1
37 377 1
37 582 1
37 589 1
37 590 1
37 609 1
37 610 1
37 618 1
37 665 1
37 666 1
38 104 1
38 111 1
38 131 1
38 132 1
38 160 1
38 172 1
38 208 1
38 227 1
38 228 1
38 235 1
38 236 1
38 256 1
38 268 1
38 284 1
38 323 1
38 324 1
38 331 1
38 379 1
38 584 1
38 591 1
38 592 1
38 611 1
38 612 1
38 620 1
38 667 1
38 668 1
39 106 1
39 113 1
39 133 1
39 134 1
39 162 1
39 174 1
39 210 1
39 229 1
39 230 1
39 237 1
39 238 1
39 258 1
39 270 1
39 286 1
39 325 1
39 326 1
39 333 1
39 381 1
39 586 1
39 593 1
39 594 1
39 613 1
39 614 1
39 622 1
39 669 1
39 670 1
40 108 1
40 115 1
40 135 1
40 136 1
40 164 1
40 176 1
40 212 1
40 231 1
40 232 1
40 239 1
40 240 1
40 260 1
40 272 1
40 288 1
40 327 1
40 328 1
40 335 1
40 383 1
40 588 1
40 595 1
40 596 1
40 615 1
40 616 1
40 624 1
40 671 1
40 672 1
41 110 1
41 117 1
41 137 1
41 138 1
41 166 1
41 178 1
41 194 1
41 214 1
41 233 1
41 234 1
41 241 1
41 242 1
41 262 1
41 274 1
41 289 1
41 329 1
41 330 1
41 337 1
41 577 1
41 578 1
41 590 1
41 597 1
41 598 1
41 617 1
41 618 1
41 626 1
42 112 1
42 119 1
42 139 1
42 140 1
42 168 1
42 180 1
42 196 1
42 216 1
42 235 1
42 236 1
42 243 1
42 244 1
42 264 1
42 276 1
42 291 1
42 331 1
42 332 1
42 339 1
42 579 1
42 580 1
42 592 1
42 599 1
42 600 1
42 619 1
42 620 1
42 628 1
43 114 1
43 121 1
43 141 1
43 142 1
43 170 1
43 182 1
43 198 1
43 218 1
43 237 1
43 238 1
43 245 1
43 246 1
43 266 1
43 278 1
43 293 1
43 333 1
43 334 1
43 341 1
43 581 1
43 582 1
43 594 1
43 601 1
43 602 1
43 621 1
43 622 1
43 630 1
44 116 1
44 123 1
44 143 1
44 144 1
44 172 1
44 184 1
44 200 1
44 220 1
44 239 1
44 240 1
44 247 1
44 248 1
44 268 1
44 280 1
44 295 1
44 335 1
44 336 1
44 343 1
44 583 1
44 584 1
44 596 1
44 603 1
44 604 1
44 623 1
44 624 1
44 632 1
45 118 1
45 125 1
45 145 1
45 146 1
45 174 1
45 186 1
45 202 1
45 222 1
45 241 1
45 242 1
45 249 1
45 250 1
45 270 1
45 282 1
45 297 1
45 337 1
45 338 1
45 345 1
45 585 1
45 586 1
45 598 1
45 605 1
45 606 1
45 625 1
45 626 1
45 634 1
46 120 1
46 127 1
46 147 1
46 148 1
46 176 1
46 188 1
46 204 1
46 224 1
46 243 1
46 244 1
46 251 1
46 252 1
46 272 1
46 284 1
46 299 1
46 339 1
46 340 1
46 347 1
46 587 1
46 588 1
46 600 1
46 607 1
46 608 1
46 627 1
46 628 1
46 636 1
47 122 1
47 129 1
47 149 1
47 150 1
47 178 1
47 190 1
47 206 1
47 226 1
47 245 1
47 246 1
47 253 1
47 254 1
47 274 1
47 286 1
47 301 1
47 341 1
47 342 1
47 349 1
47 589 1
47 590 1
47 602 1
47 609 1
47 610 1
47 629 1
47 630 1
47 638 1
48 124 1
48 131 1
48 151 1
48 152 1
48 180 1
48 192 1
48 208 1
48 228 1
48 247 1
48 248 1
48 255 1
48 256 1
48 276 1
48 288 1
48 303 1
48 343 1
48 344 1
48 351 1
48 591 1
48 592 1
48 604 1
48 611 1
48 612 1
48 631 1
48 632 1
48 640 1
49 97 1
49 98 1
49 125 1
49 126 1
49 134 1
49 153 1
49 181 1
49 182 1
49 193 1
49 194 1
49 209 1
49 210 1
49 229 1
49 230 1
49 249 1
49 257 1
49 277 1
49 278 1
49 306 1
49 345 1
49 354 1
49 593 1
49 605 1
49 606 1
49 613 1
49 633 1
49 641 1
49 642 1
50 99 1
50 100 1
50 127 1
50 128 1
50 136 1
50 155 1
50 183 1
50 184 1
50 195 1
50 196 1
50 211 1
50 212 1
50 231 1
50 232 1
50 251 1
50 259 1
50 279 1
50 280 1
50 308 1
50 347 1
50 356 1
50 595 1
50 607 1
50 608 1
50 615 1
50 635 1
50 643 1
50 644 1
51 101 1
51 102 1
51 129 1
51 130 1
51 138 1
51 157 1
51 185 1
51 186 1
51 197 1
51 198 1
51 213 1
51 214 1
51 233 1
51 234 1
51 253 1
51 261 1
51 281 1
51 282 1
51 310 1
51 349 1
51 358 1
51 597 1
51 609 1
51 610 1
51 617 1
51 637 1
51 645 1
51 646 1
52 103 1
52 104 1
52 131 1
52 132 1
52 140 1
52 159 1
52 187 1
52 188 1
52 199 1
52 200 1
52 215 1
52 216 1
52 235 1
52 236 1
52 255 1
52 263 1
52 283 1
52 284 1
52 312 1
52 351 1
52 360 1
52 599 1
52 611 1
52 612 1
52 619 1
52 639 1
52 647 1
52 648 1
53 105 1
53 106 1
53 133 1
53 134 1
53 142 1
53 161 1
53 189 1
53 190 1
53 201 1
53 202 1
53 217 1
53 218 1
53 237 1
53 238 1
53 257 1
53 265 1
53 285 1
53 286 1
53 314 1
53 353 1
53 362 1
53 601 1
53 613 1
53 614 1
53 621 1
53 641 1
53 649 1
53 650 1
54 107 1
54 108 1
54 135 1
54 136 1
54 144 1
54 163 1
54 191 1
54 192 1
54 203 1
54 204 1
54 219 1
54 220 1
54 239 1
54 240 1
54 259 1
54 267 1
54 287 1
54 288 1
54 316 1
54 355 1
54 364 1
54 603 1
54 615 1
54 616 1
54 623 1
54 643 1
54 651 1
54 652 1
55 97 1
55 98 1
55 109 1
55 110 1
55 137 1
55 138 1
55 146 1
55 165 1
55 193 1
55 194 1
55 205 1
55 206 1
55 221 1
55 222 1
55 241 1
55 242 1
55 261 1
55 269 1
55 318 1
55 357 1
55 366 1
55 605 1
55 617 1
55 618 1
55 625 1
55 645 1
55 653 1
55 654 1
56 99 1
56 100 1
56 111 1
56 112 1
56 139 1
56 140 1
56 148 1
56 167 1
56 195 1
56 196 1
56 207 1
56 208 1
56 223 1
56 224 1
56 243 1
56 244 1
56 263 1
56 271 1
56 320 1
56 359 1
56 368 1
56 607 1
56 619 1
56 620 1
56 627 1
56 647 1
56 655 1
56 656 1
57 101 1
57 102 1
57 113 1
57 114 1
57 141 1
57 142 1
57 150 1
57 169 1
57 197 1
57 198 1
57 209 1
57 210 1
57 225 1
57 226 1
57 245 1
57 246 1
57 265 1
57 273 1
57 322 1
57 361 1
57 370 1
57 609 1
57 621 1
57 622 1
57 629 1
57 649 1
57 657 1
57 658 1
58 103 1
58 104 1
58 115 1
58 116 1
58 143 1
58 144 1
58 152 1
58 171 1
58 199 1
58 200 1
58 211 1
58 212 1
58 227 1
58 228 1
58 247 1
58 248 1
58 267 1
58 275 1
58 324 1
58 363 1
58 372 1
58 611 1
58 623 1
58 624 1
58 631 1
58 651 1
58 659 1
58 660 1
59 105 1
59 106 1
59 117 1
59 118 1
59 145 1
59 146 1
59 154 1
59 173 1
59 201 1
59 202 1
59 213 1
59 214 1
59 229 1
59 230 1
59 249 1
59 250 1
59 269 1
59 277 1
59 326 1
59 365 1
59 374 1
59 613 1
59 625 1
59 626 1
59 633 1
59 653 1
59 661 1
59 662 1
60 107 1
60 108 1
60 119 1
60 120 1
60 147 1
60 148 1
60 156 1
60 175 1
60 203 1
60 204 1
60 215 1
60 216 1
60 231 1
60 232 1
60 251 1
60 252 1
60 271 1
60 279 1
60 328 1
60 367 1
60 376 1
60 615 1
60 627 1
60 628 1
60 635 1
60 655 1
60 663 1
60 664 1
61 109 1
61 110 1
61 121 1
61 122 1
61 149 1
61 150 1
61 158 1
61 177 1
61 205 1
61 206 1
61 217 1
61 218 1
61 233 1
61 234 1
61 253 1
61 254 1
61 273 1
61 281 1
61 330 1
61 369 1
61 378 1
61 617 1
61 629 1
61 630 1
61 637 1
61 657 1
61 665 1
61 666 1
62 111 1
62 112 1
62 123 1
62 124 1
62 151 1
62 152 1
62 160 1
62 179 1
62 207 1
62 208 1
62 219 1
62 220 1
62 235 1
62 236 1
62 255 1
62 256 1
62 275 1
62 283 1
62 332 1
62 371 1
62 380 1
62 619 1
62 631 1
62 632 1
62 639 1
62 659 1
62 667 1
62 668 1
63 113 1
63 114 1
63 125 1
63 126 1
63 153 1
63 154 1
63 162 1
63 181 1
63 209 1
63 210 1
63 221 1
63 222 1
63 237 1
63 238 1
63 257 1
63 258 1
63 277 1
63 285 1
63 334 1
63 373 1
63 382 1
63 621 1
63 633 1
63 634 1
63 641 1
63 661 1
63 669 1
63 670 1
64 115 1
64 116 1
64 127 1
64 128 1
64 155 1
64 156 1
64 164 1
64 183 1
64 211 1
64 212 1
64 223 1
64 224 1
64 239 1
64 240 1
64 259 1
64 260 1
64 279 1
64 287 1
64 336 1
64 375 1
64 384 1
64 623 1
64 635 1
64 636 1
64 643 1
64 663 1
64 671 1
64 672 1
65 117 1
65 118 1
65 129 1
65 130 1
65 157 1
65 158 1
65 166 1
65 185 1
65 193 1
65 213 1
65 214 1
65 225 1
65 226 1
65 241 1
65 242 1
65 261 1
65 262 1
65 281 1
65 290 1
65 338 1
65 377 1
65 577 1
65 578 1
65 625 1
65 637 1
65 638 1
65 645 1
65 665 1
66 119 1
66 120 1
66 131 1
66 132 1
66 159 1
66 160 1
66 168 1
66 187 1
66 195 1
66 215 1
66 216 1
66 227 1
66 228 1
66 243 1
66 244 1
66 263 1
66 264 1
66 283 1
66 292 1
66 340 1
66 379 1
66 579 1
66 580 1
66 627 1
66 639 1
66 640 1
66 647 1
66 667 1
67 121 1
67 122 1
67 133 1
67 134 1
67 161 1
67 162 1
67 170 1
67 189 1
67 197 1
67 217 1
67 218 1
67 229 1
67 230 1
67 245 1
67 246 1
67 265 1
67 266 1
67 285 1
67 294 1
67 342 1
67 381 1
67 581 1
67 582 1
67 629 1
67 641 1
67 642 1
67 649 1
67 669 1
68 123 1
68 124 1
68 135 1
68 136 1
68 163 1
68 164 1
68 172 1
68 191 1
68 199 1
68 219 1
68 220 1
68 231 1
68 232 1
68 247 1
68 248 1
68 267 1
68 268 1
68 287 1
68 296 1
68 344 1
68 383 1
68 583 1
68 584 1
68 631 1
68 643 1
68 644 1
68 651 1
68 671 1
69 97 1
69 125 1
69 126 1
69 137 1
69 138 1
69 165 1
69 166 1
69 174 1
69 193 1
69 201 1
69 221 1
69 222 1
69 233 1
69 234 1
69 249 1
69 250 1
69 269 1
69 270 1
69 289 1
69 298 1
69 346 1
69 577 1
69 585 1
69 586 1
69 633 1
69 645 1
69 646 1
69 653 1
70 99 1
70 127 1
70 128 1
70 139 1
70 140 1
70 167 1
70 168 1
70 176 1
70 195 1
70 203 1
70 223 1
70 224 1
70 235 1
70 236 1
70 251 1
70 252 1
70 271 1
70 272 1
70 291 1
70 300 1
70 348 1
70 579 1
70 587 1
70 588 1
70 635 1
70 647 1
70 648 1
70 655 1
71 101 1
71 129 1
71 130 1
71 141 1
71 142 1
71 169 1
71 170 1
71 178 1
71 197 1
71 205 1
71 225 1
71 226 1
71 237 1
71 238 1
71 253 1
71 254 1
71 273 1
71 274 1
71 293 1
71 302 1
71 350 1
71 581 1
71 589 1
71 590 1
71 637 1
71 649 1
71 650 1
71 657 1
72 103 1
72 131 1
72 132 1
72 143 1
72 144 1
72 171 1
72 172 1
72 180 1
72 199 1
72 207 1
72 227 1
72 228 1
72 239 1
72 240 1
72 255 1
72 256 1
72 275 1
72 276 1
72 295 1
72 304 1
72 352 1
72 583 1
72 591 1
72 592 1
72 639 1
72 651 1
72 652 1
72 659 1
73 105 1
73 133 1
73 134 1
73 145 1
73 146 1
73 173 1
73 174 1
73 182 1
73 201 1
73 209 1
73 229 1
73 230 1
73 241 1
73 242 1
73 257 1
73 258 1
73 277 1
73 278 1
73 297 1
73 306 1
73 354 1
73 585 1
73 593 1
73 594 1
73 641 1
73 653 1
73 654 1
73 661 1
74 107 1
74 135 1
74 136 1
74 147 1
74 148 1
74 175 1
74 176 1
74 184 1
74 203 1
74 211 1
74 231 1
74 232 1
74 243 1
74 244 1
74 259 1
74 260 1
74 279 1
74 280 1
74 299 1
74 308 1
74 356 1
74 587 1
74 595 1
74 596 1
74 643 1
74 655 1
74 656 1
74 663 1
75 109 1
75 137 1
75 138 1
75 149 1
75 150 1
75 177 1
75 178 1
75 186 1
75 205 1
75 213 1
75 233 1
75 234 1
75 245 1
75 246 1
75 261 1
75 262 1
75 281 1
75 282 1
75 301 1
75 310 1
75 358 1
75 589 1
75 597 1
75 598 1
75 645 1
75 657 1
75 658 1
75 665 1
76 111 1
76 139 1
76 140 1
76 151 1
76 152 1
76 179 1
76 180 1
76 188 1
76 207 1
76 215 1
76 235 1
76 236 1
76 247 1
76 248 1
76 263 1
76 264 1
76 283 1
76 284 1
76 303 1
76 312 1
76 360 1
76 591 1
76 599 1
76 600 1
76 647 1
76 659 1
76 660 1
76 667 1
77 113 1
77 141 1
77 142 1
77 153 1
77 154 1
77 181 1
77 182 1
77 190 1
77 209 1
77 217 1
77 237 1
77 238 1
77 249 1
77 250 1
77 265 1
77 266 1
77 285 1
77 286 1
77 305 1
77 314 1
77 362 1
77 593 1
77 601 1
77 602 1
77 649 1
77 661 1
77 662 1
77 669 1
78 115 1
78 143 1
78 144 1
78 155 1
78 156 1
78 183 1
78 184 1
78 192 1
78 211 1
78 219 1
78 239 1
78 240 1
78 251 1
78 252 1
78 267 1
78 268 1
78 287 1
78 288 1
78 307 1
78 316 1
78 364 1
78 595 1
78 603 1
78 604 1
78 651 1
78 663 1
78 664 1
78 671 1
79 98 1
79 117 1
79 145 1
79 146 1
79 157 1
79 158 1
79 185 1
79 186 1
79 193 1
79 194 1
79 213 1
79 221 1
79 241 1
79 242 1
79 253 1
79 254 1
79 269 1
79 270 1
79 309 1
79 318 1
79 366 1
79 577 1
79 597 1
79 605 1
79 606 1
79 653 1
79 665 1
79 666 1
80 100 1
80 119 1
80 147 1
80 148 1
80 159 1
80 160 1
80 187 1
80 188 1
80 195 1
80 196 1
80 215 1
80 223 1
80 243 1
80 244 1
80 255 1
80 256 1
80 271 1
80 272 1
80 311 1
80 320 1
80 368 1
80 579 1
80 599 1
80 607 1
80 608 1
80 655 1
80 667 1
80 668 1
81 102 1
81 121 1
81 149 1
81 150 1
81 161 1
81 162 1
81 189 1
81 190 1
81 197 1
81 198 1
81 217 1
81 225 1
81 245 1
81 246 1
81 257 1
81 258 1
81 273 1
81 274 1
81 313 1
81 322 1
81 370 1
81 581 1
81 601 1
81 609 1
81 610 1
81 657 1
81 669 1
81 670 1
82 104 1
82 123 1
82 151 1
82 152 1
82 163 1
82 164 1
82 191 1
82 192 1
82 199 1
82 200 1
82 219 1
82 227 1
82 247 1
82 248 1
82 259 1
82 260 1
82 275 1
82 276 1
82 315 1
82 324 1
82 372 1
82 583 1
82 603 1
82 611 1
82 612 1
82 659 1
82 671 1
82 672 1
83 97 1
83 98 1
83 106 1
83 125 1
83 153 1
83 154 1
83 165 1
83 166 1
83 201 1
83 202 1
83 221 1
83 229 1
83 249 1
83 250 1
83 261 1
83 262 1
83 277 1
83 278 1
83 317 1
83 326 1
83 374 1
83 577 1
83 578 1
83 585 1
83 605 1
83 613 1
83 614 1
83 661 1
84 99 1
84 100 1
84 108 1
84 127 1
84 155 1
84 156 1
84 167 1
84 168 1
84 203 1
84 204 1
84 223 1
84 231 1
84 251 1
84 252 1
84 263 1
84 264 1
84 279 1
84 280 1
84 319 1
84 328 1
84 376 1
84 579 1
84 580 1
84 587 1
84 607 1
84 615 1
84 616 1
84 663 1
85 101 1
85 102 1
85 110 1
85 129 1
85 157 1
85 158 1
85 169 1
85 170 1
85 205 1
85 206 1
85 225 1
85 233 1
85 253 1
85 254 1
85 265 1
85 266 1
85 281 1
85 282 1
85 321 1
85 330 1
85 378 1
85 581 1
85 582 1
85 589 1
85 609 1
85 617 1
85 618 1
85 665 1
86 103 1
86 104 1
86 112 1
86 131 1
86 159 1
86 160 1
86 171 1
86 172 1
86 207 1
86 208 1
86 227 1
86 235 1
86 255 1
86 256 1
86 267 1
86 268 1
86 283 1
86 284 1
86 323 1
86 332 1
86 380 1
86 583 1
86 584 1
86 591 1
86 611 1
86 619 1
86 620 1
86 667 1
87 105 1
87 106 1
87 114 1
87 133 1
87 161 1
87 162 1
87 173 1
87 174 1
87 209 1
87 210 1
87 229 1
87 237 1
87 257 1
87 258 1
87 269 1
87 270 1
87 285 1
87 286 1
87 325 1
87 334 1
87 382 1
87 585 1
87 586 1
87 593 1
87 613 1
87 621 1
87 622 1
87 669 1
88 107 1
88 108 1
88 116 1
88 135 1
88 163 1
88 164 1
88 175 1
88 176 1
88 211 1
88 212 1
88 231 1
88 239 1
88 259 1
88 260 1
88 271 1
88 272 1
88 287 1
88 288 1
88 327 1
88 336 1
88 384 1
88 587 1
88 588 1
88 595 1
88 615 1
88 623 1
88 624 1
88 671 1
89 109 1
89 110 1
89 118 1
89 137 1
89 165 1
89 166 1
89 177 1
89 178 1
89 193 1
89 194 1
89 213 1
89 214 1
89 233 1
89 241 1
89 261 1
89 262 1
89 273 1
89 274 1
89 290 1
89 329 1
89 338 1
89 577 1
89 589 1
89 590 1
89 597 1
89 617 1
89 625 1
89 626 1
90 111 1
90 112 1
90 120 1
90 139 1
90 167 1
90 168 1
90 179 1
90 180 1
90 195 1
90 196 1
90 215 1
90 216 1
90 235 1
90 243 1
90 263 1
90 264 1
90 275 1
90 276 1
90 292 1
90 331 1
90 340 1
90 579 1
90 591 1
90 592 1
90 599 1
90 619 1
90 627 1
90 628 1
91 113 1
91 114 1
91 122 1
91 141 1
91 169 1
91 170 1
91 181 1
91 182 1
91 197 1
91 198 1
91 217 1
91 218 1
91 237 1
91 245 1
91 265 1
91 266 1
91 277 1
91 278 1
91 294 1
91 333 1
91 342 1
91 581 1
91 593 1
91 594 1
91 601 1
91 621 1
91 629 1
91 630 1
92 115 1
92 116 1
92 124 1
92 143 1
92 171 1
92 172 1
92 183 1
92 184 1
92 199 1
92 200 1
92 219 1
92 220 1
92 239 1
92 247 1
92 267 1
92 268 1
92 279 1
92 280 1
92 296 1
92 335 1
92 344 1
92 583 1
92 595 1
92 596 1
92 603 1
92 623 1
92 631 1
92 632 1
93 117 1
93 118 1
93 126 1
93 145 1
93 173 1
93 174 1
93 185 1
93 186 1
93 201 1
93 202 1
93 221 1
93 222 1
93 241 1
93 249 1
93 269 1
93 270 1
93 281 1
93 282 1
93 298 1
93 337 1
93 346 1
93 585 1
93 597 1
93 598 1
93 605 1
93 625 1
93 633 1
93 634 1
94 119 1
94 120 1
94 128 1
94 147 1
94 175 1
94 176 1
94 187 1
94 188 1
94 203 1
94 204 1
94 223 1
94 224 1
94 243 1
94 251 1
94 271 1
94 272 1
94 283 1
94 284 1
94 300 1
94 339 1
94 348 1
94 587 1
94 599 1
94 600 1
94 607 1
94 627 1
94 635 1
94 636 1
95 121 1
95 122 1
95 130 1
95 149 1
95 177 1
95 178 1
95 189 1
95 190 1
95 205 1
95 206 1
95 225 1
95 226 1
95 245 1
95 253 1
95 273 1
95 274 1
95 285 1
95 286 1
95 302 1
95 341 1
95 350 1
95 589 1
95 601 1
95 602 1
95 609 1
95 629 1
95 637 1
95 638 1
96 123 1
96 124 1
96 132 1
96 151 1
96 179 1
96 180 1
96 191 1
96 192 1
96 207 1
96 208 1
96 227 1
96 228 1
96 247 1
96 255 1
96 275 1
96 276 1
96 287 1
96 288 1
96 304 1
96 343 1
96 352 1
96 591 1
96 603 1
96 604 1
96 611 1
96 631 1
96 639 1
96 640 1
97 133 1
97 135 1
97 145 1
97 154 1
97 173 1
97 184 1
97 202 1
97 229 1
97 231 1
97 241 1
97 258 1
97 259 1
97 586 1
97 593 1
97 594 1
97 641 1
97 643 1
97 653 1
97 664 1
97 689 1
97 690 1
97 730 1
97 737 1
97 738 1
98 135 1
98 137 1
98 147 1
98 156 1
98 175 1
98 186 1
98 204 1
98 231 1
98 233 1
98 243 1
98 260 1
98 261 1
98 588 1
98 595 1
98 596 1
98 643 1
98 645 1
98 655 1
98 666 1
98 691 1
98 692 1
98 732 1
98 739 1
98 740 1
99 137 1
99 139 1
99 149 1
99 158 1
99 177 1
99 188 1
99 206 1
99 233 1
99 235 1
99 245 1
99 262 1
99 263 1
99 590 1
99 597 1
99 598 1
99 645 1
99 647 1
99 657 1
99 668 1
99 693 1
99 694 1
99 734 1
99 741 1
99 742 1
100 139 1
100 141 1
100 151 1
100 160 1
100 179 1
100 190 1
100 208 1
100 235 1
100 237 1
100 247 1
100 264 1
100 265 1
100 592 1
100 599 1
100 600 1
100 647 1
100 649 1
100 659 1
100 670 1
100 695 1
100 696 1
100 736 1
100 743 1
100 744 1
101 141 1
101 143 1
101 153 1
101 162 1
101 181 1
101 192 1
101 210 1
101 237 1
101 239 1
101 249 1
101 266 1
101 267 1
101 594 1
101 601 1
101 602 1
101 649 1
101 651 1
101 661 1
101 672 1
101 697 1
101 698 1
101 738 1
101 745 1
101 746 1
102 98 1
102 143 1
102 145 1
102 155 1
102 164 1
102 183 1
102 212 1
102 239 1
102 241 1
102 251 1
102 268 1
102 269 1
102 578 1
102 596 1
102 603 1
102 604 1
102 651 1
102 653 1
102 663 1
102 699 1
102 700 1
102 740 1
102 747 1
102 748 1
103 100 1
103 145 1
103 147 1
103 157 1
103 166 1
103 185 1
103 214 1
103 241 1
103 243 1
103 253 1
103 270 1
103 271 1
103 580 1
103 598 1
103 605 1
103 606 1
103 653 1
103 655 1
103 665 1
103 701 1
103 702 1
103 742 1
103 749 1
103 750 1
104 102 1
104 147 1
104 149 1
104 159 1
104 168 1
104 187 1
104 216 1
104 243 1
104 245 1
104 255 1
104 272 1
104 273 1
104 582 1
104 600 1
104 607 1
104 608 1
104 655 1
104 657 1
104 667 1
104 703 1
104 704 1
104 744 1
104 751 1
104 752 1
105 104 1
105 149 1
105 151 1
105 161 1
105 170 1
105 189 1
105 218 1
105 245 1
105 247 1
105 257 1
105 274 1
105 275 1
105 584 1
105 602 1
105 609 1
105 610 1
105 657 1
105 659 1
105 669 1
105 705 1
105 706 1
105 746 1
105 753 1
105 754 1
106 106 1
106 151 1
106 153 1
106 163 1
106 172 1
106 191 1
106 220 1
106 247 1
106 249 1
106 259 1
106 276 1
106 277 1
106 586 1
106 604 1
106 611 1
106 612 1
106 659 1
106 661 1
106 671 1
106 707 1
106 708 1
106 748 1
106 755 1
106 756 1
107 97 1
107 108 1
107 153 1
107 155 1
107 165 1
107 174 1
107 222 1
107 249 1
107 251 1
107 261 1
107 278 1
107 279 1
107 577 1
107 588 1
107 606 1
107 613 1
107 614 1
107 661 1
107 663 1
107 709 1
107 710 1
107 750 1
107 757 1
107 758 1
108 99 1
108 110 1
108 155 1
108 157 1
108 167 1
108 176 1
108 224 1
108 251 1
108 253 1
108 263 1
108 280 1
108 281 1
108 579 1
108 590 1
108 608 1
108 615 1
108 616 1
108 663 1
108 665 1
108 711 1
108 712 1
108 752 1
108 759 1
108 760 1
109 101 1
109 112 1
109 157 1
109 159 1
109 169 1
109 178 1
109 226 1
109 253 1
109 255 1
109 265 1
109 282 1
109 283 1
109 581 1
109 592 1
109 610 1
109 617 1
109 618 1
109 665 1
109 667 1
109 713 1
109 714 1
109 754 1
109 761 1
109 762 1
110 103 1
110 114 1
110 159 1
110 161 1
110 171 1
110 180 1
110 228 1
110 255 1
110 257 1
110 267 1
110 284 1
110 285 1
110 583 1
110 594 1
110 612 1
110 619 1
110 620 1
110 667 1
110 669 1
110 715 1
110 716 1
110 756 1
110 763 1
110 764 1
111 105 1
111 116 1
111 161 1
111 163 1
111 173 1
111 182 1
111 230 1
111 257 1
111 259 1
111 269 1
111 286 1
111 287 1
111 585 1
111 596 1
111 614 1
111 621 1
111 622 1
111 669 1
111 671 1
111 717 1
111 718 1
111 758 1
111 765 1
111 766 1
112 107 1
112 118 1
112 163 1
112 165 1
112 175 1
112 184 1
112 193 1
112 232 1
112 259 1
112 261 1
112 271 1
112 288 1
112 577 1
112 587 1
112 598 1
112 616 1
112 623 1
112 624 1
112 671 1
112 719 1
112 720 1
112 760 1
112 767 1
112 768 1
113 109 1
113 120 1
113 165 1
113 167 1
113 177 1
113 186 1
113 194 1
113 195 1
113 234 1
113 261 1
113 263 1
113 273 1
113 577 1
113 579 1
113 589 1
113 600 1
113 618 1
113 625 1
113 626 1
113 673 1
113 674 1
113 721 1
113 722 1
113 762 1
114 111 1
114 122 1
114 167 1
114 169 1
114 179 1
114 188 1
114 196 1
114 197 1
114 236 1
114 263 1
114 265 1
114 275 1
114 579 1
114 581 1
114 591 1
114 602 1
114 620 1
114 627 1
114 628 1
114 675 1
114 676 1
114 723 1
114 724 1
114 764 1
115 113 1
115 124 1
115 169 1
115 171 1
115 181 1
115 190 1
115 198 1
115 199 1
115 238 1
115 265 1
115 267 1
115 277 1
115 581 1
115 583 1
115 593 1
115 604 1
115 622 1
115 629 1
115 630 1
115 677 1
115 678 1
115 725 1
115 726 1
115 766 1
116 115 1
116 126 1
116 171 1
116 173 1
116 183 1
116 192 1
116 200 1
116 201 1
116 240 1
116 267 1
116 269 1
116 279 1
116 583 1
116 585 1
116 595 1
116 606 1
116 624 1
116 631 1
116 632 1
116 679 1
116 680 1
116 727 1
116 728 1
116 768 1
117 98 1
117 117 1
117 128 1
117 173 1
117 175 1
117 185 1
117 202 1
117 203 1
117 242 1
117 269 1
117 271 1
117 281 1
117 585 1
117 587 1
117 597 1
117 608 1
117 626 1
117 633 1
117 634 1
117 674 1
117 681 1
117 682 1
117 729 1
117 730 1
118 100 1
118 119 1
118 130 1
118 175 1
118 177 1
118 187 1
118 204 1
118 205 1
118 244 1
118 271 1
118 273 1
118 283 1
118 587 1
118 589 1
118 599 1
118 610 1
118 628 1
118 635 1
118 636 1
118 676 1
118 683 1
118 684 1
118 731 1
118 732 1
119 102 1
119 121 1
119 132 1
119 177 1
119 179 1
119 189 1
119 206 1
119 207 1
119 246 1
119 273 1
119 275 1
119 285 1
119 589 1
119 591 1
119 601 1
119 612 1
119 630 1
119 637 1
119 638 1
119 678 1
119 685 1
119 686 1
119 733 1
119 734 1
120 104 1
120 123 1
120 134 1
120 179 1
120 181 1
120 191 1
120 208 1
120 209 1
120 248 1
120 275 1
120 277 1
120 287 1
120 591 1
120 593 1
120 603 1
120 614 1
120 632 1
120 639 1
120 640 1
120 680 1
120 687 1
120 688 1
120 735 1
120 736 1
121 97 1
121 106 1
121 125 1
121 136 1
121 181 1
121 183 1
121 193 1
121 210 1
121 211 1
121 250 1
121 277 1
121 279 1
121 593 1
121 595 1
121 605 1
121 616 1
121 634 1
121 641 1
121 642 1
121 682 1
121 689 1
121 690 1
121 737 1
121 738 1
122 99 1
122 108 1
122 127 1
122 138 1
122 183 1
122 185 1
122 195 1
122 212 1
122 213 1
122 252 1
122 279 1
122 281 1
122 595 1
122 597 1
122 607 1
122 618 1
122 636 1
122 643 1
122 644 1
122 684 1
122 691 1
122 692 1
122 739 1
122 740 1
123 101 1
123 110 1
123 129 1
123 140 1
123 185 1
123 187 1
123 197 1
123 214 1
123 215 1
123 254 1
123 281 1
123 283 1
123 597 1
123 599 1
123 609 1
123 620 1
123 638 1
123 645 1
123 646 1
123 686 1
123 693 1
123 694 1
123 741 1
123 742 1
124 103 1
124 112 1
124 131 1
124 142 1
124 187 1
124 189 1
124 199 1
124 216 1
124 217 1
124 256 1
124 283 1
124 285 1
124 599 1
124 601 1
124 611 1
124 622 1
124 640 1
124 647 1
124 648 1
124 688 1
124 695 1
124 696 1
124 743 1
124 744 1
125 105 1
125 114 1
125 133 1
125 144 1
125 189 1
125 191 1
125 201 1
125 218 1
125 219 1
125 258 1
125 285 1
125 287 1
125 601 1
125 603 1
125 613 1
125 624 1
125 642 1
125 649 1
125 650 1
125 690 1
125 697 1
125 698 1
125 745 1
125 746 1
126 97 1
126 107 1
126 116 1
126 135 1
126 146 1
126 191 1
126 193 1
126 203 1
126 220 1
126 221 1
126 260 1
126 287 1
126 603 1
126 605 1
126 615 1
126 626 1
126 644 1
126 651 1
126 652 1
126 692 1
126 699 1
126 700 1
126 747 1
126 748 1
127 97 1
127 99 1
127 109 1
127 118 1
127 137 1
127 148 1
127 193 1
127 195 1
127 205 1
127 222 1
127 223 1
127 262 1
127 605 1
127 607 1
127 617 1
127 628 1
127 646 1
127 653 1
127 654 1
127 694 1
127 701 1
127 702 1
127 749 1
127 750 1
128 99 1
128 101 1
128 111 1
128 120 1
128 139 1
128 150 1
128 195 1
128 197 1
128 207 1
128 224 1
128 225 1
128 264 1
128 607 1
128 609 1
128 619 1
128 630 1
128 648 1
128 655 1
128 656 1
128 696 1
128 703 1
128 704 1
128 751 1
128 752 1
129 101 1
129 103 1
129 113 1
129 122 1
129 141 1
129 152 1
129 197 1
129 199 1
129 209 1
129 226 1
129 227 1
129 266 1
129 609 1
129 611 1
129 621 1
129 632 1
129 650 1
129 657 1
129 658 1
129 698 1
129 705 1
129 706 1
129 753 1
129 754 1
130 103 1
130 105 1
130 115 1
130 124 1
130 143 1
130 154 1
130 199 1
130 201 1
130 211 1
130 228 1
130 229 1
130 268 1
130 611 1
130 613 1
130 623 1
130 634 1
130 652 1
130 659 1
130 660 1
130 700 1
130 707 1
130 708 1
130 755 1
130 756 1
131 105 1
131 107 1
131 117 1
131 126 1
131 145 1
131 156 1
131 201 1
131 203 1
131 213 1
131 230 1
131 231 1
131 270 1
131 613 1
131 615 1
131 625 1
131 636 1
131 654 1
131 661 1
131 662 1
131 702 1
131 709 1
131 710 1
131 757 1
131 758 1
132 107 1
132 109 1
132 119 1
132 128 1
132 147 1
132 158 1
132 203 1
132 205 1
132 215 1
132 232 1
132 233 1
132 272 1
132 615 1
132 617 1
132 627 1
132 638 1
132 656 1
132 663 1
132 664 1
132 704 1
132 711 1
132 712 1
132 759 1
132 760 1
133 109 1
133 111 1
133 121 1
133 130 1
133 149 1
133 160 1
133 205 1
133 207 1
133 217 1
133 234 1
133 235 1
133 274 1
133 617 1
133 619 1
133 629 1
133 640 1
133 658 1
133 665 1
133 666 1
133 706 1
133 713 1
133 714 1
133 761 1
133 762 1
134 111 1
134 113 1
134 123 1
134 132 1
134 151 1
134 162 1
134 207 1
134 209 1
134 219 1
134 236 1
134 237 1
134 276 1
134 619 1
134 621 1
134 631 1
134 642 1
134 660 1
134 667 1
134 668 1
134 708 1
134 715 1
134 716 1
134 763 1
134 764 1
135 113 1
135 115 1
135 125 1
135 134 1
135 153 1
135 164 1
135 209 1
135 211 1
135 221 1
135 238 1
135 239 1
135 278 1
135 621 1
135 623 1
135 633 1
135 644 1
135 662 1
135 669 1
135 670 1
135 710 1
135 717 1
135 718 1
135 765 1
135 766 1
136 115 1
136 117 1
136 127 1
136 136 1
136 155 1
136 166 1
136 211 1
136 213 1
136 223 1
136 240 1
136 241 1
136 280 1
136 623 1
136 625 1
136 635 1
136 646 1
136 664 1
136 671 1
136 672 1
136 712 1
136 719 1
136 720 1
136 767 1
136 768 1
137 117 1
137 119 1
137 129 1
137 138 1
137 157 1
137 168 1
137 213 1
137 215 1
137 225 1
137 242 1
137 243 1
137 282 1
137 577 1
137 578 1
137 625 1
137 627 1
137 637 1
137 648 1
137 666 1
137 673 1
137 674 1
137 714 1
137 721 1
137 722 1
138 119 1
138 121 1
138 131 1
138 140 1
138 159 1
138 170 1
138 215 1
138 217 1
138 227 1
138 244 1
138 245 1
138 284 1
138 579 1
138 580 1
138 627 1
138 629 1
138 639 1
138 650 1
138 668 1
138 675 1
138 676 1
138 716 1
138 723 1
138 724 1
139 121 1
139 123 1
139 133 1
139 142 1
139 161 1
139 172 1
139 217 1
139 219 1
139 229 1
139 246 1
139 247 1
139 286 1
139 581 1
139 582 1
139 629 1
139 631 1
139 641 1
139 652 1
139 670 1
139 677 1
139 678 1
139 718 1
139 725 1
139 726 1
140 123 1
140 125 1
140 135 1
140 144 1
140 163 1
140 174 1
140 219 1
140 221 1
140 231 1
140 248 1
140 249 1
140 288 1
140 583 1
140 584 1
140 631 1
140 633 1
140 643 1
140 654 1
140 672 1
140 679 1
140 680 1
140 720 1
140 727 1
140 728 1
141 125 1
141 127 1
141 137 1
141 146 1
141 165 1
141 176 1
141 194 1
141 221 1
141 223 1
141 233 1
141 250 1
141 251 1
141 578 1
141 585 1
141 586 1
141 633 1
141 635 1
141 645 1
141 656 1
141 681 1
141 682 1
141 722 1
141 729 1
141 730 1
142 127 1
142 129 1
142 139 1
142 148 1
142 167 1
142 178 1
142 196 1
142 223 1
142 225 1
142 235 1
142 252 1
142 253 1
142 580 1
142 587 1
142 588 1
142 635 1
142 637 1
142 647 1
142 658 1
142 683 1
142 684 1
142 724 1
142 731 1
142 732 1
143 129 1
143 131 1
143 141 1
143 150 1
143 169 1
143 180 1
143 198 1
143 225 1
143 227 1
143 237 1
143 254 1
143 255 1
143 582 1
143 589 1
143 590 1
143 637 1
143 639 1
143 649 1
143 660 1
143 685 1
143 686 1
143 726 1
143 733 1
143 734 1
144 131 1
144 133 1
144 143 1
144 152 1
144 171 1
144 182 1
144 200 1
144 227 1
144 229 1
144 239 1
144 256 1
144 257 1
144 584 1
144 591 1
144 592 1
144 639 1
144 641 1
144 651 1
144 662 1
144 687 1
144 688 1
144 728 1
144 735 1
144 736 1
145 134 1
145 136 1
145 146 1
145 153 1
145 154 1
145 174 1
145 183 1
145 184 1
145 201 1
145 202 1
145 230 1
145 232 1
145 242 1
145 257 1
145 258 1
145 260 1
145 585 1
145 586 1
145 593 1
145 642 1
145 644 1
145 654 1
145 663 1
145 664 1
145 689 1
145 729 1
145 730 1
145 737 1
146 136 1
146 138 1
146 148 1
146 155 1
146 156 1
146 176 1
146 185 1
146 186 1
146 203 1
146 204 1
146 232 1
146 234 1
146 244 1
146 259 1
146 260 1
146 262 1
146 587 1
146 588 1
146 595 1
146 644 1
146 646 1
146 656 1
146 665 1
146 666 1
146 691 1
146 731 1
146 732 1
146 739 1
147 138 1
147 140 1
147 150 1
147 157 1
147 158 1
147 178 1
147 187 1
147 188 1
147 205 1
147 206 1
147 234 1
147 236 1
147 246 1
147 261 1
147 262 1
147 264 1
147 589 1
147 590 1
147 597 1
147 646 1
147 648 1
147 658 1
147 667 1
147 668 1
147 693 1
147 733 1
147 734 1
147 741 1
148 140 1
148 142 1
148 152 1
148 159 1
148 160 1
148 180 1
148 189 1
148 190 1
148 207 1
148 208 1
148 236 1
148 238 1
148 248 1
148 263 1
148 264 1
148 266 1
148 591 1
148 592 1
148 599 1
148 648 1
148 650 1
148 660 1
148 669 1
148 670 1
148 695 1
148 735 1
148 736 1
148 743 1
149 142 1
149 144 1
149 154 1
149 161 1
149 162 1
149 182 1
149 191 1
149 192 1
149 209 1
149 210 1
149 238 1
149 240 1
149 250 1
149 265 1
149 266 1
149 268 1
149 593 1
149 594 1
149 601 1
149 650 1
149 652 1
149 662 1
149 671 1
149 672 1
149 697 1
149 737 1
149 738 1
149 745 1
150 97 1
150 98 1
150 144 1
150 146 1
150 156 1
150 163 1
150 164 1
150 184 1
150 211 1
150 212 1
150 240 1
150 242 1
150 252 1
150 267 1
150 268 1
150 270 1
150 577 1
150 578 1
150 595 1
150 596 1
150 603 1
150 652 1
150 654 1
150 664 1
150 699 1
150 739 1
150 740 1
150 747 1
151 99 1
151 100 1
151 146 1
151 148 1
151 158 1
151 165 1
151 166 1
151 186 1
151 213 1
151 214 1
151 242 1
151 244 1
151 254 1
151 269 1
151 270 1
151 272 1
151 579 1
151 580 1
151 597 1
151 598 1
151 605 1
151 654 1
151 656 1
151 666 1
151 701 1
151 741 1
151 742 1
151 749 1
152 101 1
152 102 1
152 148 1
152 150 1
152 160 1
152 167 1
152 168 1
152 188 1
152 215 1
152 216 1
152 244 1
152 246 1
152 256 1
152 271 1
152 272 1
152 274 1
152 581 1
152 582 1
152 599 1
152 600 1
152 607 1
152 656 1
152 658 1
152 668 1
152 703 1
152 743 1
152 744 1
152 751 1
153 103 1
153 104 1
153 150 1
153 152 1
153 162 1
153 169 1
153 170 1
153 190 1
153 217 1
153 218 1
153 246 1
153 248 1
153 258 1
153 273 1
153 274 1
153 276 1
153 583 1
153 584 1
153 601 1
153 602 1
153 609 1
153 658 1
153 660 1
153 670 1
153 705 1
153 745 1
153 746 1
153 753 1
154 105 1
154 106 1
154 152 1
154 154 1
154 164 1
154 171 1
154 172 1
154 192 1
154 219 1
154 220 1
154 248 1
154 250 1
154 260 1
154 275 1
154 276 1
154 278 1
154 585 1
154 586 1
154 603 1
154 604 1
154 611 1
154 660 1
154 662 1
154 672 1
154 707 1
154 747 1
154 748 1
154 755 1
155 98 1
155 107 1
155 108 1
155 154 1
155 156 1
155 166 1
155 173 1
155 174 1
155 221 1
155 222 1
155 250 1
155 252 1
155 262 1
155 277 1
155 278 1
155 280 1
155 578 1
155 587 1
155 588 1
155 605 1
155 606 1
155 613 1
155 662 1
155 664 1
155 709 1
155 749 1
155 750 1
155 757 1
156 100 1
156 109 1
156 110 1
156 156 1
156 158 1
156 168 1
156 175 1
156 176 1
156 223 1
156 224 1
156 252 1
156 254 1
156 264 1
156 279 1
156 280 1
156 282 1
156 580 1
156 589 1
156 590 1
156 607 1
156 608 1
156 615 1
156 664 1
156 666 1
156 711 1
156 751 1
156 752 1
156 759 1
157 102 1
157 111 1
157 112 1
157 158 1
157 160 1
157 170 1
157 177 1
157 178 1
157 225 1
157 226 1
157 254 1
157 256 1
157 266 1
157 281 1
157 282 1
157 284 1
157 582 1
157 591 1
157 592 1
157 609 1
157 610 1
157 617 1
157 666 1
157 668 1
157 713 1
157 753 1
157 754 1
157 761 1
158 104 1
158 113 1
158 114 1
158 160 1
158 162 1
158 172 1
158 179 1
158 180 1
158 227 1
158 228 1
158 256 1
158 258 1
158 268 1
158 283 1
158 284 1
158 286 1
158 584 1
158 593 1
158 594 1
158 611 1
158 612 1
158 619 1
158 668 1
158 670 1
158 715 1
158 755 1
158 756 1
158 763 1
159 106 1
159 115 1
159 116 1
159 162 1
159 164 1
159 174 1
159 181 1
159 182 1
159 229 1
159 230 1
159 258 1
159 260 1
159 270 1
159 285 1
159 286 1
159 288 1
159 586 1
159 595 1
159 596 1
159 613 1
159 614 1
159 621 1
159 670 1
159 672 1
159 717 1
159 757 1
159 758 1
159 765 1
160 108 1
160 117 1
160 118 1
160 164 1
160 166 1
160 176 1
160 183 1
160 184 1
160 194 1
160 231 1
160 232 1
160 260 1
160 262 1
160 272 1
160 287 1
160 288 1
160 578 1
160 588 1
160 597 1
160 598 1
160 615 1
160 616 1
160 623 1
160 672 1
160 719 1
160 759 1
160 760 1
160 767 1
161 110 1
161 119 1
161 120 1
161 166 1
161 168 1
161 178 1
161 185 1
161 186 1
161 193 1
161 194 1
161 196 1
161 233 1
161 234 1
161 262 1
161 264 1
161 274 1
161 578 1
161 580 1
161 590 1
161 599 1
161 600 1
161 617 1
161 618 1
161 625 1
161 673 1
161 721 1
161 761 1
161 762 1
162 112 1
162 121 1
162 122 1
162 168 1
162 170 1
162 180 1
162 187 1
162 188 1
162 195 1
162 196 1
162 198 1
162 235 1
162 236 1
162 264 1
162 266 1
162 276 1
162 580 1
162 582 1
162 592 1
162 601 1
162 602 1
162 619 1
162 620 1
162 627 1
162 675 1
162 723 1
162 763 1
162 764 1
163 114 1
163 123 1
163 124 1
163 170 1
163 172 1
163 182 1
163 189 1
163 190 1
163 197 1
163 198 1
163 200 1
163 237 1
163 238 1
163 266 1
163 268 1
163 278 1
163 582 1
163 584 1
163 594 1
163 603 1
163 604 1
163 621 1
163 622 1
163 629 1
163 677 1
163 725 1
163 765 1
163 766 1
164 116 1
164 125 1
164 126 1
164 172 1
164 174 1
164 184 1
164 191 1
164 192 1
164 199 1
164 200 1
164 202 1
164 239 1
164 240 1
164 268 1
164 270 1
164 280 1
164 584 1
164 586 1
164 596 1
164 605 1
164 606 1
164 623 1
164 624 1
164 631 1
164 679 1
164 727 1
164 767 1
164 768 1
165 97 1
165 98 1
165 118 1
165 127 1
165 128 1
165 174 1
165 176 1
165 186 1
165 201 1
165 202 1
165 204 1
165 241 1
165 242 1
165 270 1
165 272 1
165 282 1
165 586 1
165 588 1
165 598 1
165 607 1
165 608 1
165 625 1
165 626 1
165 633 1
165 673 1
165 674 1
165 681 1
165 729 1
166 99 1
166 100 1
166 120 1
166 129 1
166 130 1
166 176 1
166 178 1
166 188 1
166 203 1
166 204 1
166 206 1
166 243 1
166 244 1
166 272 1
166 274 1
166 284 1
166 588 1
166 590 1
166 600 1
166 609 1
166 610 1
166 627 1
166 628 1
166 635 1
166 675 1
166 676 1
166 683 1
166 731 1
167 101 1
167 102 1
167 122 1
167 131 1
167 132 1
167 178 1
167 180 1
167 190 1
167 205 1
167 206 1
167 208 1
167 245 1
167 246 1
167 274 1
167 276 1
167 286 1
167 590 1
167 592 1
167 602 1
167 611 1
167 612 1
167 629 1
167 630 1
167 637 1
167 677 1
167 678 1
167 685 1
167 733 1
168 103 1
168 104 1
168 124 1
168 133 1
168 134 1
168 180 1
168 182 1
168 192 1
168 207 1
168 208 1
168 210 1
168 247 1
168 248 1
168 276 1
168 278 1
168 288 1
168 592 1
168 594 1
168 604 1
168 613 1
168 614 1
168 631 1
168 632 1
168 639 1
168 679 1
168 680 1
168 687 1
168 735 1
169 98 1
169 105 1
169 106 1
169 126 1
169 135 1
169 136 1
169 182 1
169 184 1
169 194 1
169 209 1
169 210 1
169 212 1
169 249 1
169 250 1
169 278 1
169 280 1
169 594 1
169 596 1
169 606 1
169 615 1
169 616 1
169 633 1
169 634 1
169 641 1
169 681 1
169 682 1
169 689 1
169 737 1
170 100 1
170 107 1
170 108 1
170 128 1
170 137 1
170 138 1
170 184 1
170 186 1
170 196 1
170 211 1
170 212 1
170 214 1
170 251 1
170 252 1
170 280 1
170 282 1
170 596 1
170 598 1
170 608 1
170 617 1
170 618 1
170 635 1
170 636 1
170 643 1
170 683 1
170 684 1
170 691 1
170 739 1
171 102 1
171 109 1
171 110 1
171 130 1
171 139 1
171 140 1
171 186 1
171 188 1
171 198 1
171 213 1
171 214 1
171 216 1
171 253 1
171 254 1
171 282 1
171 284 1
171 598 1
171 600 1
171 610 1
171 619 1
171 620 1
171 637 1
171 638 1
171 645 1
171 685 1
171 686 1
171 693 1
171 741 1
172 104 1
172 111 1
172 112 1
172 132 1
172 141 1
172 142 1
172 188 1
172 190 1
172 200 1
172 215 1
172 216 1
172 218 1
172 255 1
172 256 1
172 284 1
172 286 1
172 600 1
172 602 1
172 612 1
172 621 1
172 622 1
172 639 1
172 640 1
172 647 1
172 687 1
172 688 1
172 695 1
172 743 1
173 106 1
173 113 1
173 114 1
173 134 1
173 143 1
173 144 1
173 190 1
173 192 1
173 202 1
173 217 1
173 218 1
173 220 1
173 257 1
173 258 1
173 286 1
173 288 1
173 602 1
173 604 1
173 614 1
173 623 1
173 624 1
173 641 1
173 642 1
173 649 1
173 689 1
173 690 1
173 697 1
173 745 1
174 98 1
174 108 1
174 115 1
174 116 1
174 136 1
174 145 1
174 146 1
174 192 1
174 194 1
174 204 1
174 219 1
174 220 1
174 222 1
174 259 1
174 260 1
174 288 1
174 604 1
174 606 1
174 616 1
174 625 1
174 626 1
174 643 1
174 644 1
174 651 1
174 691 1
174 692 1
174 699 1
174 747 1
175 98 1
175 100 1
175 110 1
175 117 1
175 118 1
175 138 1
175 147 1
175 148 1
175 194 1
175 196 1
175 206 1
175 221 1
175 222 1
175 224 1
175 261 1
175 262 1
175 606 1
175 608 1
175 618 1
175 627 1
175 628 1
175 645 1
175 646 1
175 653 1
175 693 1
175 694 1
175 701 1
175 749 1
176 100 1
176 102 1
176 112 1
176 119 1
176 120 1
176 140 1
176 149 1
176 150 1
176 196 1
176 198 1
176 208 1
176 223 1
176 224 1
176 226 1
176 263 1
176 264 1
176 608 1
176 610 1
176 620 1
176 629 1
176 630 1
176 647 1
176 648 1
176 655 1
176 695 1
176 696 1
176 703 1
176 751 1
177 102 1
177 104 1
177 114 1
177 121 1
177 122 1
177 142 1
177 151 1
177 152 1
177 198 1
177 200 1
177 210 1
177 225 1
177 226 1
177 228 1
177 265 1
177 266 1
177 610 1
177 612 1
177 622 1
177 631 1
177 632 1
177 649 1
177 650 1
177 657 1
177 697 1
177 698 1
177 705 1
177 753 1
178 104 1
178 106 1
178 116 1
178 123 1
178 124 1
178 144 1
178 153 1
178 154 1
178 200 1
178 202 1
178 212 1
178 227 1
178 228 1
178 230 1
178 267 1
178 268 1
178 612 1
178 614 1
178 624 1
178 633 1
178 634 1
178 651 1
178 652 1
178 659 1
178 699 1
178 700 1
178 707 1
178 755 1
179 106 1
179 108 1
179 118 1
179 125 1
179 126 1
179 146 1
179 155 1
179 156 1
179 202 1
179 204 1
179 214 1
179 229 1
179 230 1
179 232 1
179 269 1
179 270 1
179 614 1
179 616 1
179 626 1
179 635 1
179 636 1
179 653 1
179 654 1
179 661 1
179 701 1
179 702 1
179 709 1
179 757 1
180 108 1
180 110 1
180 120 1
180 127 1
180 128 1
180 148 1
180 157 1
180 158 1
180 204 1
180 206 1
180 216 1
180 231 1
180 232 1
180 234 1
180 271 1
180 272 1
180 616 1
180 618 1
180 628 1
180 637 1
180 638 1
180 655 1
180 656 1
180 663 1
180 703 1
180 704 1
180 711 1
180 759 1
181 110 1
181 112 1
181 122 1
181 129 1
181 130 1
181 150 1
181 159 1
181 160 1
181 206 1
181 208 1
181 218 1
181 233 1
181 234 1
181 236 1
181 273 1
181 274 1
181 618 1
181 620 1
181 630 1
181 639 1
181 640 1
181 657 1
181 658 1
181 665 1
181 705 1
181 706 1
181 713 1
181 761 1
182 112 1
182 114 1
182 124 1
182 131 1
182 132 1
182 152 1
182 161 1
182 162 1
182 208 1
182 210 1
182 220 1
182 235 1
182 236 1
182 238 1
182 275 1
182 276 1
182 620 1
182 622 1
182 632 1
182 641 1
182 642 1
182 659 1
182 660 1
182 667 1
182 707 1
182 708 1
182 715 1
182 763 1
183 114 1
183 116 1
183 126 1
183 133 1
183 134 1
183 154 1
183 163 1
183 164 1
183 210 1
183 212 1
183 222 1
183 237 1
183 238 1
183 240 1
183 277 1
183 278 1
183 622 1
183 624 1
183 634 1
183 643 1
183 644 1
183 661 1
183 662 1
183 669 1
183 709 1
183 710 1
183 717 1
183 765 1
184 116 1
184 118 1
184 128 1
184 135 1
184 136 1
184 156 1
184 165 1
184 166 1
184 212 1
184 214 1
184 224 1
184 239 1
184 240 1
184 242 1
184 279 1
184 280 1
184 624 1
184 626 1
184 636 1
184 645 1
184 646 1
184 663 1
184 664 1
184 671 1
184 711 1
184 712 1
184 719 1
184 767 1
185 118 1
185 120 1
185 130 1
185 137 1
185 138 1
185 158 1
185 167 1
185 168 1
185 214 1
185 216 1
185 226 1
185 241 1
185 242 1
185 244 1
185 281 1
185 282 1
185 577 1
185 626 1
185 628 1
185 638 1
185 647 1
185 648 1
185 665 1
185 666 1
185 673 1
185 713 1
185 714 1
185 721 1
186 120 1
186 122 1
186 132 1
186 139 1
186 140 1
186 160 1
186 169 1
186 170 1
186 216 1
186 218 1
186 228 1
186 243 1
186 244 1
186 246 1
186 283 1
186 284 1
186 579 1
186 628 1
186 630 1
186 640 1
186 649 1
186 650 1
186 667 1
186 668 1
186 675 1
186 715 1
186 716 1
186 723 1
187 122 1
187 124 1
187 134 1
187 141 1
187 142 1
187 162 1
187 171 1
187 172 1
187 218 1
187 220 1
187 230 1
187 245 1
187 246 1
187 248 1
187 285 1
187 286 1
187 581 1
187 630 1
187 632 1
187 642 1
187 651 1
187 652 1
187 669 1
187 670 1
187 677 1
187 717 1
187 718 1
187 725 1
188 124 1
188 126 1
188 136 1
188 143 1
188 144 1
188 164 1
188 173 1
188 174 1
188 220 1
188 222 1
188 232 1
188 247 1
188 248 1
188 250 1
188 287 1
188 288 1
188 583 1
188 632 1
188 634 1
188 644 1
188 653 1
188 654 1
188 671 1
188 672 1
188 679 1
188 719 1
188 720 1
188 727 1
189 126 1
189 128 1
189 138 1
189 145 1
189 146 1
189 166 1
189 175 1
189 176 1
189 193 1
189 194 1
189 222 1
189 224 1
189 234 1
189 249 1
189 250 1
189 252 1
189 577 1
189 578 1
189 585 1
189 634 1
189 636 1
189 646 1
189 655 1
189 656 1
189 681 1
189 721 1
189 722 1
189 729 1
190 128 1
190 130 1
190 140 1
190 147 1
190 148 1
190 168 1
190 177 1
190 178 1
190 195 1
190 196 1
190 224 1
190 226 1
190 236 1
190 251 1
190 252 1
190 254 1
190 579 1
190 580 1
190 587 1
190 636 1
190 638 1
190 648 1
190 657 1
190 658 1
190 683 1
190 723 1
190 724 1
190 731 1
191 130 1
191 132 1
191 142 1
191 149 1
191 150 1
191 170 1
191 179 1
191 180 1
191 197 1
191 198 1
191 226 1
191 228 1
191 238 1
191 253 1
191 254 1
191 256 1
191 581 1
191 582 1
191 589 1
191 638 1
191 640 1
191 650 1
191 659 1
191 660 1
191 685 1
191 725 1
191 726 1
191 733 1
192 132 1
192 134 1
192 144 1
192 151 1
192 152 1
192 172 1
192 181 1
192 182 1
192 199 1
192 200 1
192 228 1
192 230 1
192 240 1
192 255 1
192 256 1
192 258 1
192 583 1
192 584 1
192 591 1
192 640 1
192 642 1
192 652 1
192 661 1
192 662 1
192 687 1
192 727 1
192 728 1
192 735 1
