%%MatrixMarket matrix coordinate integer general
% GF(4) labels 0,1,2=omega,3=omega+1; arithmetic is NOT integer arithmetic.
% Coordinate indices are 1-based; omitted entries are zero.
96 384 1920
1 49 2
1 63 2
1 67 1
1 77 3
1 91 2
1 97 2
1 105 2
1 115 2
1 125 3
1 129 3
1 139 2
1 153 1
1 173 3
1 177 1
1 297 3
1 303 2
1 307 3
1 317 3
1 321 2
2 50 2
2 64 2
2 68 1
2 78 3
2 92 2
2 98 2
2 106 2
2 116 2
2 126 3
2 130 3
2 140 2
2 154 1
2 174 3
2 178 1
2 298 3
2 304 2
2 308 3
2 318 3
2 322 2
3 51 2
3 65 2
3 69 1
3 79 3
3 93 2
3 99 2
3 107 2
3 117 2
3 127 3
3 131 3
3 141 2
3 155 1
3 175 3
3 179 1
3 299 3
3 305 2
3 309 3
3 319 3
3 323 2
4 52 2
4 66 2
4 70 1
4 80 3
4 94 2
4 100 2
4 108 2
4 118 2
4 128 3
4 132 3
4 142 2
4 156 1
4 176 3
4 180 1
4 300 3
4 306 2
4 310 3
4 320 3
4 324 2
5 53 2
5 67 2
5 71 1
5 81 3
5 95 2
5 101 2
5 109 2
5 119 2
5 129 3
5 133 3
5 143 2
5 157 1
5 177 3
5 181 1
5 301 3
5 307 2
5 311 3
5 321 3
5 325 2
6 54 2
6 68 2
6 72 1
6 82 3
6 96 2
6 102 2
6 110 2
6 120 2
6 130 3
6 134 3
6 144 2
6 158 1
6 178 3
6 182 1
6 302 3
6 308 2
6 312 3
6 322 3
6 326 2
7 49 2
7 55 2
7 69 2
7 73 1
7 83 3
7 97 2
7 103 2
7 111 2
7 121 2
7 131 3
7 135 3
7 159 1
7 179 3
7 183 1
7 303 3
7 309 2
7 313 3
7 323 3
7 327 2
8 50 2
8 56 2
8 70 2
8 74 1
8 84 3
8 98 2
8 104 2
8 112 2
8 122 2
8 132 3
8 136 3
8 160 1
8 180 3
8 184 1
8 304 3
8 310 2
8 314 3
8 324 3
8 328 2
9 51 2
9 57 2
9 71 2
9 75 1
9 85 3
9 99 2
9 105 2
9 113 2
9 123 2
9 133 3
9 137 3
9 161 1
9 181 3
9 185 1
9 305 3
9 311 2
9 315 3
9 325 3
9 329 2
10 52 2
10 58 2
10 72 2
10 76 1
10 86 3
10 100 2
10 106 2
10 114 2
10 124 2
10 134 3
10 138 3
10 162 1
10 182 3
10 186 1
10 306 3
10 312 2
10 316 3
10 326 3
10 330 2
11 53 2
11 59 2
11 73 2
11 77 1
11 87 3
11 101 2
11 107 2
11 115 2
11 125 2
11 135 3
11 139 3
11 163 1
11 183 3
11 187 1
11 307 3
11 313 2
11 317 3
11 327 3
11 331 2
12 54 2
12 60 2
12 74 2
12 78 1
12 88 3
12 102 2
12 108 2
12 116 2
12 126 2
12 136 3
12 140 3
12 164 1
12 184 3
12 188 1
12 308 3
12 314 2
12 318 3
12 328 3
12 332 2
13 55 2
13 61 2
13 75 2
13 79 1
13 89 3
13 103 2
13 109 2
13 117 2
13 127 2
13 137 3
13 141 3
13 165 1
13 185 3
13 189 1
13 309 3
13 315 2
13 319 3
13 329 3
13 333 2
14 56 2
14 62 2
14 76 2
14 80 1
14 90 3
14 104 2
14 110 2
14 118 2
14 128 2
14 138 3
14 142 3
14 166 1
14 186 3
14 190 1
14 310 3
14 316 2
14 320 3
14 330 3
14 334 2
15 57 2
15 63 2
15 77 2
15 81 1
15 91 3
15 105 2
15 111 2
15 119 2
15 129 2
15 139 3
15 143 3
15 167 1
15 187 3
15 191 1
15 311 3
15 317 2
15 321 3
15 331 3
15 335 2
16 58 2
16 64 2
16 78 2
16 82 1
16 92 3
16 106 2
16 112 2
16 120 2
16 130 2
16 140 3
16 144 3
16 168 1
16 188 3
16 192 1
16 312 3
16 318 2
16 322 3
16 332 3
16 336 2
17 59 2
17 65 2
17 79 2
17 83 1
17 93 3
17 97 3
17 107 2
17 113 2
17 121 2
17 131 2
17 141 3
17 145 1
17 169 1
17 189 3
17 289 2
17 313 3
17 319 2
17 323 3
17 333 3
18 60 2
18 66 2
18 80 2
18 84 1
18 94 3
18 98 3
18 108 2
18 114 2
18 122 2
18 132 2
18 142 3
18 146 1
18 170 1
18 190 3
18 290 2
18 314 3
18 320 2
18 324 3
18 334 3
19 61 2
19 67 2
19 81 2
19 85 1
19 95 3
19 99 3
19 109 2
19 115 2
19 123 2
19 133 2
19 143 3
19 147 1
19 171 1
19 191 3
19 291 2
19 315 3
19 321 2
19 325 3
19 335 3
20 62 2
20 68 2
20 82 2
20 86 1
20 96 3
20 100 3
20 110 2
20 116 2
20 124 2
20 134 2
20 144 3
20 148 1
20 172 1
20 192 3
20 292 2
20 316 3
20 322 2
20 326 3
20 336 3
21 49 3
21 63 2
21 69 2
21 83 2
21 87 1
21 97 3
21 101 3
21 111 2
21 117 2
21 125 2
21 135 2
21 145 3
21 149 1
21 173 1
21 289 3
21 293 2
21 317 3
21 323 2
21 327 3
22 50 3
22 64 2
22 70 2
22 84 2
22 88 1
22 98 3
22 102 3
22 112 2
22 118 2
22 126 2
22 136 2
22 146 3
22 150 1
22 174 1
22 290 3
22 294 2
22 318 3
22 324 2
22 328 3
23 51 3
23 65 2
23 71 2
23 85 2
23 89 1
23 99 3
23 103 3
23 113 2
23 119 2
23 127 2
23 137 2
23 147 3
23 151 1
23 175 1
23 291 3
23 295 2
23 319 3
23 325 2
23 329 3
24 52 3
24 66 2
24 72 2
24 86 2
24 90 1
24 100 3
24 104 3
24 114 2
24 120 2
24 128 2
24 138 2
24 148 3
24 152 1
24 176 1
24 292 3
24 296 2
24 320 3
24 326 2
24 330 3
25 53 3
25 67 2
25 73 2
25 87 2
25 91 1
25 101 3
25 105 3
25 115 2
25 121 2
25 129 2
25 139 2
25 149 3
25 153 1
25 177 1
25 293 3
25 297 2
25 321 3
25 327 2
25 331 3
26 54 3
26 68 2
26 74 2
26 88 2
26 92 1
26 102 3
26 106 3
26 116 2
26 122 2
26 130 2
26 140 2
26 150 3
26 154 1
26 178 1
26 294 3
26 298 2
26 322 3
26 328 2
26 332 3
27 55 3
27 69 2
27 75 2
27 89 2
27 93 1
27 103 3
27 107 3
27 117 2
27 123 2
27 131 2
27 141 2
27 151 3
27 155 1
27 179 1
27 295 3
27 299 2
27 323 3
27 329 2
27 333 3
28 56 3
28 70 2
28 76 2
28 90 2
28 94 1
28 104 3
28 108 3
28 118 2
28 124 2
28 132 2
28 142 2
28 152 3
28 156 1
28 180 1
28 296 3
28 300 2
28 324 3
28 330 2
28 334 3
29 57 3
29 71 2
29 77 2
29 91 2
29 95 1
29 105 3
29 109 3
29 119 2
29 125 2
29 133 2
29 143 2
29 153 3
29 157 1
29 181 1
29 297 3
29 301 2
29 325 3
29 331 2
29 335 3
30 58 3
30 72 2
30 78 2
30 92 2
30 96 1
30 106 3
30 110 3
30 120 2
30 126 2
30 134 2
30 144 2
30 154 3
30 158 1
30 182 1
30 298 3
30 302 2
30 326 3
30 332 2
30 336 3
31 49 1
31 59 3
31 73 2
31 79 2
31 93 2
31 97 2
31 107 3
31 111 3
31 121 2
31 127 2
31 135 2
31 155 3
31 159 1
31 183 1
31 289 3
31 299 3
31 303 2
31 327 3
31 333 2
32 50 1
32 60 3
32 74 2
32 80 2
32 94 2
32 98 2
32 108 3
32 112 3
32 122 2
32 128 2
32 136 2
32 156 3
32 160 1
32 184 1
32 290 3
32 300 3
32 304 2
32 328 3
32 334 2
33 51 1
33 61 3
33 75 2
33 81 2
33 95 2
33 99 2
33 109 3
33 113 3
33 123 2
33 129 2
33 137 2
33 157 3
33 161 1
33 185 1
33 291 3
33 301 3
33 305 2
33 329 3
33 335 2
34 52 1
34 62 3
34 76 2
34 82 2
34 96 2
34 100 2
34 110 3
34 114 3
34 124 2
34 130 2
34 138 2
34 158 3
34 162 1
34 186 1
34 292 3
34 302 3
34 306 2
34 330 3
34 336 2
35 49 2
35 53 1
35 63 3
35 77 2
35 83 2
35 101 2
35 111 3
35 115 3
35 125 2
35 131 2
35 139 2
35 159 3
35 163 1
35 187 1
35 289 2
35 293 3
35 303 3
35 307 2
35 331 3
36 50 2
36 54 1
36 64 3
36 78 2
36 84 2
36 102 2
36 112 3
36 116 3
36 126 2
36 132 2
36 140 2
36 160 3
36 164 1
36 188 1
36 290 2
36 294 3
36 304 3
36 308 2
36 332 3
37 51 2
37 55 1
37 65 3
37 79 2
37 85 2
37 103 2
37 113 3
37 117 3
37 127 2
37 133 2
37 141 2
37 161 3
37 165 1
37 189 1
37 291 2
37 295 3
37 305 3
37 309 2
37 333 3
38 52 2
38 56 1
38 66 3
38 80 2
38 86 2
38 104 2
38 114 3
38 118 3
38 128 2
38 134 2
38 142 2
38 162 3
38 166 1
38 190 1
38 292 2
38 296 3
38 306 3
38 310 2
38 334 3
39 53 2
39 57 1
39 67 3
39 81 2
39 87 2
39 105 2
39 115 3
39 119 3
39 129 2
39 135 2
39 143 2
39 163 3
39 167 1
39 191 1
39 293 2
39 297 3
39 307 3
39 311 2
39 335 3
40 54 2
40 58 1
40 68 3
40 82 2
40 88 2
40 106 2
40 116 3
40 120 3
40 130 2
40 136 2
40 144 2
40 164 3
40 168 1
40 192 1
40 294 2
40 298 3
40 308 3
40 312 2
40 336 3
41 55 2
41 59 1
41 69 3
41 83 2
41 89 2
41 97 2
41 107 2
41 117 3
41 121 3
41 131 2
41 137 2
41 145 1
41 165 3
41 169 1
41 289 3
41 295 2
41 299 3
41 309 3
41 313 2
42 56 2
42 60 1
42 70 3
42 84 2
42 90 2
42 98 2
42 108 2
42 118 3
42 122 3
42 132 2
42 138 2
42 146 1
42 166 3
42 170 1
42 290 3
42 296 2
42 300 3
42 310 3
42 314 2
43 57 2
43 61 1
43 71 3
43 85 2
43 91 2
43 99 2
43 109 2
43 119 3
43 123 3
43 133 2
43 139 2
43 147 1
43 167 3
43 171 1
43 291 3
43 297 2
43 301 3
43 311 3
43 315 2
44 58 2
44 62 1
44 72 3
44 86 2
44 92 2
44 100 2
44 110 2
44 120 3
44 124 3
44 134 2
44 140 2
44 148 1
44 168 3
44 172 1
44 292 3
44 298 2
44 302 3
44 312 3
44 316 2
45 59 2
45 63 1
45 73 3
45 87 2
45 93 2
45 101 2
45 111 2
45 121 3
45 125 3
45 135 2
45 141 2
45 149 1
45 169 3
45 173 1
45 293 3
45 299 2
45 303 3
45 313 3
45 317 2
46 60 2
46 64 1
46 74 3
46 88 2
46 94 2
46 102 2
46 112 2
46 122 3
46 126 3
46 136 2
46 142 2
46 150 1
46 170 3
46 174 1
46 294 3
46 300 2
46 304 3
46 314 3
46 318 2
47 61 2
47 65 1
47 75 3
47 89 2
47 95 2
47 103 2
47 113 2
47 123 3
47 127 3
47 137 2
47 143 2
47 151 1
47 171 3
47 175 1
47 295 3
47 301 2
47 305 3
47 315 3
47 319 2
48 62 2
48 66 1
48 76 3
48 90 2
48 96 2
48 104 2
48 114 2
48 124 3
48 128 3
48 138 2
48 144 2
48 152 1
48 172 3
48 176 1
48 296 3
48 302 2
48 306 3
48 316 3
48 320 2
49 67 1
49 68 1
49 73 1
49 77 2
49 87 1
49 92 2
49 101 2
49 115 1
49 116 1
49 121 1
49 129 2
49 130 1
49 293 2
49 297 3
49 321 1
49 322 1
49 327 1
49 332 2
49 345 3
49 365 2
49 369 3
50 68 1
50 69 1
50 74 1
50 78 2
50 88 1
50 93 2
50 102 2
50 116 1
50 117 1
50 122 1
50 130 2
50 131 1
50 294 2
50 298 3
50 322 1
50 323 1
50 328 1
50 333 2
50 346 3
50 366 2
50 370 3
51 69 1
51 70 1
51 75 1
51 79 2
51 89 1
51 94 2
51 103 2
51 117 1
51 118 1
51 123 1
51 131 2
51 132 1
51 295 2
51 299 3
51 323 1
51 324 1
51 329 1
51 334 2
51 347 3
51 367 2
51 371 3
52 70 1
52 71 1
52 76 1
52 80 2
52 90 1
52 95 2
52 104 2
52 118 1
52 119 1
52 124 1
52 132 2
52 133 1
52 296 2
52 300 3
52 324 1
52 325 1
52 330 1
52 335 2
52 348 3
52 368 2
52 372 3
53 71 1
53 72 1
53 77 1
53 81 2
53 91 1
53 96 2
53 105 2
53 119 1
53 120 1
53 125 1
53 133 2
53 134 1
53 297 2
53 301 3
53 325 1
53 326 1
53 331 1
53 336 2
53 349 3
53 369 2
53 373 3
54 49 2
54 72 1
54 73 1
54 78 1
54 82 2
54 92 1
54 106 2
54 120 1
54 121 1
54 126 1
54 134 2
54 135 1
54 289 2
54 298 2
54 302 3
54 326 1
54 327 1
54 332 1
54 350 3
54 370 2
54 374 3
55 50 2
55 73 1
55 74 1
55 79 1
55 83 2
55 93 1
55 107 2
55 121 1
55 122 1
55 127 1
55 135 2
55 136 1
55 290 2
55 299 2
55 303 3
55 327 1
55 328 1
55 333 1
55 351 3
55 371 2
55 375 3
56 51 2
56 74 1
56 75 1
56 80 1
56 84 2
56 94 1
56 108 2
56 122 1
56 123 1
56 128 1
56 136 2
56 137 1
56 291 2
56 300 2
56 304 3
56 328 1
56 329 1
56 334 1
56 352 3
56 372 2
56 376 3
57 52 2
57 75 1
57 76 1
57 81 1
57 85 2
57 95 1
57 109 2
57 123 1
57 124 1
57 129 1
57 137 2
57 138 1
57 292 2
57 301 2
57 305 3
57 329 1
57 330 1
57 335 1
57 353 3
57 373 2
57 377 3
58 53 2
58 76 1
58 77 1
58 82 1
58 86 2
58 96 1
58 110 2
58 124 1
58 125 1
58 130 1
58 138 2
58 139 1
58 293 2
58 302 2
58 306 3
58 330 1
58 331 1
58 336 1
58 354 3
58 374 2
58 378 3
59 49 1
59 54 2
59 77 1
59 78 1
59 83 1
59 87 2
59 111 2
59 125 1
59 126 1
59 131 1
59 139 2
59 140 1
59 289 1
59 294 2
59 303 2
59 307 3
59 331 1
59 332 1
59 355 3
59 375 2
59 379 3
60 50 1
60 55 2
60 78 1
60 79 1
60 84 1
60 88 2
60 112 2
60 126 1
60 127 1
60 132 1
60 140 2
60 141 1
60 290 1
60 295 2
60 304 2
60 308 3
60 332 1
60 333 1
60 356 3
60 376 2
60 380 3
61 51 1
61 56 2
61 79 1
61 80 1
61 85 1
61 89 2
61 113 2
61 127 1
61 128 1
61 133 1
61 141 2
61 142 1
61 291 1
61 296 2
61 305 2
61 309 3
61 333 1
61 334 1
61 357 3
61 377 2
61 381 3
62 52 1
62 57 2
62 80 1
62 81 1
62 86 1
62 90 2
62 114 2
62 128 1
62 129 1
62 134 1
62 142 2
62 143 1
62 292 1
62 297 2
62 306 2
62 310 3
62 334 1
62 335 1
62 358 3
62 378 2
62 382 3
63 53 1
63 58 2
63 81 1
63 82 1
63 87 1
63 91 2
63 115 2
63 129 1
63 130 1
63 135 1
63 143 2
63 144 1
63 293 1
63 298 2
63 307 2
63 311 3
63 335 1
63 336 1
63 359 3
63 379 2
63 383 3
64 54 1
64 59 2
64 82 1
64 83 1
64 88 1
64 92 2
64 97 1
64 116 2
64 130 1
64 131 1
64 136 1
64 144 2
64 289 1
64 294 1
64 299 2
64 308 2
64 312 3
64 336 1
64 360 3
64 380 2
64 384 3
65 55 1
65 60 2
65 83 1
65 84 1
65 89 1
65 93 2
65 97 2
65 98 1
65 117 2
65 131 1
65 132 1
65 137 1
65 289 1
65 290 1
65 295 1
65 300 2
65 309 2
65 313 3
65 337 3
65 361 3
65 381 2
66 56 1
66 61 2
66 84 1
66 85 1
66 90 1
66 94 2
66 98 2
66 99 1
66 118 2
66 132 1
66 133 1
66 138 1
66 290 1
66 291 1
66 296 1
66 301 2
66 310 2
66 314 3
66 338 3
66 362 3
66 382 2
67 57 1
67 62 2
67 85 1
67 86 1
67 91 1
67 95 2
67 99 2
67 100 1
67 119 2
67 133 1
67 134 1
67 139 1
67 291 1
67 292 1
67 297 1
67 302 2
67 311 2
67 315 3
67 339 3
67 363 3
67 383 2
68 58 1
68 63 2
68 86 1
68 87 1
68 92 1
68 96 2
68 100 2
68 101 1
68 120 2
68 134 1
68 135 1
68 140 1
68 292 1
68 293 1
68 298 1
68 303 2
68 312 2
68 316 3
68 340 3
68 364 3
68 384 2
69 49 2
69 59 1
69 64 2
69 87 1
69 88 1
69 93 1
69 101 2
69 102 1
69 121 2
69 135 1
69 136 1
69 141 1
69 293 1
69 294 1
69 299 1
69 304 2
69 313 2
69 317 3
69 337 2
69 341 3
69 365 3
70 50 2
70 60 1
70 65 2
70 88 1
70 89 1
70 94 1
70 102 2
70 103 1
70 122 2
70 136 1
70 137 1
70 142 1
70 294 1
70 295 1
70 300 1
70 305 2
70 314 2
70 318 3
70 338 2
70 342 3
70 366 3
71 51 2
71 61 1
71 66 2
71 89 1
71 90 1
71 95 1
71 103 2
71 104 1
71 123 2
71 137 1
71 138 1
71 143 1
71 295 1
71 296 1
71 301 1
71 306 2
71 315 2
71 319 3
71 339 2
71 343 3
71 367 3
72 52 2
72 62 1
72 67 2
72 90 1
72 91 1
72 96 1
72 104 2
72 105 1
72 124 2
72 138 1
72 139 1
72 144 1
72 296 1
72 297 1
72 302 1
72 307 2
72 316 2
72 320 3
72 340 2
72 344 3
72 368 3
73 49 1
73 53 2
73 63 1
73 68 2
73 91 1
73 92 1
73 97 1
73 105 2
73 106 1
73 125 2
73 139 1
73 140 1
73 297 1
73 298 1
73 303 1
73 308 2
73 317 2
73 321 3
73 341 2
73 345 3
73 369 3
74 50 1
74 54 2
74 64 1
74 69 2
74 92 1
74 93 1
74 98 1
74 106 2
74 107 1
74 126 2
74 140 1
74 141 1
74 298 1
74 299 1
74 304 1
74 309 2
74 318 2
74 322 3
74 342 2
74 346 3
74 370 3
75 51 1
75 55 2
75 65 1
75 70 2
75 93 1
75 94 1
75 99 1
75 107 2
75 108 1
75 127 2
75 141 1
75 142 1
75 299 1
75 300 1
75 305 1
75 310 2
75 319 2
75 323 3
75 343 2
75 347 3
75 371 3
76 52 1
76 56 2
76 66 1
76 71 2
76 94 1
76 95 1
76 100 1
76 108 2
76 109 1
76 128 2
76 142 1
76 143 1
76 300 1
76 301 1
76 306 1
76 311 2
76 320 2
76 324 3
76 344 2
76 348 3
76 372 3
77 53 1
77 57 2
77 67 1
77 72 2
77 95 1
77 96 1
77 101 1
77 109 2
77 110 1
77 129 2
77 143 1
77 144 1
77 301 1
77 302 1
77 307 1
77 312 2
77 321 2
77 325 3
77 345 2
77 349 3
77 373 3
78 49 1
78 54 1
78 58 2
78 68 1
78 73 2
78 96 1
78 97 1
78 102 1
78 110 2
78 111 1
78 130 2
78 144 1
78 302 1
78 303 1
78 308 1
78 313 2
78 322 2
78 326 3
78 346 2
78 350 3
78 374 3
79 49 1
79 50 1
79 55 1
79 59 2
79 69 1
79 74 2
79 97 1
79 98 1
79 103 1
79 111 2
79 112 1
79 131 2
79 303 1
79 304 1
79 309 1
79 314 2
79 323 2
79 327 3
79 347 2
79 351 3
79 375 3
80 50 1
80 51 1
80 56 1
80 60 2
80 70 1
80 75 2
80 98 1
80 99 1
80 104 1
80 112 2
80 113 1
80 132 2
80 304 1
80 305 1
80 310 1
80 315 2
80 324 2
80 328 3
80 348 2
80 352 3
80 376 3
81 51 1
81 52 1
81 57 1
81 61 2
81 71 1
81 76 2
81 99 1
81 100 1
81 105 1
81 113 2
81 114 1
81 133 2
81 305 1
81 306 1
81 311 1
81 316 2
81 325 2
81 329 3
81 349 2
81 353 3
81 377 3
82 52 1
82 53 1
82 58 1
82 62 2
82 72 1
82 77 2
82 100 1
82 101 1
82 106 1
82 114 2
82 115 1
82 134 2
82 306 1
82 307 1
82 312 1
82 317 2
82 326 2
82 330 3
82 350 2
82 354 3
82 378 3
83 53 1
83 54 1
83 59 1
83 63 2
83 73 1
83 78 2
83 101 1
83 102 1
83 107 1
83 115 2
83 116 1
83 135 2
83 307 1
83 308 1
83 313 1
83 318 2
83 327 2
83 331 3
83 351 2
83 355 3
83 379 3
84 54 1
84 55 1
84 60 1
84 64 2
84 74 1
84 79 2
84 102 1
84 103 1
84 108 1
84 116 2
84 117 1
84 136 2
84 308 1
84 309 1
84 314 1
84 319 2
84 328 2
84 332 3
84 352 2
84 356 3
84 380 3
85 55 1
85 56 1
85 61 1
85 65 2
85 75 1
85 80 2
85 103 1
85 104 1
85 109 1
85 117 2
85 118 1
85 137 2
85 309 1
85 310 1
85 315 1
85 320 2
85 329 2
85 333 3
85 353 2
85 357 3
85 381 3
86 56 1
86 57 1
86 62 1
86 66 2
86 76 1
86 81 2
86 104 1
86 105 1
86 110 1
86 118 2
86 119 1
86 138 2
86 310 1
86 311 1
86 316 1
86 321 2
86 330 2
86 334 3
86 354 2
86 358 3
86 382 3
87 57 1
87 58 1
87 63 1
87 67 2
87 77 1
87 82 2
87 105 1
87 106 1
87 111 1
87 119 2
87 120 1
87 139 2
87 311 1
87 312 1
87 317 1
87 322 2
87 331 2
87 335 3
87 355 2
87 359 3
87 383 3
88 58 1
88 59 1
88 64 1
88 68 2
88 78 1
88 83 2
88 106 1
88 107 1
88 112 1
88 120 2
88 121 1
88 140 2
88 312 1
88 313 1
88 318 1
88 323 2
88 332 2
88 336 3
88 356 2
88 360 3
88 384 3
89 59 1
89 60 1
89 65 1
89 69 2
89 79 1
89 84 2
89 107 1
89 108 1
89 113 1
89 121 2
89 122 1
89 141 2
89 289 3
89 313 1
89 314 1
89 319 1
89 324 2
89 333 2
89 337 3
89 357 2
89 361 3
90 60 1
90 61 1
90 66 1
90 70 2
90 80 1
90 85 2
90 108 1
90 109 1
90 114 1
90 122 2
90 123 1
90 142 2
90 290 3
90 314 1
90 315 1
90 320 1
90 325 2
90 334 2
90 338 3
90 358 2
90 362 3
91 61 1
91 62 1
91 67 1
91 71 2
91 81 1
91 86 2
91 109 1
91 110 1
91 115 1
91 123 2
91 124 1
91 143 2
91 291 3
91 315 1
91 316 1
91 321 1
91 326 2
91 335 2
91 339 3
91 359 2
91 363 3
92 62 1
92 63 1
92 68 1
92 72 2
92 82 1
92 87 2
92 110 1
92 111 1
92 116 1
92 124 2
92 125 1
92 144 2
92 292 3
92 316 1
92 317 1
92 322 1
92 327 2
92 336 2
92 340 3
92 360 2
92 364 3
93 63 1
93 64 1
93 69 1
93 73 2
93 83 1
93 88 2
93 97 2
93 111 1
93 112 1
93 117 1
93 125 2
93 126 1
93 289 2
93 293 3
93 317 1
93 318 1
93 323 1
93 328 2
93 341 3
93 361 2
93 365 3
94 64 1
94 65 1
94 70 1
94 74 2
94 84 1
94 89 2
94 98 2
94 112 1
94 113 1
94 118 1
94 126 2
94 127 1
94 290 2
94 294 3
94 318 1
94 319 1
94 324 1
94 329 2
94 342 3
94 362 2
94 366 3
95 65 1
95 66 1
95 71 1
95 75 2
95 85 1
95 90 2
95 99 2
95 113 1
95 114 1
95 119 1
95 127 2
95 128 1
95 291 2
95 295 3
95 319 1
95 320 1
95 325 1
95 330 2
95 343 3
95 363 2
95 367 3
96 66 1
96 67 1
96 72 1
96 76 2
96 86 1
96 91 2
96 100 2
96 114 1
96 115 1
96 120 1
96 128 2
96 129 1
96 292 2
96 296 3
96 320 1
96 321 1
96 326 1
96 331 2
96 344 3
96 364 2
96 368 3
