%%MatrixMarket matrix coordinate integer general
% Binary matrix over GF(2).
% Coordinate indices are 1-based; omitted entries are zero.
160 640 4440
1 241 1
1 256 1
1 275 1
1 282 1
1 296 1
1 315 1
1 325 1
1 336 1
1 341 1
1 362 1
1 365 1
1 366 1
1 395 1
1 416 1
1 432 1
1 435 1
1 451 1
1 465 1
1 477 1
1 478 1
1 524 1
1 528 1
1 530 1
1 537 1
1 547 1
2 243 1
2 258 1
2 277 1
2 284 1
2 298 1
2 317 1
2 327 1
2 338 1
2 343 1
2 364 1
2 367 1
2 368 1
2 397 1
2 418 1
2 434 1
2 437 1
2 453 1
2 467 1
2 479 1
2 480 1
2 526 1
2 530 1
2 532 1
2 539 1
2 549 1
3 245 1
3 260 1
3 279 1
3 286 1
3 300 1
3 319 1
3 329 1
3 340 1
3 345 1
3 366 1
3 369 1
3 370 1
3 399 1
3 401 1
3 402 1
3 420 1
3 436 1
3 439 1
3 455 1
3 469 1
3 528 1
3 532 1
3 534 1
3 541 1
3 551 1
4 241 1
4 247 1
4 262 1
4 281 1
4 288 1
4 302 1
4 321 1
4 331 1
4 342 1
4 347 1
4 368 1
4 371 1
4 372 1
4 403 1
4 404 1
4 422 1
4 438 1
4 441 1
4 457 1
4 471 1
4 530 1
4 534 1
4 536 1
4 543 1
4 553 1
5 243 1
5 249 1
5 264 1
5 283 1
5 290 1
5 304 1
5 323 1
5 333 1
5 344 1
5 349 1
5 370 1
5 373 1
5 374 1
5 405 1
5 406 1
5 424 1
5 440 1
5 443 1
5 459 1
5 473 1
5 532 1
5 536 1
5 538 1
5 545 1
5 555 1
6 245 1
6 251 1
6 266 1
6 285 1
6 292 1
6 306 1
6 325 1
6 335 1
6 346 1
6 351 1
6 372 1
6 375 1
6 376 1
6 407 1
6 408 1
6 426 1
6 442 1
6 445 1
6 461 1
6 475 1
6 534 1
6 538 1
6 540 1
6 547 1
6 557 1
7 247 1
7 253 1
7 268 1
7 287 1
7 294 1
7 308 1
7 327 1
7 337 1
7 348 1
7 353 1
7 374 1
7 377 1
7 378 1
7 409 1
7 410 1
7 428 1
7 444 1
7 447 1
7 463 1
7 477 1
7 536 1
7 540 1
7 542 1
7 549 1
7 559 1
8 249 1
8 255 1
8 270 1
8 289 1
8 296 1
8 310 1
8 329 1
8 339 1
8 350 1
8 355 1
8 376 1
8 379 1
8 380 1
8 411 1
8 412 1
8 430 1
8 446 1
8 449 1
8 465 1
8 479 1
8 481 1
8 538 1
8 542 1
8 544 1
8 551 1
9 251 1
9 257 1
9 272 1
9 291 1
9 298 1
9 312 1
9 331 1
9 341 1
9 352 1
9 357 1
9 378 1
9 381 1
9 382 1
9 401 1
9 413 1
9 414 1
9 432 1
9 448 1
9 451 1
9 467 1
9 483 1
9 540 1
9 544 1
9 546 1
9 553 1
10 253 1
10 259 1
10 274 1
10 293 1
10 300 1
10 314 1
10 333 1
10 343 1
10 354 1
10 359 1
10 380 1
10 383 1
10 384 1
10 403 1
10 415 1
10 416 1
10 434 1
10 450 1
10 453 1
10 469 1
10 485 1
10 542 1
10 546 1
10 548 1
10 555 1
11 255 1
11 261 1
11 276 1
11 295 1
11 302 1
11 316 1
11 335 1
11 345 1
11 356 1
11 361 1
11 382 1
11 385 1
11 386 1
11 405 1
11 417 1
11 418 1
11 436 1
11 452 1
11 455 1
11 471 1
11 487 1
11 544 1
11 548 1
11 550 1
11 557 1
12 257 1
12 263 1
12 278 1
12 297 1
12 304 1
12 318 1
12 337 1
12 347 1
12 358 1
12 363 1
12 384 1
12 387 1
12 388 1
12 407 1
12 419 1
12 420 1
12 438 1
12 454 1
12 457 1
12 473 1
12 489 1
12 546 1
12 550 1
12 552 1
12 559 1
13 259 1
13 265 1
13 280 1
13 299 1
13 306 1
13 320 1
13 339 1
13 349 1
13 360 1
13 365 1
13 386 1
13 389 1
13 390 1
13 409 1
13 421 1
13 422 1
13 440 1
13 456 1
13 459 1
13 475 1
13 481 1
13 491 1
13 548 1
13 552 1
13 554 1
14 242 1
14 261 1
14 267 1
14 282 1
14 301 1
14 308 1
14 341 1
14 351 1
14 362 1
14 367 1
14 388 1
14 391 1
14 392 1
14 411 1
14 423 1
14 424 1
14 442 1
14 458 1
14 461 1
14 477 1
14 483 1
14 493 1
14 550 1
14 554 1
14 556 1
15 244 1
15 263 1
15 269 1
15 284 1
15 303 1
15 310 1
15 343 1
15 353 1
15 364 1
15 369 1
15 390 1
15 393 1
15 394 1
15 413 1
15 425 1
15 426 1
15 444 1
15 460 1
15 463 1
15 479 1
15 485 1
15 495 1
15 552 1
15 556 1
15 558 1
16 246 1
16 265 1
16 271 1
16 286 1
16 305 1
16 312 1
16 345 1
16 355 1
16 366 1
16 371 1
16 392 1
16 395 1
16 396 1
16 401 1
16 415 1
16 427 1
16 428 1
16 446 1
16 462 1
16 465 1
16 487 1
16 497 1
16 554 1
16 558 1
16 560 1
17 248 1
17 267 1
17 273 1
17 288 1
17 307 1
17 314 1
17 347 1
17 357 1
17 368 1
17 373 1
17 394 1
17 397 1
17 398 1
17 403 1
17 417 1
17 429 1
17 430 1
17 448 1
17 464 1
17 467 1
17 482 1
17 489 1
17 499 1
17 556 1
17 560 1
18 250 1
18 269 1
18 275 1
18 290 1
18 309 1
18 316 1
18 349 1
18 359 1
18 370 1
18 375 1
18 396 1
18 399 1
18 400 1
18 405 1
18 419 1
18 431 1
18 432 1
18 450 1
18 466 1
18 469 1
18 482 1
18 484 1
18 491 1
18 501 1
18 558 1
19 252 1
19 271 1
19 277 1
19 292 1
19 311 1
19 318 1
19 321 1
19 322 1
19 351 1
19 361 1
19 372 1
19 377 1
19 398 1
19 407 1
19 421 1
19 433 1
19 434 1
19 452 1
19 468 1
19 471 1
19 484 1
19 486 1
19 493 1
19 503 1
19 560 1
20 254 1
20 273 1
20 279 1
20 294 1
20 313 1
20 320 1
20 323 1
20 324 1
20 353 1
20 363 1
20 374 1
20 379 1
20 400 1
20 409 1
20 423 1
20 435 1
20 436 1
20 454 1
20 470 1
20 473 1
20 482 1
20 486 1
20 488 1
20 495 1
20 505 1
21 242 1
21 256 1
21 275 1
21 281 1
21 296 1
21 315 1
21 322 1
21 325 1
21 326 1
21 355 1
21 365 1
21 376 1
21 381 1
21 411 1
21 425 1
21 437 1
21 438 1
21 456 1
21 472 1
21 475 1
21 484 1
21 488 1
21 490 1
21 497 1
21 507 1
22 244 1
22 258 1
22 277 1
22 283 1
22 298 1
22 317 1
22 324 1
22 327 1
22 328 1
22 357 1
22 367 1
22 378 1
22 383 1
22 413 1
22 427 1
22 439 1
22 440 1
22 458 1
22 474 1
22 477 1
22 486 1
22 490 1
22 492 1
22 499 1
22 509 1
23 246 1
23 260 1
23 279 1
23 285 1
23 300 1
23 319 1
23 326 1
23 329 1
23 330 1
23 359 1
23 369 1
23 380 1
23 385 1
23 415 1
23 429 1
23 441 1
23 442 1
23 460 1
23 476 1
23 479 1
23 488 1
23 492 1
23 494 1
23 501 1
23 511 1
24 241 1
24 248 1
24 262 1
24 281 1
24 287 1
24 302 1
24 328 1
24 331 1
24 332 1
24 361 1
24 371 1
24 382 1
24 387 1
24 401 1
24 417 1
24 431 1
24 443 1
24 444 1
24 462 1
24 478 1
24 490 1
24 494 1
24 496 1
24 503 1
24 513 1
25 243 1
25 250 1
25 264 1
25 283 1
25 289 1
25 304 1
25 330 1
25 333 1
25 334 1
25 363 1
25 373 1
25 384 1
25 389 1
25 403 1
25 419 1
25 433 1
25 445 1
25 446 1
25 464 1
25 480 1
25 492 1
25 496 1
25 498 1
25 505 1
25 515 1
26 245 1
26 252 1
26 266 1
26 285 1
26 291 1
26 306 1
26 332 1
26 335 1
26 336 1
26 365 1
26 375 1
26 386 1
26 391 1
26 402 1
26 405 1
26 421 1
26 435 1
26 447 1
26 448 1
26 466 1
26 494 1
26 498 1
26 500 1
26 507 1
26 517 1
27 247 1
27 254 1
27 268 1
27 287 1
27 293 1
27 308 1
27 334 1
27 337 1
27 338 1
27 367 1
27 377 1
27 388 1
27 393 1
27 404 1
27 407 1
27 423 1
27 437 1
27 449 1
27 450 1
27 468 1
27 496 1
27 500 1
27 502 1
27 509 1
27 519 1
28 249 1
28 256 1
28 270 1
28 289 1
28 295 1
28 310 1
28 336 1
28 339 1
28 340 1
28 369 1
28 379 1
28 390 1
28 395 1
28 406 1
28 409 1
28 425 1
28 439 1
28 451 1
28 452 1
28 470 1
28 498 1
28 502 1
28 504 1
28 511 1
28 521 1
29 251 1
29 258 1
29 272 1
29 291 1
29 297 1
29 312 1
29 338 1
29 341 1
29 342 1
29 371 1
29 381 1
29 392 1
29 397 1
29 408 1
29 411 1
29 427 1
29 441 1
29 453 1
29 454 1
29 472 1
29 500 1
29 504 1
29 506 1
29 513 1
29 523 1
30 253 1
30 260 1
30 274 1
30 293 1
30 299 1
30 314 1
30 340 1
30 343 1
30 344 1
30 373 1
30 383 1
30 394 1
30 399 1
30 410 1
30 413 1
30 429 1
30 443 1
30 455 1
30 456 1
30 474 1
30 502 1
30 506 1
30 508 1
30 515 1
30 525 1
31 255 1
31 262 1
31 276 1
31 295 1
31 301 1
31 316 1
31 321 1
31 342 1
31 345 1
31 346 1
31 375 1
31 385 1
31 396 1
31 412 1
31 415 1
31 431 1
31 445 1
31 457 1
31 458 1
31 476 1
31 504 1
31 508 1
31 510 1
31 517 1
31 527 1
32 257 1
32 264 1
32 278 1
32 297 1
32 303 1
32 318 1
32 323 1
32 344 1
32 347 1
32 348 1
32 377 1
32 387 1
32 398 1
32 414 1
32 417 1
32 433 1
32 447 1
32 459 1
32 460 1
32 478 1
32 506 1
32 510 1
32 512 1
32 519 1
32 529 1
33 259 1
33 266 1
33 280 1
33 299 1
33 305 1
33 320 1
33 325 1
33 346 1
33 349 1
33 350 1
33 379 1
33 389 1
33 400 1
33 416 1
33 419 1
33 435 1
33 449 1
33 461 1
33 462 1
33 480 1
33 508 1
33 512 1
33 514 1
33 521 1
33 531 1
34 242 1
34 261 1
34 268 1
34 282 1
34 301 1
34 307 1
34 322 1
34 327 1
34 348 1
34 351 1
34 352 1
34 381 1
34 391 1
34 402 1
34 418 1
34 421 1
34 437 1
34 451 1
34 463 1
34 464 1
34 510 1
34 514 1
34 516 1
34 523 1
34 533 1
35 244 1
35 263 1
35 270 1
35 284 1
35 303 1
35 309 1
35 324 1
35 329 1
35 350 1
35 353 1
35 354 1
35 383 1
35 393 1
35 404 1
35 420 1
35 423 1
35 439 1
35 453 1
35 465 1
35 466 1
35 512 1
35 516 1
35 518 1
35 525 1
35 535 1
36 246 1
36 265 1
36 272 1
36 286 1
36 305 1
36 311 1
36 326 1
36 331 1
36 352 1
36 355 1
36 356 1
36 385 1
36 395 1
36 406 1
36 422 1
36 425 1
36 441 1
36 455 1
36 467 1
36 468 1
36 514 1
36 518 1
36 520 1
36 527 1
36 537 1
37 248 1
37 267 1
37 274 1
37 288 1
37 307 1
37 313 1
37 328 1
37 333 1
37 354 1
37 357 1
37 358 1
37 387 1
37 397 1
37 408 1
37 424 1
37 427 1
37 443 1
37 457 1
37 469 1
37 470 1
37 516 1
37 520 1
37 522 1
37 529 1
37 539 1
38 250 1
38 269 1
38 276 1
38 290 1
38 309 1
38 315 1
38 330 1
38 335 1
38 356 1
38 359 1
38 360 1
38 389 1
38 399 1
38 410 1
38 426 1
38 429 1
38 445 1
38 459 1
38 471 1
38 472 1
38 518 1
38 522 1
38 524 1
38 531 1
38 541 1
39 252 1
39 271 1
39 278 1
39 292 1
39 311 1
39 317 1
39 321 1
39 332 1
39 337 1
39 358 1
39 361 1
39 362 1
39 391 1
39 412 1
39 428 1
39 431 1
39 447 1
39 461 1
39 473 1
39 474 1
39 520 1
39 524 1
39 526 1
39 533 1
39 543 1
40 254 1
40 273 1
40 280 1
40 294 1
40 313 1
40 319 1
40 323 1
40 334 1
40 339 1
40 360 1
40 363 1
40 364 1
40 393 1
40 414 1
40 430 1
40 433 1
40 449 1
40 463 1
40 475 1
40 476 1
40 522 1
40 526 1
40 528 1
40 535 1
40 545 1
41 242 1
41 255 1
41 256 1
41 276 1
41 281 1
41 282 1
41 295 1
41 296 1
41 316 1
41 326 1
41 335 1
41 336 1
41 342 1
41 361 1
41 362 1
41 365 1
41 396 1
41 415 1
41 416 1
41 431 1
41 432 1
41 436 1
41 452 1
41 466 1
41 477 1
41 523 1
41 524 1
41 527 1
41 528 1
41 529 1
41 530 1
41 538 1
41 548 1
42 244 1
42 257 1
42 258 1
42 278 1
42 283 1
42 284 1
42 297 1
42 298 1
42 318 1
42 328 1
42 337 1
42 338 1
42 344 1
42 363 1
42 364 1
42 367 1
42 398 1
42 417 1
42 418 1
42 433 1
42 434 1
42 438 1
42 454 1
42 468 1
42 479 1
42 525 1
42 526 1
42 529 1
42 530 1
42 531 1
42 532 1
42 540 1
42 550 1
43 246 1
43 259 1
43 260 1
43 280 1
43 285 1
43 286 1
43 299 1
43 300 1
43 320 1
43 330 1
43 339 1
43 340 1
43 346 1
43 365 1
43 366 1
43 369 1
43 400 1
43 401 1
43 419 1
43 420 1
43 435 1
43 436 1
43 440 1
43 456 1
43 470 1
43 527 1
43 528 1
43 531 1
43 532 1
43 533 1
43 534 1
43 542 1
43 552 1
44 242 1
44 248 1
44 261 1
44 262 1
44 282 1
44 287 1
44 288 1
44 301 1
44 302 1
44 322 1
44 332 1
44 341 1
44 342 1
44 348 1
44 367 1
44 368 1
44 371 1
44 403 1
44 421 1
44 422 1
44 437 1
44 438 1
44 442 1
44 458 1
44 472 1
44 529 1
44 530 1
44 533 1
44 534 1
44 535 1
44 536 1
44 544 1
44 554 1
45 244 1
45 250 1
45 263 1
45 264 1
45 284 1
45 289 1
45 290 1
45 303 1
45 304 1
45 324 1
45 334 1
45 343 1
45 344 1
45 350 1
45 369 1
45 370 1
45 373 1
45 405 1
45 423 1
45 424 1
45 439 1
45 440 1
45 444 1
45 460 1
45 474 1
45 531 1
45 532 1
45 535 1
45 536 1
45 537 1
45 538 1
45 546 1
45 556 1
46 246 1
46 252 1
46 265 1
46 266 1
46 286 1
46 291 1
46 292 1
46 305 1
46 306 1
46 326 1
46 336 1
46 345 1
46 346 1
46 352 1
46 371 1
46 372 1
46 375 1
46 407 1
46 425 1
46 426 1
46 441 1
46 442 1
46 446 1
46 462 1
46 476 1
46 533 1
46 534 1
46 537 1
46 538 1
46 539 1
46 540 1
46 548 1
46 558 1
47 248 1
47 254 1
47 267 1
47 268 1
47 288 1
47 293 1
47 294 1
47 307 1
47 308 1
47 328 1
47 338 1
47 347 1
47 348 1
47 354 1
47 373 1
47 374 1
47 377 1
47 409 1
47 427 1
47 428 1
47 443 1
47 444 1
47 448 1
47 464 1
47 478 1
47 535 1
47 536 1
47 539 1
47 540 1
47 541 1
47 542 1
47 550 1
47 560 1
48 250 1
48 256 1
48 269 1
48 270 1
48 290 1
48 295 1
48 296 1
48 309 1
48 310 1
48 330 1
48 340 1
48 349 1
48 350 1
48 356 1
48 375 1
48 376 1
48 379 1
48 411 1
48 429 1
48 430 1
48 445 1
48 446 1
48 450 1
48 466 1
48 480 1
48 482 1
48 537 1
48 538 1
48 541 1
48 542 1
48 543 1
48 544 1
48 552 1
49 252 1
49 258 1
49 271 1
49 272 1
49 292 1
49 297 1
49 298 1
49 311 1
49 312 1
49 332 1
49 342 1
49 351 1
49 352 1
49 358 1
49 377 1
49 378 1
49 381 1
49 402 1
49 413 1
49 431 1
49 432 1
49 447 1
49 448 1
49 452 1
49 468 1
49 484 1
49 539 1
49 540 1
49 543 1
49 544 1
49 545 1
49 546 1
49 554 1
50 254 1
50 260 1
50 273 1
50 274 1
50 294 1
50 299 1
50 300 1
50 313 1
50 314 1
50 334 1
50 344 1
50 353 1
50 354 1
50 360 1
50 379 1
50 380 1
50 383 1
50 404 1
50 415 1
50 433 1
50 434 1
50 449 1
50 450 1
50 454 1
50 470 1
50 486 1
50 541 1
50 542 1
50 545 1
50 546 1
50 547 1
50 548 1
50 556 1
51 256 1
51 262 1
51 275 1
51 276 1
51 296 1
51 301 1
51 302 1
51 315 1
51 316 1
51 336 1
51 346 1
51 355 1
51 356 1
51 362 1
51 381 1
51 382 1
51 385 1
51 406 1
51 417 1
51 435 1
51 436 1
51 451 1
51 452 1
51 456 1
51 472 1
51 488 1
51 543 1
51 544 1
51 547 1
51 548 1
51 549 1
51 550 1
51 558 1
52 258 1
52 264 1
52 277 1
52 278 1
52 298 1
52 303 1
52 304 1
52 317 1
52 318 1
52 338 1
52 348 1
52 357 1
52 358 1
52 364 1
52 383 1
52 384 1
52 387 1
52 408 1
52 419 1
52 437 1
52 438 1
52 453 1
52 454 1
52 458 1
52 474 1
52 490 1
52 545 1
52 546 1
52 549 1
52 550 1
52 551 1
52 552 1
52 560 1
53 260 1
53 266 1
53 279 1
53 280 1
53 300 1
53 305 1
53 306 1
53 319 1
53 320 1
53 340 1
53 350 1
53 359 1
53 360 1
53 366 1
53 385 1
53 386 1
53 389 1
53 410 1
53 421 1
53 439 1
53 440 1
53 455 1
53 456 1
53 460 1
53 476 1
53 482 1
53 492 1
53 547 1
53 548 1
53 551 1
53 552 1
53 553 1
53 554 1
54 241 1
54 242 1
54 262 1
54 268 1
54 281 1
54 282 1
54 302 1
54 307 1
54 308 1
54 342 1
54 352 1
54 361 1
54 362 1
54 368 1
54 387 1
54 388 1
54 391 1
54 412 1
54 423 1
54 441 1
54 442 1
54 457 1
54 458 1
54 462 1
54 478 1
54 484 1
54 494 1
54 549 1
54 550 1
54 553 1
54 554 1
54 555 1
54 556 1
55 243 1
55 244 1
55 264 1
55 270 1
55 283 1
55 284 1
55 304 1
55 309 1
55 310 1
55 344 1
55 354 1
55 363 1
55 364 1
55 370 1
55 389 1
55 390 1
55 393 1
55 414 1
55 425 1
55 443 1
55 444 1
55 459 1
55 460 1
55 464 1
55 480 1
55 486 1
55 496 1
55 551 1
55 552 1
55 555 1
55 556 1
55 557 1
55 558 1
56 245 1
56 246 1
56 266 1
56 272 1
56 285 1
56 286 1
56 306 1
56 311 1
56 312 1
56 346 1
56 356 1
56 365 1
56 366 1
56 372 1
56 391 1
56 392 1
56 395 1
56 402 1
56 416 1
56 427 1
56 445 1
56 446 1
56 461 1
56 462 1
56 466 1
56 488 1
56 498 1
56 553 1
56 554 1
56 557 1
56 558 1
56 559 1
56 560 1
57 247 1
57 248 1
57 268 1
57 274 1
57 287 1
57 288 1
57 308 1
57 313 1
57 314 1
57 348 1
57 358 1
57 367 1
57 368 1
57 374 1
57 393 1
57 394 1
57 397 1
57 404 1
57 418 1
57 429 1
57 447 1
57 448 1
57 463 1
57 464 1
57 468 1
57 481 1
57 482 1
57 490 1
57 500 1
57 555 1
57 556 1
57 559 1
57 560 1
58 249 1
58 250 1
58 270 1
58 276 1
58 289 1
58 290 1
58 310 1
58 315 1
58 316 1
58 350 1
58 360 1
58 369 1
58 370 1
58 376 1
58 395 1
58 396 1
58 399 1
58 406 1
58 420 1
58 431 1
58 449 1
58 450 1
58 465 1
58 466 1
58 470 1
58 481 1
58 482 1
58 483 1
58 484 1
58 492 1
58 502 1
58 557 1
58 558 1
59 251 1
59 252 1
59 272 1
59 278 1
59 291 1
59 292 1
59 312 1
59 317 1
59 318 1
59 321 1
59 352 1
59 362 1
59 371 1
59 372 1
59 378 1
59 397 1
59 398 1
59 408 1
59 422 1
59 433 1
59 451 1
59 452 1
59 467 1
59 468 1
59 472 1
59 483 1
59 484 1
59 485 1
59 486 1
59 494 1
59 504 1
59 559 1
59 560 1
60 253 1
60 254 1
60 274 1
60 280 1
60 293 1
60 294 1
60 314 1
60 319 1
60 320 1
60 323 1
60 354 1
60 364 1
60 373 1
60 374 1
60 380 1
60 399 1
60 400 1
60 410 1
60 424 1
60 435 1
60 453 1
60 454 1
60 469 1
60 470 1
60 474 1
60 481 1
60 482 1
60 485 1
60 486 1
60 487 1
60 488 1
60 496 1
60 506 1
61 241 1
61 242 1
61 255 1
61 256 1
61 276 1
61 282 1
61 295 1
61 296 1
61 316 1
61 321 1
61 322 1
61 325 1
61 356 1
61 366 1
61 375 1
61 376 1
61 382 1
61 412 1
61 426 1
61 437 1
61 455 1
61 456 1
61 471 1
61 472 1
61 476 1
61 483 1
61 484 1
61 487 1
61 488 1
61 489 1
61 490 1
61 498 1
61 508 1
62 243 1
62 244 1
62 257 1
62 258 1
62 278 1
62 284 1
62 297 1
62 298 1
62 318 1
62 323 1
62 324 1
62 327 1
62 358 1
62 368 1
62 377 1
62 378 1
62 384 1
62 414 1
62 428 1
62 439 1
62 457 1
62 458 1
62 473 1
62 474 1
62 478 1
62 485 1
62 486 1
62 489 1
62 490 1
62 491 1
62 492 1
62 500 1
62 510 1
63 245 1
63 246 1
63 259 1
63 260 1
63 280 1
63 286 1
63 299 1
63 300 1
63 320 1
63 325 1
63 326 1
63 329 1
63 360 1
63 370 1
63 379 1
63 380 1
63 386 1
63 416 1
63 430 1
63 441 1
63 459 1
63 460 1
63 475 1
63 476 1
63 480 1
63 487 1
63 488 1
63 491 1
63 492 1
63 493 1
63 494 1
63 502 1
63 512 1
64 242 1
64 247 1
64 248 1
64 261 1
64 262 1
64 282 1
64 288 1
64 301 1
64 302 1
64 327 1
64 328 1
64 331 1
64 362 1
64 372 1
64 381 1
64 382 1
64 388 1
64 402 1
64 418 1
64 432 1
64 443 1
64 461 1
64 462 1
64 477 1
64 478 1
64 489 1
64 490 1
64 493 1
64 494 1
64 495 1
64 496 1
64 504 1
64 514 1
65 244 1
65 249 1
65 250 1
65 263 1
65 264 1
65 284 1
65 290 1
65 303 1
65 304 1
65 329 1
65 330 1
65 333 1
65 364 1
65 374 1
65 383 1
65 384 1
65 390 1
65 404 1
65 420 1
65 434 1
65 445 1
65 463 1
65 464 1
65 479 1
65 480 1
65 491 1
65 492 1
65 495 1
65 496 1
65 497 1
65 498 1
65 506 1
65 516 1
66 246 1
66 251 1
66 252 1
66 265 1
66 266 1
66 286 1
66 292 1
66 305 1
66 306 1
66 331 1
66 332 1
66 335 1
66 366 1
66 376 1
66 385 1
66 386 1
66 392 1
66 401 1
66 402 1
66 406 1
66 422 1
66 436 1
66 447 1
66 465 1
66 466 1
66 493 1
66 494 1
66 497 1
66 498 1
66 499 1
66 500 1
66 508 1
66 518 1
67 248 1
67 253 1
67 254 1
67 267 1
67 268 1
67 288 1
67 294 1
67 307 1
67 308 1
67 333 1
67 334 1
67 337 1
67 368 1
67 378 1
67 387 1
67 388 1
67 394 1
67 403 1
67 404 1
67 408 1
67 424 1
67 438 1
67 449 1
67 467 1
67 468 1
67 495 1
67 496 1
67 499 1
67 500 1
67 501 1
67 502 1
67 510 1
67 520 1
68 250 1
68 255 1
68 256 1
68 269 1
68 270 1
68 290 1
68 296 1
68 309 1
68 310 1
68 335 1
68 336 1
68 339 1
68 370 1
68 380 1
68 389 1
68 390 1
68 396 1
68 405 1
68 406 1
68 410 1
68 426 1
68 440 1
68 451 1
68 469 1
68 470 1
68 497 1
68 498 1
68 501 1
68 502 1
68 503 1
68 504 1
68 512 1
68 522 1
69 252 1
69 257 1
69 258 1
69 271 1
69 272 1
69 292 1
69 298 1
69 311 1
69 312 1
69 337 1
69 338 1
69 341 1
69 372 1
69 382 1
69 391 1
69 392 1
69 398 1
69 407 1
69 408 1
69 412 1
69 428 1
69 442 1
69 453 1
69 471 1
69 472 1
69 499 1
69 500 1
69 503 1
69 504 1
69 505 1
69 506 1
69 514 1
69 524 1
70 254 1
70 259 1
70 260 1
70 273 1
70 274 1
70 294 1
70 300 1
70 313 1
70 314 1
70 339 1
70 340 1
70 343 1
70 374 1
70 384 1
70 393 1
70 394 1
70 400 1
70 409 1
70 410 1
70 414 1
70 430 1
70 444 1
70 455 1
70 473 1
70 474 1
70 501 1
70 502 1
70 505 1
70 506 1
70 507 1
70 508 1
70 516 1
70 526 1
71 256 1
71 261 1
71 262 1
71 275 1
71 276 1
71 296 1
71 302 1
71 315 1
71 316 1
71 322 1
71 341 1
71 342 1
71 345 1
71 376 1
71 386 1
71 395 1
71 396 1
71 411 1
71 412 1
71 416 1
71 432 1
71 446 1
71 457 1
71 475 1
71 476 1
71 503 1
71 504 1
71 507 1
71 508 1
71 509 1
71 510 1
71 518 1
71 528 1
72 258 1
72 263 1
72 264 1
72 277 1
72 278 1
72 298 1
72 304 1
72 317 1
72 318 1
72 324 1
72 343 1
72 344 1
72 347 1
72 378 1
72 388 1
72 397 1
72 398 1
72 413 1
72 414 1
72 418 1
72 434 1
72 448 1
72 459 1
72 477 1
72 478 1
72 505 1
72 506 1
72 509 1
72 510 1
72 511 1
72 512 1
72 520 1
72 530 1
73 260 1
73 265 1
73 266 1
73 279 1
73 280 1
73 300 1
73 306 1
73 319 1
73 320 1
73 326 1
73 345 1
73 346 1
73 349 1
73 380 1
73 390 1
73 399 1
73 400 1
73 415 1
73 416 1
73 420 1
73 436 1
73 450 1
73 461 1
73 479 1
73 480 1
73 507 1
73 508 1
73 511 1
73 512 1
73 513 1
73 514 1
73 522 1
73 532 1
74 241 1
74 242 1
74 262 1
74 267 1
74 268 1
74 281 1
74 282 1
74 302 1
74 308 1
74 321 1
74 322 1
74 328 1
74 347 1
74 348 1
74 351 1
74 382 1
74 392 1
74 401 1
74 402 1
74 417 1
74 418 1
74 422 1
74 438 1
74 452 1
74 463 1
74 509 1
74 510 1
74 513 1
74 514 1
74 515 1
74 516 1
74 524 1
74 534 1
75 243 1
75 244 1
75 264 1
75 269 1
75 270 1
75 283 1
75 284 1
75 304 1
75 310 1
75 323 1
75 324 1
75 330 1
75 349 1
75 350 1
75 353 1
75 384 1
75 394 1
75 403 1
75 404 1
75 419 1
75 420 1
75 424 1
75 440 1
75 454 1
75 465 1
75 511 1
75 512 1
75 515 1
75 516 1
75 517 1
75 518 1
75 526 1
75 536 1
76 245 1
76 246 1
76 266 1
76 271 1
76 272 1
76 285 1
76 286 1
76 306 1
76 312 1
76 325 1
76 326 1
76 332 1
76 351 1
76 352 1
76 355 1
76 386 1
76 396 1
76 405 1
76 406 1
76 421 1
76 422 1
76 426 1
76 442 1
76 456 1
76 467 1
76 513 1
76 514 1
76 517 1
76 518 1
76 519 1
76 520 1
76 528 1
76 538 1
77 247 1
77 248 1
77 268 1
77 273 1
77 274 1
77 287 1
77 288 1
77 308 1
77 314 1
77 327 1
77 328 1
77 334 1
77 353 1
77 354 1
77 357 1
77 388 1
77 398 1
77 407 1
77 408 1
77 423 1
77 424 1
77 428 1
77 444 1
77 458 1
77 469 1
77 515 1
77 516 1
77 519 1
77 520 1
77 521 1
77 522 1
77 530 1
77 540 1
78 249 1
78 250 1
78 270 1
78 275 1
78 276 1
78 289 1
78 290 1
78 310 1
78 316 1
78 329 1
78 330 1
78 336 1
78 355 1
78 356 1
78 359 1
78 390 1
78 400 1
78 409 1
78 410 1
78 425 1
78 426 1
78 430 1
78 446 1
78 460 1
78 471 1
78 517 1
78 518 1
78 521 1
78 522 1
78 523 1
78 524 1
78 532 1
78 542 1
79 251 1
79 252 1
79 272 1
79 277 1
79 278 1
79 291 1
79 292 1
79 312 1
79 318 1
79 322 1
79 331 1
79 332 1
79 338 1
79 357 1
79 358 1
79 361 1
79 392 1
79 411 1
79 412 1
79 427 1
79 428 1
79 432 1
79 448 1
79 462 1
79 473 1
79 519 1
79 520 1
79 523 1
79 524 1
79 525 1
79 526 1
79 534 1
79 544 1
80 253 1
80 254 1
80 274 1
80 279 1
80 280 1
80 293 1
80 294 1
80 314 1
80 320 1
80 324 1
80 333 1
80 334 1
80 340 1
80 359 1
80 360 1
80 363 1
80 394 1
80 413 1
80 414 1
80 429 1
80 430 1
80 434 1
80 450 1
80 464 1
80 475 1
80 521 1
80 522 1
80 525 1
80 526 1
80 527 1
80 528 1
80 536 1
80 546 1
81 333 1
81 334 1
81 374 1
81 423 1
81 425 1
81 426 1
81 431 1
81 443 1
81 444 1
81 452 1
81 465 1
81 466 1
81 497 1
81 498 1
81 503 1
81 524 1
81 535 1
81 537 1
81 538 1
81 555 1
81 556 1
81 561 1
81 562 1
81 575 1
81 595 1
81 596 1
81 601 1
81 615 1
81 635 1
81 636 1
82 335 1
82 336 1
82 376 1
82 425 1
82 427 1
82 428 1
82 433 1
82 445 1
82 446 1
82 454 1
82 467 1
82 468 1
82 499 1
82 500 1
82 505 1
82 526 1
82 537 1
82 539 1
82 540 1
82 557 1
82 558 1
82 563 1
82 564 1
82 577 1
82 597 1
82 598 1
82 603 1
82 617 1
82 637 1
82 638 1
83 337 1
83 338 1
83 378 1
83 427 1
83 429 1
83 430 1
83 435 1
83 447 1
83 448 1
83 456 1
83 469 1
83 470 1
83 501 1
83 502 1
83 507 1
83 528 1
83 539 1
83 541 1
83 542 1
83 559 1
83 560 1
83 565 1
83 566 1
83 579 1
83 599 1
83 600 1
83 605 1
83 619 1
83 639 1
83 640 1
84 339 1
84 340 1
84 380 1
84 429 1
84 431 1
84 432 1
84 437 1
84 449 1
84 450 1
84 458 1
84 471 1
84 472 1
84 481 1
84 482 1
84 503 1
84 504 1
84 509 1
84 530 1
84 541 1
84 543 1
84 544 1
84 561 1
84 562 1
84 567 1
84 568 1
84 581 1
84 601 1
84 602 1
84 607 1
84 621 1
85 341 1
85 342 1
85 382 1
85 431 1
85 433 1
85 434 1
85 439 1
85 451 1
85 452 1
85 460 1
85 473 1
85 474 1
85 483 1
85 484 1
85 505 1
85 506 1
85 511 1
85 532 1
85 543 1
85 545 1
85 546 1
85 563 1
85 564 1
85 569 1
85 570 1
85 583 1
85 603 1
85 604 1
85 609 1
85 623 1
86 343 1
86 344 1
86 384 1
86 433 1
86 435 1
86 436 1
86 441 1
86 453 1
86 454 1
86 462 1
86 475 1
86 476 1
86 485 1
86 486 1
86 507 1
86 508 1
86 513 1
86 534 1
86 545 1
86 547 1
86 548 1
86 565 1
86 566 1
86 571 1
86 572 1
86 585 1
86 605 1
86 606 1
86 611 1
86 625 1
87 345 1
87 346 1
87 386 1
87 435 1
87 437 1
87 438 1
87 443 1
87 455 1
87 456 1
87 464 1
87 477 1
87 478 1
87 487 1
87 488 1
87 509 1
87 510 1
87 515 1
87 536 1
87 547 1
87 549 1
87 550 1
87 567 1
87 568 1
87 573 1
87 574 1
87 587 1
87 607 1
87 608 1
87 613 1
87 627 1
88 347 1
88 348 1
88 388 1
88 437 1
88 439 1
88 440 1
88 445 1
88 457 1
88 458 1
88 466 1
88 479 1
88 480 1
88 489 1
88 490 1
88 511 1
88 512 1
88 517 1
88 538 1
88 549 1
88 551 1
88 552 1
88 569 1
88 570 1
88 575 1
88 576 1
88 589 1
88 609 1
88 610 1
88 615 1
88 629 1
89 349 1
89 350 1
89 390 1
89 401 1
89 402 1
89 439 1
89 441 1
89 442 1
89 447 1
89 459 1
89 460 1
89 468 1
89 491 1
89 492 1
89 513 1
89 514 1
89 519 1
89 540 1
89 551 1
89 553 1
89 554 1
89 571 1
89 572 1
89 577 1
89 578 1
89 591 1
89 611 1
89 612 1
89 617 1
89 631 1
90 351 1
90 352 1
90 392 1
90 403 1
90 404 1
90 441 1
90 443 1
90 444 1
90 449 1
90 461 1
90 462 1
90 470 1
90 493 1
90 494 1
90 515 1
90 516 1
90 521 1
90 542 1
90 553 1
90 555 1
90 556 1
90 573 1
90 574 1
90 579 1
90 580 1
90 593 1
90 613 1
90 614 1
90 619 1
90 633 1
91 353 1
91 354 1
91 394 1
91 405 1
91 406 1
91 443 1
91 445 1
91 446 1
91 451 1
91 463 1
91 464 1
91 472 1
91 495 1
91 496 1
91 517 1
91 518 1
91 523 1
91 544 1
91 555 1
91 557 1
91 558 1
91 575 1
91 576 1
91 581 1
91 582 1
91 595 1
91 615 1
91 616 1
91 621 1
91 635 1
92 355 1
92 356 1
92 396 1
92 407 1
92 408 1
92 445 1
92 447 1
92 448 1
92 453 1
92 465 1
92 466 1
92 474 1
92 497 1
92 498 1
92 519 1
92 520 1
92 525 1
92 546 1
92 557 1
92 559 1
92 560 1
92 577 1
92 578 1
92 583 1
92 584 1
92 597 1
92 617 1
92 618 1
92 623 1
92 637 1
93 357 1
93 358 1
93 398 1
93 409 1
93 410 1
93 447 1
93 449 1
93 450 1
93 455 1
93 467 1
93 468 1
93 476 1
93 481 1
93 482 1
93 499 1
93 500 1
93 521 1
93 522 1
93 527 1
93 548 1
93 559 1
93 579 1
93 580 1
93 585 1
93 586 1
93 599 1
93 619 1
93 620 1
93 625 1
93 639 1
94 359 1
94 360 1
94 400 1
94 411 1
94 412 1
94 449 1
94 451 1
94 452 1
94 457 1
94 469 1
94 470 1
94 478 1
94 481 1
94 483 1
94 484 1
94 501 1
94 502 1
94 523 1
94 524 1
94 529 1
94 550 1
94 561 1
94 581 1
94 582 1
94 587 1
94 588 1
94 601 1
94 621 1
94 622 1
94 627 1
95 322 1
95 361 1
95 362 1
95 413 1
95 414 1
95 451 1
95 453 1
95 454 1
95 459 1
95 471 1
95 472 1
95 480 1
95 483 1
95 485 1
95 486 1
95 503 1
95 504 1
95 525 1
95 526 1
95 531 1
95 552 1
95 563 1
95 583 1
95 584 1
95 589 1
95 590 1
95 603 1
95 623 1
95 624 1
95 629 1
96 324 1
96 363 1
96 364 1
96 402 1
96 415 1
96 416 1
96 453 1
96 455 1
96 456 1
96 461 1
96 473 1
96 474 1
96 485 1
96 487 1
96 488 1
96 505 1
96 506 1
96 527 1
96 528 1
96 533 1
96 554 1
96 565 1
96 585 1
96 586 1
96 591 1
96 592 1
96 605 1
96 625 1
96 626 1
96 631 1
97 326 1
97 365 1
97 366 1
97 404 1
97 417 1
97 418 1
97 455 1
97 457 1
97 458 1
97 463 1
97 475 1
97 476 1
97 487 1
97 489 1
97 490 1
97 507 1
97 508 1
97 529 1
97 530 1
97 535 1
97 556 1
97 567 1
97 587 1
97 588 1
97 593 1
97 594 1
97 607 1
97 627 1
97 628 1
97 633 1
98 328 1
98 367 1
98 368 1
98 406 1
98 419 1
98 420 1
98 457 1
98 459 1
98 460 1
98 465 1
98 477 1
98 478 1
98 489 1
98 491 1
98 492 1
98 509 1
98 510 1
98 531 1
98 532 1
98 537 1
98 558 1
98 569 1
98 589 1
98 590 1
98 595 1
98 596 1
98 609 1
98 629 1
98 630 1
98 635 1
99 330 1
99 369 1
99 370 1
99 408 1
99 421 1
99 422 1
99 459 1
99 461 1
99 462 1
99 467 1
99 479 1
99 480 1
99 491 1
99 493 1
99 494 1
99 511 1
99 512 1
99 533 1
99 534 1
99 539 1
99 560 1
99 571 1
99 591 1
99 592 1
99 597 1
99 598 1
99 611 1
99 631 1
99 632 1
99 637 1
100 332 1
100 371 1
100 372 1
100 401 1
100 402 1
100 410 1
100 423 1
100 424 1
100 461 1
100 463 1
100 464 1
100 469 1
100 482 1
100 493 1
100 495 1
100 496 1
100 513 1
100 514 1
100 535 1
100 536 1
100 541 1
100 573 1
100 593 1
100 594 1
100 599 1
100 600 1
100 613 1
100 633 1
100 634 1
100 639 1
101 334 1
101 373 1
101 374 1
101 403 1
101 404 1
101 412 1
101 425 1
101 426 1
101 463 1
101 465 1
101 466 1
101 471 1
101 484 1
101 495 1
101 497 1
101 498 1
101 515 1
101 516 1
101 537 1
101 538 1
101 543 1
101 561 1
101 575 1
101 595 1
101 596 1
101 601 1
101 602 1
101 615 1
101 635 1
101 636 1
102 336 1
102 375 1
102 376 1
102 405 1
102 406 1
102 414 1
102 427 1
102 428 1
102 465 1
102 467 1
102 468 1
102 473 1
102 486 1
102 497 1
102 499 1
102 500 1
102 517 1
102 518 1
102 539 1
102 540 1
102 545 1
102 563 1
102 577 1
102 597 1
102 598 1
102 603 1
102 604 1
102 617 1
102 637 1
102 638 1
103 338 1
103 377 1
103 378 1
103 407 1
103 408 1
103 416 1
103 429 1
103 430 1
103 467 1
103 469 1
103 470 1
103 475 1
103 488 1
103 499 1
103 501 1
103 502 1
103 519 1
103 520 1
103 541 1
103 542 1
103 547 1
103 565 1
103 579 1
103 599 1
103 600 1
103 605 1
103 606 1
103 619 1
103 639 1
103 640 1
104 340 1
104 379 1
104 380 1
104 409 1
104 410 1
104 418 1
104 431 1
104 432 1
104 469 1
104 471 1
104 472 1
104 477 1
104 490 1
104 501 1
104 503 1
104 504 1
104 521 1
104 522 1
104 543 1
104 544 1
104 549 1
104 561 1
104 562 1
104 567 1
104 581 1
104 601 1
104 602 1
104 607 1
104 608 1
104 621 1
105 342 1
105 381 1
105 382 1
105 411 1
105 412 1
105 420 1
105 433 1
105 434 1
105 471 1
105 473 1
105 474 1
105 479 1
105 492 1
105 503 1
105 505 1
105 506 1
105 523 1
105 524 1
105 545 1
105 546 1
105 551 1
105 563 1
105 564 1
105 569 1
105 583 1
105 603 1
105 604 1
105 609 1
105 610 1
105 623 1
106 344 1
106 383 1
106 384 1
106 401 1
106 413 1
106 414 1
106 422 1
106 435 1
106 436 1
106 473 1
106 475 1
106 476 1
106 494 1
106 505 1
106 507 1
106 508 1
106 525 1
106 526 1
106 547 1
106 548 1
106 553 1
106 565 1
106 566 1
106 571 1
106 585 1
106 605 1
106 606 1
106 611 1
106 612 1
106 625 1
107 346 1
107 385 1
107 386 1
107 403 1
107 415 1
107 416 1
107 424 1
107 437 1
107 438 1
107 475 1
107 477 1
107 478 1
107 496 1
107 507 1
107 509 1
107 510 1
107 527 1
107 528 1
107 549 1
107 550 1
107 555 1
107 567 1
107 568 1
107 573 1
107 587 1
107 607 1
107 608 1
107 613 1
107 614 1
107 627 1
108 348 1
108 387 1
108 388 1
108 405 1
108 417 1
108 418 1
108 426 1
108 439 1
108 440 1
108 477 1
108 479 1
108 480 1
108 498 1
108 509 1
108 511 1
108 512 1
108 529 1
108 530 1
108 551 1
108 552 1
108 557 1
108 569 1
108 570 1
108 575 1
108 589 1
108 609 1
108 610 1
108 615 1
108 616 1
108 629 1
109 350 1
109 389 1
109 390 1
109 401 1
109 402 1
109 407 1
109 419 1
109 420 1
109 428 1
109 441 1
109 442 1
109 479 1
109 500 1
109 511 1
109 513 1
109 514 1
109 531 1
109 532 1
109 553 1
109 554 1
109 559 1
109 571 1
109 572 1
109 577 1
109 591 1
109 611 1
109 612 1
109 617 1
109 618 1
109 631 1
110 352 1
110 391 1
110 392 1
110 401 1
110 403 1
110 404 1
110 409 1
110 421 1
110 422 1
110 430 1
110 443 1
110 444 1
110 481 1
110 502 1
110 513 1
110 515 1
110 516 1
110 533 1
110 534 1
110 555 1
110 556 1
110 573 1
110 574 1
110 579 1
110 593 1
110 613 1
110 614 1
110 619 1
110 620 1
110 633 1
111 354 1
111 393 1
111 394 1
111 403 1
111 405 1
111 406 1
111 411 1
111 423 1
111 424 1
111 432 1
111 445 1
111 446 1
111 483 1
111 504 1
111 515 1
111 517 1
111 518 1
111 535 1
111 536 1
111 557 1
111 558 1
111 575 1
111 576 1
111 581 1
111 595 1
111 615 1
111 616 1
111 621 1
111 622 1
111 635 1
112 356 1
112 395 1
112 396 1
112 405 1
112 407 1
112 408 1
112 413 1
112 425 1
112 426 1
112 434 1
112 447 1
112 448 1
112 485 1
112 506 1
112 517 1
112 519 1
112 520 1
112 537 1
112 538 1
112 559 1
112 560 1
112 577 1
112 578 1
112 583 1
112 597 1
112 617 1
112 618 1
112 623 1
112 624 1
112 637 1
113 358 1
113 397 1
113 398 1
113 407 1
113 409 1
113 410 1
113 415 1
113 427 1
113 428 1
113 436 1
113 449 1
113 450 1
113 481 1
113 482 1
113 487 1
113 508 1
113 519 1
113 521 1
113 522 1
113 539 1
113 540 1
113 579 1
113 580 1
113 585 1
113 599 1
113 619 1
113 620 1
113 625 1
113 626 1
113 639 1
114 360 1
114 399 1
114 400 1
114 409 1
114 411 1
114 412 1
114 417 1
114 429 1
114 430 1
114 438 1
114 451 1
114 452 1
114 483 1
114 484 1
114 489 1
114 510 1
114 521 1
114 523 1
114 524 1
114 541 1
114 542 1
114 561 1
114 581 1
114 582 1
114 587 1
114 601 1
114 621 1
114 622 1
114 627 1
114 628 1
115 321 1
115 322 1
115 362 1
115 411 1
115 413 1
115 414 1
115 419 1
115 431 1
115 432 1
115 440 1
115 453 1
115 454 1
115 485 1
115 486 1
115 491 1
115 512 1
115 523 1
115 525 1
115 526 1
115 543 1
115 544 1
115 563 1
115 583 1
115 584 1
115 589 1
115 603 1
115 623 1
115 624 1
115 629 1
115 630 1
116 323 1
116 324 1
116 364 1
116 413 1
116 415 1
116 416 1
116 421 1
116 433 1
116 434 1
116 442 1
116 455 1
116 456 1
116 487 1
116 488 1
116 493 1
116 514 1
116 525 1
116 527 1
116 528 1
116 545 1
116 546 1
116 565 1
116 585 1
116 586 1
116 591 1
116 605 1
116 625 1
116 626 1
116 631 1
116 632 1
117 325 1
117 326 1
117 366 1
117 415 1
117 417 1
117 418 1
117 423 1
117 435 1
117 436 1
117 444 1
117 457 1
117 458 1
117 489 1
117 490 1
117 495 1
117 516 1
117 527 1
117 529 1
117 530 1
117 547 1
117 548 1
117 567 1
117 587 1
117 588 1
117 593 1
117 607 1
117 627 1
117 628 1
117 633 1
117 634 1
118 327 1
118 328 1
118 368 1
118 417 1
118 419 1
118 420 1
118 425 1
118 437 1
118 438 1
118 446 1
118 459 1
118 460 1
118 491 1
118 492 1
118 497 1
118 518 1
118 529 1
118 531 1
118 532 1
118 549 1
118 550 1
118 569 1
118 589 1
118 590 1
118 595 1
118 609 1
118 629 1
118 630 1
118 635 1
118 636 1
119 329 1
119 330 1
119 370 1
119 419 1
119 421 1
119 422 1
119 427 1
119 439 1
119 440 1
119 448 1
119 461 1
119 462 1
119 493 1
119 494 1
119 499 1
119 520 1
119 531 1
119 533 1
119 534 1
119 551 1
119 552 1
119 571 1
119 591 1
119 592 1
119 597 1
119 611 1
119 631 1
119 632 1
119 637 1
119 638 1
120 331 1
120 332 1
120 372 1
120 421 1
120 423 1
120 424 1
120 429 1
120 441 1
120 442 1
120 450 1
120 463 1
120 464 1
120 495 1
120 496 1
120 501 1
120 522 1
120 533 1
120 535 1
120 536 1
120 553 1
120 554 1
120 573 1
120 593 1
120 594 1
120 599 1
120 613 1
120 633 1
120 634 1
120 639 1
120 640 1
121 333 1
121 373 1
121 374 1
121 424 1
121 425 1
121 432 1
121 443 1
121 451 1
121 452 1
121 465 1
121 497 1
121 504 1
121 523 1
121 524 1
121 536 1
121 537 1
121 555 1
121 561 1
121 576 1
121 595 1
121 602 1
121 616 1
121 635 1
122 335 1
122 375 1
122 376 1
122 426 1
122 427 1
122 434 1
122 445 1
122 453 1
122 454 1
122 467 1
122 499 1
122 506 1
122 525 1
122 526 1
122 538 1
122 539 1
122 557 1
122 563 1
122 578 1
122 597 1
122 604 1
122 618 1
122 637 1
123 337 1
123 377 1
123 378 1
123 428 1
123 429 1
123 436 1
123 447 1
123 455 1
123 456 1
123 469 1
123 501 1
123 508 1
123 527 1
123 528 1
123 540 1
123 541 1
123 559 1
123 565 1
123 580 1
123 599 1
123 606 1
123 620 1
123 639 1
124 339 1
124 379 1
124 380 1
124 430 1
124 431 1
124 438 1
124 449 1
124 457 1
124 458 1
124 471 1
124 481 1
124 503 1
124 510 1
124 529 1
124 530 1
124 542 1
124 543 1
124 561 1
124 567 1
124 582 1
124 601 1
124 608 1
124 622 1
125 341 1
125 381 1
125 382 1
125 432 1
125 433 1
125 440 1
125 451 1
125 459 1
125 460 1
125 473 1
125 483 1
125 505 1
125 512 1
125 531 1
125 532 1
125 544 1
125 545 1
125 563 1
125 569 1
125 584 1
125 603 1
125 610 1
125 624 1
126 343 1
126 383 1
126 384 1
126 434 1
126 435 1
126 442 1
126 453 1
126 461 1
126 462 1
126 475 1
126 485 1
126 507 1
126 514 1
126 533 1
126 534 1
126 546 1
126 547 1
126 565 1
126 571 1
126 586 1
126 605 1
126 612 1
126 626 1
127 345 1
127 385 1
127 386 1
127 436 1
127 437 1
127 444 1
127 455 1
127 463 1
127 464 1
127 477 1
127 487 1
127 509 1
127 516 1
127 535 1
127 536 1
127 548 1
127 549 1
127 567 1
127 573 1
127 588 1
127 607 1
127 614 1
127 628 1
128 347 1
128 387 1
128 388 1
128 438 1
128 439 1
128 446 1
128 457 1
128 465 1
128 466 1
128 479 1
128 489 1
128 511 1
128 518 1
128 537 1
128 538 1
128 550 1
128 551 1
128 569 1
128 575 1
128 590 1
128 609 1
128 616 1
128 630 1
129 349 1
129 389 1
129 390 1
129 401 1
129 440 1
129 441 1
129 448 1
129 459 1
129 467 1
129 468 1
129 491 1
129 513 1
129 520 1
129 539 1
129 540 1
129 552 1
129 553 1
129 571 1
129 577 1
129 592 1
129 611 1
129 618 1
129 632 1
130 351 1
130 391 1
130 392 1
130 403 1
130 442 1
130 443 1
130 450 1
130 461 1
130 469 1
130 470 1
130 493 1
130 515 1
130 522 1
130 541 1
130 542 1
130 554 1
130 555 1
130 573 1
130 579 1
130 594 1
130 613 1
130 620 1
130 634 1
131 353 1
131 393 1
131 394 1
131 405 1
131 444 1
131 445 1
131 452 1
131 463 1
131 471 1
131 472 1
131 495 1
131 517 1
131 524 1
131 543 1
131 544 1
131 556 1
131 557 1
131 575 1
131 581 1
131 596 1
131 615 1
131 622 1
131 636 1
132 355 1
132 395 1
132 396 1
132 407 1
132 446 1
132 447 1
132 454 1
132 465 1
132 473 1
132 474 1
132 497 1
132 519 1
132 526 1
132 545 1
132 546 1
132 558 1
132 559 1
132 577 1
132 583 1
132 598 1
132 617 1
132 624 1
132 638 1
133 357 1
133 397 1
133 398 1
133 409 1
133 448 1
133 449 1
133 456 1
133 467 1
133 475 1
133 476 1
133 481 1
133 499 1
133 521 1
133 528 1
133 547 1
133 548 1
133 560 1
133 579 1
133 585 1
133 600 1
133 619 1
133 626 1
133 640 1
134 359 1
134 399 1
134 400 1
134 411 1
134 450 1
134 451 1
134 458 1
134 469 1
134 477 1
134 478 1
134 482 1
134 483 1
134 501 1
134 523 1
134 530 1
134 549 1
134 550 1
134 562 1
134 581 1
134 587 1
134 602 1
134 621 1
134 628 1
135 321 1
135 322 1
135 361 1
135 413 1
135 452 1
135 453 1
135 460 1
135 471 1
135 479 1
135 480 1
135 484 1
135 485 1
135 503 1
135 525 1
135 532 1
135 551 1
135 552 1
135 564 1
135 583 1
135 589 1
135 604 1
135 623 1
135 630 1
136 323 1
136 324 1
136 363 1
136 401 1
136 402 1
136 415 1
136 454 1
136 455 1
136 462 1
136 473 1
136 486 1
136 487 1
136 505 1
136 527 1
136 534 1
136 553 1
136 554 1
136 566 1
136 585 1
136 591 1
136 606 1
136 625 1
136 632 1
137 325 1
137 326 1
137 365 1
137 403 1
137 404 1
137 417 1
137 456 1
137 457 1
137 464 1
137 475 1
137 488 1
137 489 1
137 507 1
137 529 1
137 536 1
137 555 1
137 556 1
137 568 1
137 587 1
137 593 1
137 608 1
137 627 1
137 634 1
138 327 1
138 328 1
138 367 1
138 405 1
138 406 1
138 419 1
138 458 1
138 459 1
138 466 1
138 477 1
138 490 1
138 491 1
138 509 1
138 531 1
138 538 1
138 557 1
138 558 1
138 570 1
138 589 1
138 595 1
138 610 1
138 629 1
138 636 1
139 329 1
139 330 1
139 369 1
139 407 1
139 408 1
139 421 1
139 460 1
139 461 1
139 468 1
139 479 1
139 492 1
139 493 1
139 511 1
139 533 1
139 540 1
139 559 1
139 560 1
139 572 1
139 591 1
139 597 1
139 612 1
139 631 1
139 638 1
140 331 1
140 332 1
140 371 1
140 401 1
140 409 1
140 410 1
140 423 1
140 462 1
140 463 1
140 470 1
140 481 1
140 482 1
140 494 1
140 495 1
140 513 1
140 535 1
140 542 1
140 574 1
140 593 1
140 599 1
140 614 1
140 633 1
140 640 1
141 333 1
141 334 1
141 373 1
141 403 1
141 411 1
141 412 1
141 425 1
141 464 1
141 465 1
141 472 1
141 483 1
141 484 1
141 496 1
141 497 1
141 515 1
141 537 1
141 544 1
141 562 1
141 576 1
141 595 1
141 601 1
141 616 1
141 635 1
142 335 1
142 336 1
142 375 1
142 405 1
142 413 1
142 414 1
142 427 1
142 466 1
142 467 1
142 474 1
142 485 1
142 486 1
142 498 1
142 499 1
142 517 1
142 539 1
142 546 1
142 564 1
142 578 1
142 597 1
142 603 1
142 618 1
142 637 1
143 337 1
143 338 1
143 377 1
143 407 1
143 415 1
143 416 1
143 429 1
143 468 1
143 469 1
143 476 1
143 487 1
143 488 1
143 500 1
143 501 1
143 519 1
143 541 1
143 548 1
143 566 1
143 580 1
143 599 1
143 605 1
143 620 1
143 639 1
144 339 1
144 340 1
144 379 1
144 409 1
144 417 1
144 418 1
144 431 1
144 470 1
144 471 1
144 478 1
144 489 1
144 490 1
144 502 1
144 503 1
144 521 1
144 543 1
144 550 1
144 561 1
144 568 1
144 582 1
144 601 1
144 607 1
144 622 1
145 341 1
145 342 1
145 381 1
145 411 1
145 419 1
145 420 1
145 433 1
145 472 1
145 473 1
145 480 1
145 491 1
145 492 1
145 504 1
145 505 1
145 523 1
145 545 1
145 552 1
145 563 1
145 570 1
145 584 1
145 603 1
145 609 1
145 624 1
146 343 1
146 344 1
146 383 1
146 402 1
146 413 1
146 421 1
146 422 1
146 435 1
146 474 1
146 475 1
146 493 1
146 494 1
146 506 1
146 507 1
146 525 1
146 547 1
146 554 1
146 565 1
146 572 1
146 586 1
146 605 1
146 611 1
146 626 1
147 345 1
147 346 1
147 385 1
147 404 1
147 415 1
147 423 1
147 424 1
147 437 1
147 476 1
147 477 1
147 495 1
147 496 1
147 508 1
147 509 1
147 527 1
147 549 1
147 556 1
147 567 1
147 574 1
147 588 1
147 607 1
147 613 1
147 628 1
148 347 1
148 348 1
148 387 1
148 406 1
148 417 1
148 425 1
148 426 1
148 439 1
148 478 1
148 479 1
148 497 1
148 498 1
148 510 1
148 511 1
148 529 1
148 551 1
148 558 1
148 569 1
148 576 1
148 590 1
148 609 1
148 615 1
148 630 1
149 349 1
149 350 1
149 389 1
149 401 1
149 408 1
149 419 1
149 427 1
149 428 1
149 441 1
149 480 1
149 499 1
149 500 1
149 512 1
149 513 1
149 531 1
149 553 1
149 560 1
149 571 1
149 578 1
149 592 1
149 611 1
149 617 1
149 632 1
150 351 1
150 352 1
150 391 1
150 402 1
150 403 1
150 410 1
150 421 1
150 429 1
150 430 1
150 443 1
150 482 1
150 501 1
150 502 1
150 514 1
150 515 1
150 533 1
150 555 1
150 573 1
150 580 1
150 594 1
150 613 1
150 619 1
150 634 1
151 353 1
151 354 1
151 393 1
151 404 1
151 405 1
151 412 1
151 423 1
151 431 1
151 432 1
151 445 1
151 484 1
151 503 1
151 504 1
151 516 1
151 517 1
151 535 1
151 557 1
151 575 1
151 582 1
151 596 1
151 615 1
151 621 1
151 636 1
152 355 1
152 356 1
152 395 1
152 406 1
152 407 1
152 414 1
152 425 1
152 433 1
152 434 1
152 447 1
152 486 1
152 505 1
152 506 1
152 518 1
152 519 1
152 537 1
152 559 1
152 577 1
152 584 1
152 598 1
152 617 1
152 623 1
152 638 1
153 357 1
153 358 1
153 397 1
153 408 1
153 409 1
153 416 1
153 427 1
153 435 1
153 436 1
153 449 1
153 481 1
153 488 1
153 507 1
153 508 1
153 520 1
153 521 1
153 539 1
153 579 1
153 586 1
153 600 1
153 619 1
153 625 1
153 640 1
154 359 1
154 360 1
154 399 1
154 410 1
154 411 1
154 418 1
154 429 1
154 437 1
154 438 1
154 451 1
154 483 1
154 490 1
154 509 1
154 510 1
154 522 1
154 523 1
154 541 1
154 562 1
154 581 1
154 588 1
154 602 1
154 621 1
154 627 1
155 321 1
155 361 1
155 362 1
155 412 1
155 413 1
155 420 1
155 431 1
155 439 1
155 440 1
155 453 1
155 485 1
155 492 1
155 511 1
155 512 1
155 524 1
155 525 1
155 543 1
155 564 1
155 583 1
155 590 1
155 604 1
155 623 1
155 629 1
156 323 1
156 363 1
156 364 1
156 414 1
156 415 1
156 422 1
156 433 1
156 441 1
156 442 1
156 455 1
156 487 1
156 494 1
156 513 1
156 514 1
156 526 1
156 527 1
156 545 1
156 566 1
156 585 1
156 592 1
156 606 1
156 625 1
156 631 1
157 325 1
157 365 1
157 366 1
157 416 1
157 417 1
157 424 1
157 435 1
157 443 1
157 444 1
157 457 1
157 489 1
157 496 1
157 515 1
157 516 1
157 528 1
157 529 1
157 547 1
157 568 1
157 587 1
157 594 1
157 608 1
157 627 1
157 633 1
158 327 1
158 367 1
158 368 1
158 418 1
158 419 1
158 426 1
158 437 1
158 445 1
158 446 1
158 459 1
158 491 1
158 498 1
158 517 1
158 518 1
158 530 1
158 531 1
158 549 1
158 570 1
158 589 1
158 596 1
158 610 1
158 629 1
158 635 1
159 329 1
159 369 1
159 370 1
159 420 1
159 421 1
159 428 1
159 439 1
159 447 1
159 448 1
159 461 1
159 493 1
159 500 1
159 519 1
159 520 1
159 532 1
159 533 1
159 551 1
159 572 1
159 591 1
159 598 1
159 612 1
159 631 1
159 637 1
160 331 1
160 371 1
160 372 1
160 422 1
160 423 1
160 430 1
160 441 1
160 449 1
160 450 1
160 463 1
160 495 1
160 502 1
160 521 1
160 522 1
160 534 1
160 535 1
160 553 1
160 574 1
160 593 1
160 600 1
160 614 1
160 633 1
160 639 1
