%%MatrixMarket matrix coordinate integer general
% Binary matrix over GF(2).
% Coordinate indices are 1-based; omitted entries are zero.
160 640 4440
1 2 1
1 21 1
1 27 1
1 28 1
1 49 1
1 50 1
1 67 1
1 68 1
1 69 1
1 87 1
1 88 1
1 102 1
1 109 1
1 110 1
1 121 1
1 127 1
1 128 1
1 129 1
1 189 1
1 190 1
1 230 1
1 241 1
1 242 1
1 247 1
1 248 1
1 267 1
1 281 1
1 287 1
1 288 1
1 307 1
2 4 1
2 23 1
2 29 1
2 30 1
2 51 1
2 52 1
2 69 1
2 70 1
2 71 1
2 89 1
2 90 1
2 104 1
2 111 1
2 112 1
2 123 1
2 129 1
2 130 1
2 131 1
2 191 1
2 192 1
2 232 1
2 243 1
2 244 1
2 249 1
2 250 1
2 269 1
2 283 1
2 289 1
2 290 1
2 309 1
3 6 1
3 25 1
3 31 1
3 32 1
3 53 1
3 54 1
3 71 1
3 72 1
3 73 1
3 91 1
3 92 1
3 106 1
3 113 1
3 114 1
3 125 1
3 131 1
3 132 1
3 133 1
3 193 1
3 194 1
3 234 1
3 245 1
3 246 1
3 251 1
3 252 1
3 271 1
3 285 1
3 291 1
3 292 1
3 311 1
4 8 1
4 27 1
4 33 1
4 34 1
4 55 1
4 56 1
4 73 1
4 74 1
4 75 1
4 93 1
4 94 1
4 108 1
4 115 1
4 116 1
4 127 1
4 133 1
4 134 1
4 135 1
4 195 1
4 196 1
4 236 1
4 247 1
4 248 1
4 253 1
4 254 1
4 273 1
4 287 1
4 293 1
4 294 1
4 313 1
5 10 1
5 29 1
5 35 1
5 36 1
5 57 1
5 58 1
5 75 1
5 76 1
5 77 1
5 95 1
5 96 1
5 110 1
5 117 1
5 118 1
5 129 1
5 135 1
5 136 1
5 137 1
5 197 1
5 198 1
5 238 1
5 249 1
5 250 1
5 255 1
5 256 1
5 275 1
5 289 1
5 295 1
5 296 1
5 315 1
6 12 1
6 31 1
6 37 1
6 38 1
6 59 1
6 60 1
6 77 1
6 78 1
6 79 1
6 97 1
6 98 1
6 112 1
6 119 1
6 120 1
6 131 1
6 137 1
6 138 1
6 139 1
6 199 1
6 200 1
6 240 1
6 251 1
6 252 1
6 257 1
6 258 1
6 277 1
6 291 1
6 297 1
6 298 1
6 317 1
7 1 1
7 14 1
7 33 1
7 39 1
7 40 1
7 61 1
7 62 1
7 79 1
7 80 1
7 99 1
7 100 1
7 114 1
7 121 1
7 122 1
7 133 1
7 139 1
7 140 1
7 141 1
7 162 1
7 201 1
7 202 1
7 253 1
7 254 1
7 259 1
7 260 1
7 279 1
7 293 1
7 299 1
7 300 1
7 319 1
8 1 1
8 2 1
8 3 1
8 16 1
8 35 1
8 41 1
8 42 1
8 63 1
8 64 1
8 101 1
8 102 1
8 116 1
8 123 1
8 124 1
8 135 1
8 141 1
8 142 1
8 143 1
8 164 1
8 203 1
8 204 1
8 241 1
8 255 1
8 256 1
8 261 1
8 262 1
8 281 1
8 295 1
8 301 1
8 302 1
9 3 1
9 4 1
9 5 1
9 18 1
9 37 1
9 43 1
9 44 1
9 65 1
9 66 1
9 103 1
9 104 1
9 118 1
9 125 1
9 126 1
9 137 1
9 143 1
9 144 1
9 145 1
9 166 1
9 205 1
9 206 1
9 243 1
9 257 1
9 258 1
9 263 1
9 264 1
9 283 1
9 297 1
9 303 1
9 304 1
10 5 1
10 6 1
10 7 1
10 20 1
10 39 1
10 45 1
10 46 1
10 67 1
10 68 1
10 105 1
10 106 1
10 120 1
10 127 1
10 128 1
10 139 1
10 145 1
10 146 1
10 147 1
10 168 1
10 207 1
10 208 1
10 245 1
10 259 1
10 260 1
10 265 1
10 266 1
10 285 1
10 299 1
10 305 1
10 306 1
11 7 1
11 8 1
11 9 1
11 22 1
11 41 1
11 47 1
11 48 1
11 69 1
11 70 1
11 107 1
11 108 1
11 122 1
11 129 1
11 130 1
11 141 1
11 147 1
11 148 1
11 149 1
11 170 1
11 209 1
11 210 1
11 247 1
11 261 1
11 262 1
11 267 1
11 268 1
11 287 1
11 301 1
11 307 1
11 308 1
12 9 1
12 10 1
12 11 1
12 24 1
12 43 1
12 49 1
12 50 1
12 71 1
12 72 1
12 109 1
12 110 1
12 124 1
12 131 1
12 132 1
12 143 1
12 149 1
12 150 1
12 151 1
12 172 1
12 211 1
12 212 1
12 249 1
12 263 1
12 264 1
12 269 1
12 270 1
12 289 1
12 303 1
12 309 1
12 310 1
13 11 1
13 12 1
13 13 1
13 26 1
13 45 1
13 51 1
13 52 1
13 73 1
13 74 1
13 111 1
13 112 1
13 126 1
13 133 1
13 134 1
13 145 1
13 151 1
13 152 1
13 153 1
13 174 1
13 213 1
13 214 1
13 251 1
13 265 1
13 266 1
13 271 1
13 272 1
13 291 1
13 305 1
13 311 1
13 312 1
14 13 1
14 14 1
14 15 1
14 28 1
14 47 1
14 53 1
14 54 1
14 75 1
14 76 1
14 113 1
14 114 1
14 128 1
14 135 1
14 136 1
14 147 1
14 153 1
14 154 1
14 155 1
14 176 1
14 215 1
14 216 1
14 253 1
14 267 1
14 268 1
14 273 1
14 274 1
14 293 1
14 307 1
14 313 1
14 314 1
15 15 1
15 16 1
15 17 1
15 30 1
15 49 1
15 55 1
15 56 1
15 77 1
15 78 1
15 115 1
15 116 1
15 130 1
15 137 1
15 138 1
15 149 1
15 155 1
15 156 1
15 157 1
15 178 1
15 217 1
15 218 1
15 255 1
15 269 1
15 270 1
15 275 1
15 276 1
15 295 1
15 309 1
15 315 1
15 316 1
16 17 1
16 18 1
16 19 1
16 32 1
16 51 1
16 57 1
16 58 1
16 79 1
16 80 1
16 117 1
16 118 1
16 132 1
16 139 1
16 140 1
16 151 1
16 157 1
16 158 1
16 159 1
16 180 1
16 219 1
16 220 1
16 257 1
16 271 1
16 272 1
16 277 1
16 278 1
16 297 1
16 311 1
16 317 1
16 318 1
17 1 1
17 2 1
17 19 1
17 20 1
17 21 1
17 34 1
17 53 1
17 59 1
17 60 1
17 81 1
17 119 1
17 120 1
17 134 1
17 141 1
17 142 1
17 153 1
17 159 1
17 160 1
17 182 1
17 221 1
17 222 1
17 259 1
17 273 1
17 274 1
17 279 1
17 280 1
17 299 1
17 313 1
17 319 1
17 320 1
18 3 1
18 4 1
18 21 1
18 22 1
18 23 1
18 36 1
18 55 1
18 61 1
18 62 1
18 81 1
18 82 1
18 83 1
18 121 1
18 122 1
18 136 1
18 143 1
18 144 1
18 155 1
18 184 1
18 223 1
18 224 1
18 241 1
18 242 1
18 261 1
18 275 1
18 276 1
18 281 1
18 282 1
18 301 1
18 315 1
19 5 1
19 6 1
19 23 1
19 24 1
19 25 1
19 38 1
19 57 1
19 63 1
19 64 1
19 83 1
19 84 1
19 85 1
19 123 1
19 124 1
19 138 1
19 145 1
19 146 1
19 157 1
19 186 1
19 225 1
19 226 1
19 243 1
19 244 1
19 263 1
19 277 1
19 278 1
19 283 1
19 284 1
19 303 1
19 317 1
20 7 1
20 8 1
20 25 1
20 26 1
20 27 1
20 40 1
20 59 1
20 65 1
20 66 1
20 85 1
20 86 1
20 87 1
20 125 1
20 126 1
20 140 1
20 147 1
20 148 1
20 159 1
20 188 1
20 227 1
20 228 1
20 245 1
20 246 1
20 265 1
20 279 1
20 280 1
20 285 1
20 286 1
20 305 1
20 319 1
21 9 1
21 10 1
21 27 1
21 28 1
21 29 1
21 42 1
21 61 1
21 67 1
21 68 1
21 81 1
21 87 1
21 88 1
21 89 1
21 127 1
21 128 1
21 142 1
21 149 1
21 150 1
21 190 1
21 229 1
21 230 1
21 241 1
21 247 1
21 248 1
21 267 1
21 281 1
21 282 1
21 287 1
21 288 1
21 307 1
22 11 1
22 12 1
22 29 1
22 30 1
22 31 1
22 44 1
22 63 1
22 69 1
22 70 1
22 83 1
22 89 1
22 90 1
22 91 1
22 129 1
22 130 1
22 144 1
22 151 1
22 152 1
22 192 1
22 231 1
22 232 1
22 243 1
22 249 1
22 250 1
22 269 1
22 283 1
22 284 1
22 289 1
22 290 1
22 309 1
23 13 1
23 14 1
23 31 1
23 32 1
23 33 1
23 46 1
23 65 1
23 71 1
23 72 1
23 85 1
23 91 1
23 92 1
23 93 1
23 131 1
23 132 1
23 146 1
23 153 1
23 154 1
23 194 1
23 233 1
23 234 1
23 245 1
23 251 1
23 252 1
23 271 1
23 285 1
23 286 1
23 291 1
23 292 1
23 311 1
24 15 1
24 16 1
24 33 1
24 34 1
24 35 1
24 48 1
24 67 1
24 73 1
24 74 1
24 87 1
24 93 1
24 94 1
24 95 1
24 133 1
24 134 1
24 148 1
24 155 1
24 156 1
24 196 1
24 235 1
24 236 1
24 247 1
24 253 1
24 254 1
24 273 1
24 287 1
24 288 1
24 293 1
24 294 1
24 313 1
25 17 1
25 18 1
25 35 1
25 36 1
25 37 1
25 50 1
25 69 1
25 75 1
25 76 1
25 89 1
25 95 1
25 96 1
25 97 1
25 135 1
25 136 1
25 150 1
25 157 1
25 158 1
25 198 1
25 237 1
25 238 1
25 249 1
25 255 1
25 256 1
25 275 1
25 289 1
25 290 1
25 295 1
25 296 1
25 315 1
26 19 1
26 20 1
26 37 1
26 38 1
26 39 1
26 52 1
26 71 1
26 77 1
26 78 1
26 91 1
26 97 1
26 98 1
26 99 1
26 137 1
26 138 1
26 152 1
26 159 1
26 160 1
26 200 1
26 239 1
26 240 1
26 251 1
26 257 1
26 258 1
26 277 1
26 291 1
26 292 1
26 297 1
26 298 1
26 317 1
27 21 1
27 22 1
27 39 1
27 40 1
27 41 1
27 54 1
27 73 1
27 79 1
27 80 1
27 81 1
27 82 1
27 93 1
27 99 1
27 100 1
27 101 1
27 139 1
27 140 1
27 154 1
27 161 1
27 162 1
27 202 1
27 253 1
27 259 1
27 260 1
27 279 1
27 293 1
27 294 1
27 299 1
27 300 1
27 319 1
28 1 1
28 2 1
28 23 1
28 24 1
28 41 1
28 42 1
28 43 1
28 56 1
28 75 1
28 83 1
28 84 1
28 95 1
28 101 1
28 102 1
28 103 1
28 141 1
28 142 1
28 156 1
28 163 1
28 164 1
28 204 1
28 241 1
28 255 1
28 261 1
28 262 1
28 281 1
28 295 1
28 296 1
28 301 1
28 302 1
29 3 1
29 4 1
29 25 1
29 26 1
29 43 1
29 44 1
29 45 1
29 58 1
29 77 1
29 85 1
29 86 1
29 97 1
29 103 1
29 104 1
29 105 1
29 143 1
29 144 1
29 158 1
29 165 1
29 166 1
29 206 1
29 243 1
29 257 1
29 263 1
29 264 1
29 283 1
29 297 1
29 298 1
29 303 1
29 304 1
30 5 1
30 6 1
30 27 1
30 28 1
30 45 1
30 46 1
30 47 1
30 60 1
30 79 1
30 87 1
30 88 1
30 99 1
30 105 1
30 106 1
30 107 1
30 145 1
30 146 1
30 160 1
30 167 1
30 168 1
30 208 1
30 245 1
30 259 1
30 265 1
30 266 1
30 285 1
30 299 1
30 300 1
30 305 1
30 306 1
31 1 1
31 7 1
31 8 1
31 29 1
31 30 1
31 47 1
31 48 1
31 49 1
31 62 1
31 82 1
31 89 1
31 90 1
31 101 1
31 107 1
31 108 1
31 109 1
31 147 1
31 148 1
31 169 1
31 170 1
31 210 1
31 247 1
31 261 1
31 267 1
31 268 1
31 287 1
31 301 1
31 302 1
31 307 1
31 308 1
32 3 1
32 9 1
32 10 1
32 31 1
32 32 1
32 49 1
32 50 1
32 51 1
32 64 1
32 84 1
32 91 1
32 92 1
32 103 1
32 109 1
32 110 1
32 111 1
32 149 1
32 150 1
32 171 1
32 172 1
32 212 1
32 249 1
32 263 1
32 269 1
32 270 1
32 289 1
32 303 1
32 304 1
32 309 1
32 310 1
33 5 1
33 11 1
33 12 1
33 33 1
33 34 1
33 51 1
33 52 1
33 53 1
33 66 1
33 86 1
33 93 1
33 94 1
33 105 1
33 111 1
33 112 1
33 113 1
33 151 1
33 152 1
33 173 1
33 174 1
33 214 1
33 251 1
33 265 1
33 271 1
33 272 1
33 291 1
33 305 1
33 306 1
33 311 1
33 312 1
34 7 1
34 13 1
34 14 1
34 35 1
34 36 1
34 53 1
34 54 1
34 55 1
34 68 1
34 88 1
34 95 1
34 96 1
34 107 1
34 113 1
34 114 1
34 115 1
34 153 1
34 154 1
34 175 1
34 176 1
34 216 1
34 253 1
34 267 1
34 273 1
34 274 1
34 293 1
34 307 1
34 308 1
34 313 1
34 314 1
35 9 1
35 15 1
35 16 1
35 37 1
35 38 1
35 55 1
35 56 1
35 57 1
35 70 1
35 90 1
35 97 1
35 98 1
35 109 1
35 115 1
35 116 1
35 117 1
35 155 1
35 156 1
35 177 1
35 178 1
35 218 1
35 255 1
35 269 1
35 275 1
35 276 1
35 295 1
35 309 1
35 310 1
35 315 1
35 316 1
36 11 1
36 17 1
36 18 1
36 39 1
36 40 1
36 57 1
36 58 1
36 59 1
36 72 1
36 92 1
36 99 1
36 100 1
36 111 1
36 117 1
36 118 1
36 119 1
36 157 1
36 158 1
36 179 1
36 180 1
36 220 1
36 257 1
36 271 1
36 277 1
36 278 1
36 297 1
36 311 1
36 312 1
36 317 1
36 318 1
37 13 1
37 19 1
37 20 1
37 41 1
37 42 1
37 59 1
37 60 1
37 61 1
37 74 1
37 94 1
37 101 1
37 102 1
37 113 1
37 119 1
37 120 1
37 121 1
37 159 1
37 160 1
37 181 1
37 182 1
37 222 1
37 259 1
37 273 1
37 279 1
37 280 1
37 299 1
37 313 1
37 314 1
37 319 1
37 320 1
38 15 1
38 21 1
38 22 1
38 43 1
38 44 1
38 61 1
38 62 1
38 63 1
38 76 1
38 81 1
38 82 1
38 96 1
38 103 1
38 104 1
38 115 1
38 121 1
38 122 1
38 123 1
38 183 1
38 184 1
38 224 1
38 241 1
38 242 1
38 261 1
38 275 1
38 281 1
38 282 1
38 301 1
38 315 1
38 316 1
39 17 1
39 23 1
39 24 1
39 45 1
39 46 1
39 63 1
39 64 1
39 65 1
39 78 1
39 83 1
39 84 1
39 98 1
39 105 1
39 106 1
39 117 1
39 123 1
39 124 1
39 125 1
39 185 1
39 186 1
39 226 1
39 243 1
39 244 1
39 263 1
39 277 1
39 283 1
39 284 1
39 303 1
39 317 1
39 318 1
40 19 1
40 25 1
40 26 1
40 47 1
40 48 1
40 65 1
40 66 1
40 67 1
40 80 1
40 85 1
40 86 1
40 100 1
40 107 1
40 108 1
40 119 1
40 125 1
40 126 1
40 127 1
40 187 1
40 188 1
40 228 1
40 245 1
40 246 1
40 265 1
40 279 1
40 285 1
40 286 1
40 305 1
40 319 1
40 320 1
41 1 1
41 2 1
41 22 1
41 27 1
41 49 1
41 67 1
41 70 1
41 87 1
41 101 1
41 102 1
41 109 1
41 122 1
41 127 1
41 130 1
41 189 1
41 229 1
41 230 1
41 241 1
41 247 1
41 268 1
41 282 1
41 287 1
41 308 1
42 3 1
42 4 1
42 24 1
42 29 1
42 51 1
42 69 1
42 72 1
42 89 1
42 103 1
42 104 1
42 111 1
42 124 1
42 129 1
42 132 1
42 191 1
42 231 1
42 232 1
42 243 1
42 249 1
42 270 1
42 284 1
42 289 1
42 310 1
43 5 1
43 6 1
43 26 1
43 31 1
43 53 1
43 71 1
43 74 1
43 91 1
43 105 1
43 106 1
43 113 1
43 126 1
43 131 1
43 134 1
43 193 1
43 233 1
43 234 1
43 245 1
43 251 1
43 272 1
43 286 1
43 291 1
43 312 1
44 7 1
44 8 1
44 28 1
44 33 1
44 55 1
44 73 1
44 76 1
44 93 1
44 107 1
44 108 1
44 115 1
44 128 1
44 133 1
44 136 1
44 195 1
44 235 1
44 236 1
44 247 1
44 253 1
44 274 1
44 288 1
44 293 1
44 314 1
45 9 1
45 10 1
45 30 1
45 35 1
45 57 1
45 75 1
45 78 1
45 95 1
45 109 1
45 110 1
45 117 1
45 130 1
45 135 1
45 138 1
45 197 1
45 237 1
45 238 1
45 249 1
45 255 1
45 276 1
45 290 1
45 295 1
45 316 1
46 11 1
46 12 1
46 32 1
46 37 1
46 59 1
46 77 1
46 80 1
46 97 1
46 111 1
46 112 1
46 119 1
46 132 1
46 137 1
46 140 1
46 199 1
46 239 1
46 240 1
46 251 1
46 257 1
46 278 1
46 292 1
46 297 1
46 318 1
47 2 1
47 13 1
47 14 1
47 34 1
47 39 1
47 61 1
47 79 1
47 99 1
47 113 1
47 114 1
47 121 1
47 134 1
47 139 1
47 142 1
47 161 1
47 162 1
47 201 1
47 253 1
47 259 1
47 280 1
47 294 1
47 299 1
47 320 1
48 1 1
48 4 1
48 15 1
48 16 1
48 36 1
48 41 1
48 63 1
48 101 1
48 115 1
48 116 1
48 123 1
48 136 1
48 141 1
48 144 1
48 163 1
48 164 1
48 203 1
48 242 1
48 255 1
48 261 1
48 282 1
48 296 1
48 301 1
49 3 1
49 6 1
49 17 1
49 18 1
49 38 1
49 43 1
49 65 1
49 103 1
49 117 1
49 118 1
49 125 1
49 138 1
49 143 1
49 146 1
49 165 1
49 166 1
49 205 1
49 244 1
49 257 1
49 263 1
49 284 1
49 298 1
49 303 1
50 5 1
50 8 1
50 19 1
50 20 1
50 40 1
50 45 1
50 67 1
50 105 1
50 119 1
50 120 1
50 127 1
50 140 1
50 145 1
50 148 1
50 167 1
50 168 1
50 207 1
50 246 1
50 259 1
50 265 1
50 286 1
50 300 1
50 305 1
51 7 1
51 10 1
51 21 1
51 22 1
51 42 1
51 47 1
51 69 1
51 107 1
51 121 1
51 122 1
51 129 1
51 142 1
51 147 1
51 150 1
51 169 1
51 170 1
51 209 1
51 248 1
51 261 1
51 267 1
51 288 1
51 302 1
51 307 1
52 9 1
52 12 1
52 23 1
52 24 1
52 44 1
52 49 1
52 71 1
52 109 1
52 123 1
52 124 1
52 131 1
52 144 1
52 149 1
52 152 1
52 171 1
52 172 1
52 211 1
52 250 1
52 263 1
52 269 1
52 290 1
52 304 1
52 309 1
53 11 1
53 14 1
53 25 1
53 26 1
53 46 1
53 51 1
53 73 1
53 111 1
53 125 1
53 126 1
53 133 1
53 146 1
53 151 1
53 154 1
53 173 1
53 174 1
53 213 1
53 252 1
53 265 1
53 271 1
53 292 1
53 306 1
53 311 1
54 13 1
54 16 1
54 27 1
54 28 1
54 48 1
54 53 1
54 75 1
54 113 1
54 127 1
54 128 1
54 135 1
54 148 1
54 153 1
54 156 1
54 175 1
54 176 1
54 215 1
54 254 1
54 267 1
54 273 1
54 294 1
54 308 1
54 313 1
55 15 1
55 18 1
55 29 1
55 30 1
55 50 1
55 55 1
55 77 1
55 115 1
55 129 1
55 130 1
55 137 1
55 150 1
55 155 1
55 158 1
55 177 1
55 178 1
55 217 1
55 256 1
55 269 1
55 275 1
55 296 1
55 310 1
55 315 1
56 17 1
56 20 1
56 31 1
56 32 1
56 52 1
56 57 1
56 79 1
56 117 1
56 131 1
56 132 1
56 139 1
56 152 1
56 157 1
56 160 1
56 179 1
56 180 1
56 219 1
56 258 1
56 271 1
56 277 1
56 298 1
56 312 1
56 317 1
57 1 1
57 19 1
57 22 1
57 33 1
57 34 1
57 54 1
57 59 1
57 82 1
57 119 1
57 133 1
57 134 1
57 141 1
57 154 1
57 159 1
57 181 1
57 182 1
57 221 1
57 260 1
57 273 1
57 279 1
57 300 1
57 314 1
57 319 1
58 3 1
58 21 1
58 24 1
58 35 1
58 36 1
58 56 1
58 61 1
58 81 1
58 84 1
58 121 1
58 135 1
58 136 1
58 143 1
58 156 1
58 183 1
58 184 1
58 223 1
58 241 1
58 262 1
58 275 1
58 281 1
58 302 1
58 316 1
59 5 1
59 23 1
59 26 1
59 37 1
59 38 1
59 58 1
59 63 1
59 83 1
59 86 1
59 123 1
59 137 1
59 138 1
59 145 1
59 158 1
59 185 1
59 186 1
59 225 1
59 243 1
59 264 1
59 277 1
59 283 1
59 304 1
59 318 1
60 7 1
60 25 1
60 28 1
60 39 1
60 40 1
60 60 1
60 65 1
60 85 1
60 88 1
60 125 1
60 139 1
60 140 1
60 147 1
60 160 1
60 187 1
60 188 1
60 227 1
60 245 1
60 266 1
60 279 1
60 285 1
60 306 1
60 320 1
61 9 1
61 27 1
61 30 1
61 41 1
61 42 1
61 62 1
61 67 1
61 82 1
61 87 1
61 90 1
61 127 1
61 141 1
61 142 1
61 149 1
61 189 1
61 190 1
61 229 1
61 242 1
61 247 1
61 268 1
61 281 1
61 287 1
61 308 1
62 11 1
62 29 1
62 32 1
62 43 1
62 44 1
62 64 1
62 69 1
62 84 1
62 89 1
62 92 1
62 129 1
62 143 1
62 144 1
62 151 1
62 191 1
62 192 1
62 231 1
62 244 1
62 249 1
62 270 1
62 283 1
62 289 1
62 310 1
63 13 1
63 31 1
63 34 1
63 45 1
63 46 1
63 66 1
63 71 1
63 86 1
63 91 1
63 94 1
63 131 1
63 145 1
63 146 1
63 153 1
63 193 1
63 194 1
63 233 1
63 246 1
63 251 1
63 272 1
63 285 1
63 291 1
63 312 1
64 15 1
64 33 1
64 36 1
64 47 1
64 48 1
64 68 1
64 73 1
64 88 1
64 93 1
64 96 1
64 133 1
64 147 1
64 148 1
64 155 1
64 195 1
64 196 1
64 235 1
64 248 1
64 253 1
64 274 1
64 287 1
64 293 1
64 314 1
65 17 1
65 35 1
65 38 1
65 49 1
65 50 1
65 70 1
65 75 1
65 90 1
65 95 1
65 98 1
65 135 1
65 149 1
65 150 1
65 157 1
65 197 1
65 198 1
65 237 1
65 250 1
65 255 1
65 276 1
65 289 1
65 295 1
65 316 1
66 19 1
66 37 1
66 40 1
66 51 1
66 52 1
66 72 1
66 77 1
66 92 1
66 97 1
66 100 1
66 137 1
66 151 1
66 152 1
66 159 1
66 199 1
66 200 1
66 239 1
66 252 1
66 257 1
66 278 1
66 291 1
66 297 1
66 318 1
67 21 1
67 39 1
67 42 1
67 53 1
67 54 1
67 74 1
67 79 1
67 81 1
67 94 1
67 99 1
67 102 1
67 139 1
67 153 1
67 154 1
67 161 1
67 201 1
67 202 1
67 254 1
67 259 1
67 280 1
67 293 1
67 299 1
67 320 1
68 1 1
68 23 1
68 41 1
68 44 1
68 55 1
68 56 1
68 76 1
68 83 1
68 96 1
68 101 1
68 104 1
68 141 1
68 155 1
68 156 1
68 163 1
68 203 1
68 204 1
68 242 1
68 256 1
68 261 1
68 282 1
68 295 1
68 301 1
69 3 1
69 25 1
69 43 1
69 46 1
69 57 1
69 58 1
69 78 1
69 85 1
69 98 1
69 103 1
69 106 1
69 143 1
69 157 1
69 158 1
69 165 1
69 205 1
69 206 1
69 244 1
69 258 1
69 263 1
69 284 1
69 297 1
69 303 1
70 5 1
70 27 1
70 45 1
70 48 1
70 59 1
70 60 1
70 80 1
70 87 1
70 100 1
70 105 1
70 108 1
70 145 1
70 159 1
70 160 1
70 167 1
70 207 1
70 208 1
70 246 1
70 260 1
70 265 1
70 286 1
70 299 1
70 305 1
71 2 1
71 7 1
71 29 1
71 47 1
71 50 1
71 61 1
71 62 1
71 81 1
71 82 1
71 89 1
71 102 1
71 107 1
71 110 1
71 147 1
71 169 1
71 209 1
71 210 1
71 248 1
71 262 1
71 267 1
71 288 1
71 301 1
71 307 1
72 4 1
72 9 1
72 31 1
72 49 1
72 52 1
72 63 1
72 64 1
72 83 1
72 84 1
72 91 1
72 104 1
72 109 1
72 112 1
72 149 1
72 171 1
72 211 1
72 212 1
72 250 1
72 264 1
72 269 1
72 290 1
72 303 1
72 309 1
73 6 1
73 11 1
73 33 1
73 51 1
73 54 1
73 65 1
73 66 1
73 85 1
73 86 1
73 93 1
73 106 1
73 111 1
73 114 1
73 151 1
73 173 1
73 213 1
73 214 1
73 252 1
73 266 1
73 271 1
73 292 1
73 305 1
73 311 1
74 8 1
74 13 1
74 35 1
74 53 1
74 56 1
74 67 1
74 68 1
74 87 1
74 88 1
74 95 1
74 108 1
74 113 1
74 116 1
74 153 1
74 175 1
74 215 1
74 216 1
74 254 1
74 268 1
74 273 1
74 294 1
74 307 1
74 313 1
75 10 1
75 15 1
75 37 1
75 55 1
75 58 1
75 69 1
75 70 1
75 89 1
75 90 1
75 97 1
75 110 1
75 115 1
75 118 1
75 155 1
75 177 1
75 217 1
75 218 1
75 256 1
75 270 1
75 275 1
75 296 1
75 309 1
75 315 1
76 12 1
76 17 1
76 39 1
76 57 1
76 60 1
76 71 1
76 72 1
76 91 1
76 92 1
76 99 1
76 112 1
76 117 1
76 120 1
76 157 1
76 179 1
76 219 1
76 220 1
76 258 1
76 272 1
76 277 1
76 298 1
76 311 1
76 317 1
77 14 1
77 19 1
77 41 1
77 59 1
77 62 1
77 73 1
77 74 1
77 93 1
77 94 1
77 101 1
77 114 1
77 119 1
77 122 1
77 159 1
77 181 1
77 221 1
77 222 1
77 260 1
77 274 1
77 279 1
77 300 1
77 313 1
77 319 1
78 16 1
78 21 1
78 43 1
78 61 1
78 64 1
78 75 1
78 76 1
78 81 1
78 95 1
78 96 1
78 103 1
78 116 1
78 121 1
78 124 1
78 183 1
78 223 1
78 224 1
78 241 1
78 262 1
78 276 1
78 281 1
78 302 1
78 315 1
79 18 1
79 23 1
79 45 1
79 63 1
79 66 1
79 77 1
79 78 1
79 83 1
79 97 1
79 98 1
79 105 1
79 118 1
79 123 1
79 126 1
79 185 1
79 225 1
79 226 1
79 243 1
79 264 1
79 278 1
79 283 1
79 304 1
79 317 1
80 20 1
80 25 1
80 47 1
80 65 1
80 68 1
80 79 1
80 80 1
80 85 1
80 99 1
80 100 1
80 107 1
80 120 1
80 125 1
80 128 1
80 187 1
80 227 1
80 228 1
80 245 1
80 266 1
80 280 1
80 285 1
80 306 1
80 319 1
81 2 1
81 57 1
81 67 1
81 76 1
81 78 1
81 87 1
81 101 1
81 117 1
81 122 1
81 138 1
81 155 1
81 156 1
81 162 1
81 181 1
81 188 1
81 197 1
81 207 1
81 237 1
81 238 1
81 561 1
81 567 1
81 588 1
81 602 1
81 607 1
81 628 1
82 4 1
82 59 1
82 69 1
82 78 1
82 80 1
82 89 1
82 103 1
82 119 1
82 124 1
82 140 1
82 157 1
82 158 1
82 164 1
82 183 1
82 190 1
82 199 1
82 209 1
82 239 1
82 240 1
82 563 1
82 569 1
82 590 1
82 604 1
82 609 1
82 630 1
83 2 1
83 6 1
83 61 1
83 71 1
83 80 1
83 91 1
83 105 1
83 121 1
83 126 1
83 142 1
83 159 1
83 160 1
83 161 1
83 162 1
83 166 1
83 185 1
83 192 1
83 201 1
83 211 1
83 565 1
83 571 1
83 592 1
83 606 1
83 611 1
83 632 1
84 2 1
84 4 1
84 8 1
84 63 1
84 73 1
84 81 1
84 82 1
84 93 1
84 107 1
84 123 1
84 128 1
84 144 1
84 163 1
84 164 1
84 168 1
84 187 1
84 194 1
84 203 1
84 213 1
84 567 1
84 573 1
84 594 1
84 608 1
84 613 1
84 634 1
85 4 1
85 6 1
85 10 1
85 65 1
85 75 1
85 83 1
85 84 1
85 95 1
85 109 1
85 125 1
85 130 1
85 146 1
85 165 1
85 166 1
85 170 1
85 189 1
85 196 1
85 205 1
85 215 1
85 569 1
85 575 1
85 596 1
85 610 1
85 615 1
85 636 1
86 6 1
86 8 1
86 12 1
86 67 1
86 77 1
86 85 1
86 86 1
86 97 1
86 111 1
86 127 1
86 132 1
86 148 1
86 167 1
86 168 1
86 172 1
86 191 1
86 198 1
86 207 1
86 217 1
86 571 1
86 577 1
86 598 1
86 612 1
86 617 1
86 638 1
87 8 1
87 10 1
87 14 1
87 69 1
87 79 1
87 87 1
87 88 1
87 99 1
87 113 1
87 129 1
87 134 1
87 150 1
87 169 1
87 170 1
87 174 1
87 193 1
87 200 1
87 209 1
87 219 1
87 573 1
87 579 1
87 600 1
87 614 1
87 619 1
87 640 1
88 1 1
88 10 1
88 12 1
88 16 1
88 71 1
88 89 1
88 90 1
88 101 1
88 115 1
88 131 1
88 136 1
88 152 1
88 171 1
88 172 1
88 176 1
88 195 1
88 202 1
88 211 1
88 221 1
88 562 1
88 575 1
88 581 1
88 602 1
88 616 1
88 621 1
89 3 1
89 12 1
89 14 1
89 18 1
89 73 1
89 91 1
89 92 1
89 103 1
89 117 1
89 133 1
89 138 1
89 154 1
89 173 1
89 174 1
89 178 1
89 197 1
89 204 1
89 213 1
89 223 1
89 564 1
89 577 1
89 583 1
89 604 1
89 618 1
89 623 1
90 5 1
90 14 1
90 16 1
90 20 1
90 75 1
90 93 1
90 94 1
90 105 1
90 119 1
90 135 1
90 140 1
90 156 1
90 175 1
90 176 1
90 180 1
90 199 1
90 206 1
90 215 1
90 225 1
90 566 1
90 579 1
90 585 1
90 606 1
90 620 1
90 625 1
91 7 1
91 16 1
91 18 1
91 22 1
91 77 1
91 95 1
91 96 1
91 107 1
91 121 1
91 137 1
91 142 1
91 158 1
91 177 1
91 178 1
91 182 1
91 201 1
91 208 1
91 217 1
91 227 1
91 568 1
91 581 1
91 587 1
91 608 1
91 622 1
91 627 1
92 9 1
92 18 1
92 20 1
92 24 1
92 79 1
92 97 1
92 98 1
92 109 1
92 123 1
92 139 1
92 144 1
92 160 1
92 179 1
92 180 1
92 184 1
92 203 1
92 210 1
92 219 1
92 229 1
92 570 1
92 583 1
92 589 1
92 610 1
92 624 1
92 629 1
93 1 1
93 11 1
93 20 1
93 22 1
93 26 1
93 82 1
93 99 1
93 100 1
93 111 1
93 125 1
93 141 1
93 146 1
93 181 1
93 182 1
93 186 1
93 205 1
93 212 1
93 221 1
93 231 1
93 572 1
93 585 1
93 591 1
93 612 1
93 626 1
93 631 1
94 3 1
94 13 1
94 22 1
94 24 1
94 28 1
94 84 1
94 101 1
94 102 1
94 113 1
94 127 1
94 143 1
94 148 1
94 183 1
94 184 1
94 188 1
94 207 1
94 214 1
94 223 1
94 233 1
94 574 1
94 587 1
94 593 1
94 614 1
94 628 1
94 633 1
95 5 1
95 15 1
95 24 1
95 26 1
95 30 1
95 86 1
95 103 1
95 104 1
95 115 1
95 129 1
95 145 1
95 150 1
95 185 1
95 186 1
95 190 1
95 209 1
95 216 1
95 225 1
95 235 1
95 576 1
95 589 1
95 595 1
95 616 1
95 630 1
95 635 1
96 7 1
96 17 1
96 26 1
96 28 1
96 32 1
96 88 1
96 105 1
96 106 1
96 117 1
96 131 1
96 147 1
96 152 1
96 187 1
96 188 1
96 192 1
96 211 1
96 218 1
96 227 1
96 237 1
96 578 1
96 591 1
96 597 1
96 618 1
96 632 1
96 637 1
97 9 1
97 19 1
97 28 1
97 30 1
97 34 1
97 90 1
97 107 1
97 108 1
97 119 1
97 133 1
97 149 1
97 154 1
97 189 1
97 190 1
97 194 1
97 213 1
97 220 1
97 229 1
97 239 1
97 580 1
97 593 1
97 599 1
97 620 1
97 634 1
97 639 1
98 11 1
98 21 1
98 30 1
98 32 1
98 36 1
98 92 1
98 109 1
98 110 1
98 121 1
98 135 1
98 151 1
98 156 1
98 161 1
98 191 1
98 192 1
98 196 1
98 215 1
98 222 1
98 231 1
98 561 1
98 582 1
98 595 1
98 601 1
98 622 1
98 636 1
99 13 1
99 23 1
99 32 1
99 34 1
99 38 1
99 94 1
99 111 1
99 112 1
99 123 1
99 137 1
99 153 1
99 158 1
99 163 1
99 193 1
99 194 1
99 198 1
99 217 1
99 224 1
99 233 1
99 563 1
99 584 1
99 597 1
99 603 1
99 624 1
99 638 1
100 15 1
100 25 1
100 34 1
100 36 1
100 40 1
100 96 1
100 113 1
100 114 1
100 125 1
100 139 1
100 155 1
100 160 1
100 165 1
100 195 1
100 196 1
100 200 1
100 219 1
100 226 1
100 235 1
100 565 1
100 586 1
100 599 1
100 605 1
100 626 1
100 640 1
101 17 1
101 27 1
101 36 1
101 38 1
101 42 1
101 82 1
101 98 1
101 115 1
101 116 1
101 127 1
101 141 1
101 157 1
101 167 1
101 197 1
101 198 1
101 202 1
101 221 1
101 228 1
101 237 1
101 562 1
101 567 1
101 588 1
101 601 1
101 607 1
101 628 1
102 19 1
102 29 1
102 38 1
102 40 1
102 44 1
102 84 1
102 100 1
102 117 1
102 118 1
102 129 1
102 143 1
102 159 1
102 169 1
102 199 1
102 200 1
102 204 1
102 223 1
102 230 1
102 239 1
102 564 1
102 569 1
102 590 1
102 603 1
102 609 1
102 630 1
103 21 1
103 31 1
103 40 1
103 42 1
103 46 1
103 81 1
103 86 1
103 102 1
103 119 1
103 120 1
103 131 1
103 145 1
103 161 1
103 171 1
103 201 1
103 202 1
103 206 1
103 225 1
103 232 1
103 566 1
103 571 1
103 592 1
103 605 1
103 611 1
103 632 1
104 23 1
104 33 1
104 42 1
104 44 1
104 48 1
104 83 1
104 88 1
104 104 1
104 121 1
104 122 1
104 133 1
104 147 1
104 163 1
104 173 1
104 203 1
104 204 1
104 208 1
104 227 1
104 234 1
104 568 1
104 573 1
104 594 1
104 607 1
104 613 1
104 634 1
105 25 1
105 35 1
105 44 1
105 46 1
105 50 1
105 85 1
105 90 1
105 106 1
105 123 1
105 124 1
105 135 1
105 149 1
105 165 1
105 175 1
105 205 1
105 206 1
105 210 1
105 229 1
105 236 1
105 570 1
105 575 1
105 596 1
105 609 1
105 615 1
105 636 1
106 27 1
106 37 1
106 46 1
106 48 1
106 52 1
106 87 1
106 92 1
106 108 1
106 125 1
106 126 1
106 137 1
106 151 1
106 167 1
106 177 1
106 207 1
106 208 1
106 212 1
106 231 1
106 238 1
106 572 1
106 577 1
106 598 1
106 611 1
106 617 1
106 638 1
107 29 1
107 39 1
107 48 1
107 50 1
107 54 1
107 89 1
107 94 1
107 110 1
107 127 1
107 128 1
107 139 1
107 153 1
107 169 1
107 179 1
107 209 1
107 210 1
107 214 1
107 233 1
107 240 1
107 574 1
107 579 1
107 600 1
107 613 1
107 619 1
107 640 1
108 31 1
108 41 1
108 50 1
108 52 1
108 56 1
108 91 1
108 96 1
108 112 1
108 129 1
108 130 1
108 141 1
108 155 1
108 162 1
108 171 1
108 181 1
108 211 1
108 212 1
108 216 1
108 235 1
108 562 1
108 576 1
108 581 1
108 602 1
108 615 1
108 621 1
109 33 1
109 43 1
109 52 1
109 54 1
109 58 1
109 93 1
109 98 1
109 114 1
109 131 1
109 132 1
109 143 1
109 157 1
109 164 1
109 173 1
109 183 1
109 213 1
109 214 1
109 218 1
109 237 1
109 564 1
109 578 1
109 583 1
109 604 1
109 617 1
109 623 1
110 35 1
110 45 1
110 54 1
110 56 1
110 60 1
110 95 1
110 100 1
110 116 1
110 133 1
110 134 1
110 145 1
110 159 1
110 166 1
110 175 1
110 185 1
110 215 1
110 216 1
110 220 1
110 239 1
110 566 1
110 580 1
110 585 1
110 606 1
110 619 1
110 625 1
111 37 1
111 47 1
111 56 1
111 58 1
111 62 1
111 81 1
111 97 1
111 102 1
111 118 1
111 135 1
111 136 1
111 147 1
111 161 1
111 168 1
111 177 1
111 187 1
111 217 1
111 218 1
111 222 1
111 568 1
111 582 1
111 587 1
111 608 1
111 621 1
111 627 1
112 39 1
112 49 1
112 58 1
112 60 1
112 64 1
112 83 1
112 99 1
112 104 1
112 120 1
112 137 1
112 138 1
112 149 1
112 163 1
112 170 1
112 179 1
112 189 1
112 219 1
112 220 1
112 224 1
112 570 1
112 584 1
112 589 1
112 610 1
112 623 1
112 629 1
113 41 1
113 51 1
113 60 1
113 62 1
113 66 1
113 85 1
113 101 1
113 106 1
113 122 1
113 139 1
113 140 1
113 151 1
113 165 1
113 172 1
113 181 1
113 191 1
113 221 1
113 222 1
113 226 1
113 572 1
113 586 1
113 591 1
113 612 1
113 625 1
113 631 1
114 43 1
114 53 1
114 62 1
114 64 1
114 68 1
114 87 1
114 103 1
114 108 1
114 124 1
114 141 1
114 142 1
114 153 1
114 167 1
114 174 1
114 183 1
114 193 1
114 223 1
114 224 1
114 228 1
114 574 1
114 588 1
114 593 1
114 614 1
114 627 1
114 633 1
115 45 1
115 55 1
115 64 1
115 66 1
115 70 1
115 89 1
115 105 1
115 110 1
115 126 1
115 143 1
115 144 1
115 155 1
115 169 1
115 176 1
115 185 1
115 195 1
115 225 1
115 226 1
115 230 1
115 576 1
115 590 1
115 595 1
115 616 1
115 629 1
115 635 1
116 47 1
116 57 1
116 66 1
116 68 1
116 72 1
116 91 1
116 107 1
116 112 1
116 128 1
116 145 1
116 146 1
116 157 1
116 171 1
116 178 1
116 187 1
116 197 1
116 227 1
116 228 1
116 232 1
116 578 1
116 592 1
116 597 1
116 618 1
116 631 1
116 637 1
117 49 1
117 59 1
117 68 1
117 70 1
117 74 1
117 93 1
117 109 1
117 114 1
117 130 1
117 147 1
117 148 1
117 159 1
117 173 1
117 180 1
117 189 1
117 199 1
117 229 1
117 230 1
117 234 1
117 580 1
117 594 1
117 599 1
117 620 1
117 633 1
117 639 1
118 51 1
118 61 1
118 70 1
118 72 1
118 76 1
118 81 1
118 95 1
118 111 1
118 116 1
118 132 1
118 149 1
118 150 1
118 175 1
118 182 1
118 191 1
118 201 1
118 231 1
118 232 1
118 236 1
118 561 1
118 582 1
118 596 1
118 601 1
118 622 1
118 635 1
119 53 1
119 63 1
119 72 1
119 74 1
119 78 1
119 83 1
119 97 1
119 113 1
119 118 1
119 134 1
119 151 1
119 152 1
119 177 1
119 184 1
119 193 1
119 203 1
119 233 1
119 234 1
119 238 1
119 563 1
119 584 1
119 598 1
119 603 1
119 624 1
119 637 1
120 55 1
120 65 1
120 74 1
120 76 1
120 80 1
120 85 1
120 99 1
120 115 1
120 120 1
120 136 1
120 153 1
120 154 1
120 179 1
120 186 1
120 195 1
120 205 1
120 235 1
120 236 1
120 240 1
120 565 1
120 586 1
120 600 1
120 605 1
120 626 1
120 639 1
121 1 1
121 2 1
121 58 1
121 68 1
121 75 1
121 76 1
121 77 1
121 78 1
121 88 1
121 102 1
121 118 1
121 121 1
121 122 1
121 137 1
121 138 1
121 155 1
121 161 1
121 162 1
121 182 1
121 187 1
121 188 1
121 198 1
121 208 1
121 237 1
121 562 1
121 568 1
121 587 1
121 588 1
121 601 1
121 602 1
121 608 1
121 627 1
121 628 1
122 3 1
122 4 1
122 60 1
122 70 1
122 77 1
122 78 1
122 79 1
122 80 1
122 90 1
122 104 1
122 120 1
122 123 1
122 124 1
122 139 1
122 140 1
122 157 1
122 163 1
122 164 1
122 184 1
122 189 1
122 190 1
122 200 1
122 210 1
122 239 1
122 564 1
122 570 1
122 589 1
122 590 1
122 603 1
122 604 1
122 610 1
122 629 1
122 630 1
123 1 1
123 2 1
123 5 1
123 6 1
123 62 1
123 72 1
123 79 1
123 80 1
123 92 1
123 106 1
123 122 1
123 125 1
123 126 1
123 141 1
123 142 1
123 159 1
123 161 1
123 165 1
123 166 1
123 186 1
123 191 1
123 192 1
123 202 1
123 212 1
123 566 1
123 572 1
123 591 1
123 592 1
123 605 1
123 606 1
123 612 1
123 631 1
123 632 1
124 1 1
124 2 1
124 3 1
124 4 1
124 7 1
124 8 1
124 64 1
124 74 1
124 81 1
124 94 1
124 108 1
124 124 1
124 127 1
124 128 1
124 143 1
124 144 1
124 163 1
124 167 1
124 168 1
124 188 1
124 193 1
124 194 1
124 204 1
124 214 1
124 568 1
124 574 1
124 593 1
124 594 1
124 607 1
124 608 1
124 614 1
124 633 1
124 634 1
125 3 1
125 4 1
125 5 1
125 6 1
125 9 1
125 10 1
125 66 1
125 76 1
125 83 1
125 96 1
125 110 1
125 126 1
125 129 1
125 130 1
125 145 1
125 146 1
125 165 1
125 169 1
125 170 1
125 190 1
125 195 1
125 196 1
125 206 1
125 216 1
125 570 1
125 576 1
125 595 1
125 596 1
125 609 1
125 610 1
125 616 1
125 635 1
125 636 1
126 5 1
126 6 1
126 7 1
126 8 1
126 11 1
126 12 1
126 68 1
126 78 1
126 85 1
126 98 1
126 112 1
126 128 1
126 131 1
126 132 1
126 147 1
126 148 1
126 167 1
126 171 1
126 172 1
126 192 1
126 197 1
126 198 1
126 208 1
126 218 1
126 572 1
126 578 1
126 597 1
126 598 1
126 611 1
126 612 1
126 618 1
126 637 1
126 638 1
127 7 1
127 8 1
127 9 1
127 10 1
127 13 1
127 14 1
127 70 1
127 80 1
127 87 1
127 100 1
127 114 1
127 130 1
127 133 1
127 134 1
127 149 1
127 150 1
127 169 1
127 173 1
127 174 1
127 194 1
127 199 1
127 200 1
127 210 1
127 220 1
127 574 1
127 580 1
127 599 1
127 600 1
127 613 1
127 614 1
127 620 1
127 639 1
127 640 1
128 2 1
128 9 1
128 10 1
128 11 1
128 12 1
128 15 1
128 16 1
128 72 1
128 89 1
128 102 1
128 116 1
128 132 1
128 135 1
128 136 1
128 151 1
128 152 1
128 171 1
128 175 1
128 176 1
128 196 1
128 201 1
128 202 1
128 212 1
128 222 1
128 561 1
128 562 1
128 576 1
128 582 1
128 601 1
128 602 1
128 615 1
128 616 1
128 622 1
129 4 1
129 11 1
129 12 1
129 13 1
129 14 1
129 17 1
129 18 1
129 74 1
129 91 1
129 104 1
129 118 1
129 134 1
129 137 1
129 138 1
129 153 1
129 154 1
129 173 1
129 177 1
129 178 1
129 198 1
129 203 1
129 204 1
129 214 1
129 224 1
129 563 1
129 564 1
129 578 1
129 584 1
129 603 1
129 604 1
129 617 1
129 618 1
129 624 1
130 6 1
130 13 1
130 14 1
130 15 1
130 16 1
130 19 1
130 20 1
130 76 1
130 93 1
130 106 1
130 120 1
130 136 1
130 139 1
130 140 1
130 155 1
130 156 1
130 175 1
130 179 1
130 180 1
130 200 1
130 205 1
130 206 1
130 216 1
130 226 1
130 565 1
130 566 1
130 580 1
130 586 1
130 605 1
130 606 1
130 619 1
130 620 1
130 626 1
131 8 1
131 15 1
131 16 1
131 17 1
131 18 1
131 21 1
131 22 1
131 78 1
131 95 1
131 108 1
131 122 1
131 138 1
131 141 1
131 142 1
131 157 1
131 158 1
131 177 1
131 181 1
131 182 1
131 202 1
131 207 1
131 208 1
131 218 1
131 228 1
131 567 1
131 568 1
131 582 1
131 588 1
131 607 1
131 608 1
131 621 1
131 622 1
131 628 1
132 10 1
132 17 1
132 18 1
132 19 1
132 20 1
132 23 1
132 24 1
132 80 1
132 97 1
132 110 1
132 124 1
132 140 1
132 143 1
132 144 1
132 159 1
132 160 1
132 179 1
132 183 1
132 184 1
132 204 1
132 209 1
132 210 1
132 220 1
132 230 1
132 569 1
132 570 1
132 584 1
132 590 1
132 609 1
132 610 1
132 623 1
132 624 1
132 630 1
133 2 1
133 12 1
133 19 1
133 20 1
133 21 1
133 22 1
133 25 1
133 26 1
133 81 1
133 82 1
133 99 1
133 112 1
133 126 1
133 142 1
133 145 1
133 146 1
133 181 1
133 185 1
133 186 1
133 206 1
133 211 1
133 212 1
133 222 1
133 232 1
133 571 1
133 572 1
133 586 1
133 592 1
133 611 1
133 612 1
133 625 1
133 626 1
133 632 1
134 4 1
134 14 1
134 21 1
134 22 1
134 23 1
134 24 1
134 27 1
134 28 1
134 83 1
134 84 1
134 101 1
134 114 1
134 128 1
134 144 1
134 147 1
134 148 1
134 183 1
134 187 1
134 188 1
134 208 1
134 213 1
134 214 1
134 224 1
134 234 1
134 573 1
134 574 1
134 588 1
134 594 1
134 613 1
134 614 1
134 627 1
134 628 1
134 634 1
135 6 1
135 16 1
135 23 1
135 24 1
135 25 1
135 26 1
135 29 1
135 30 1
135 85 1
135 86 1
135 103 1
135 116 1
135 130 1
135 146 1
135 149 1
135 150 1
135 185 1
135 189 1
135 190 1
135 210 1
135 215 1
135 216 1
135 226 1
135 236 1
135 575 1
135 576 1
135 590 1
135 596 1
135 615 1
135 616 1
135 629 1
135 630 1
135 636 1
136 8 1
136 18 1
136 25 1
136 26 1
136 27 1
136 28 1
136 31 1
136 32 1
136 87 1
136 88 1
136 105 1
136 118 1
136 132 1
136 148 1
136 151 1
136 152 1
136 187 1
136 191 1
136 192 1
136 212 1
136 217 1
136 218 1
136 228 1
136 238 1
136 577 1
136 578 1
136 592 1
136 598 1
136 617 1
136 618 1
136 631 1
136 632 1
136 638 1
137 10 1
137 20 1
137 27 1
137 28 1
137 29 1
137 30 1
137 33 1
137 34 1
137 89 1
137 90 1
137 107 1
137 120 1
137 134 1
137 150 1
137 153 1
137 154 1
137 189 1
137 193 1
137 194 1
137 214 1
137 219 1
137 220 1
137 230 1
137 240 1
137 579 1
137 580 1
137 594 1
137 600 1
137 619 1
137 620 1
137 633 1
137 634 1
137 640 1
138 12 1
138 22 1
138 29 1
138 30 1
138 31 1
138 32 1
138 35 1
138 36 1
138 91 1
138 92 1
138 109 1
138 122 1
138 136 1
138 152 1
138 155 1
138 156 1
138 162 1
138 191 1
138 195 1
138 196 1
138 216 1
138 221 1
138 222 1
138 232 1
138 562 1
138 581 1
138 582 1
138 596 1
138 602 1
138 621 1
138 622 1
138 635 1
138 636 1
139 14 1
139 24 1
139 31 1
139 32 1
139 33 1
139 34 1
139 37 1
139 38 1
139 93 1
139 94 1
139 111 1
139 124 1
139 138 1
139 154 1
139 157 1
139 158 1
139 164 1
139 193 1
139 197 1
139 198 1
139 218 1
139 223 1
139 224 1
139 234 1
139 564 1
139 583 1
139 584 1
139 598 1
139 604 1
139 623 1
139 624 1
139 637 1
139 638 1
140 16 1
140 26 1
140 33 1
140 34 1
140 35 1
140 36 1
140 39 1
140 40 1
140 95 1
140 96 1
140 113 1
140 126 1
140 140 1
140 156 1
140 159 1
140 160 1
140 166 1
140 195 1
140 199 1
140 200 1
140 220 1
140 225 1
140 226 1
140 236 1
140 566 1
140 585 1
140 586 1
140 600 1
140 606 1
140 625 1
140 626 1
140 639 1
140 640 1
141 18 1
141 28 1
141 35 1
141 36 1
141 37 1
141 38 1
141 41 1
141 42 1
141 81 1
141 82 1
141 97 1
141 98 1
141 115 1
141 128 1
141 142 1
141 158 1
141 168 1
141 197 1
141 201 1
141 202 1
141 222 1
141 227 1
141 228 1
141 238 1
141 561 1
141 562 1
141 568 1
141 587 1
141 588 1
141 602 1
141 608 1
141 627 1
141 628 1
142 20 1
142 30 1
142 37 1
142 38 1
142 39 1
142 40 1
142 43 1
142 44 1
142 83 1
142 84 1
142 99 1
142 100 1
142 117 1
142 130 1
142 144 1
142 160 1
142 170 1
142 199 1
142 203 1
142 204 1
142 224 1
142 229 1
142 230 1
142 240 1
142 563 1
142 564 1
142 570 1
142 589 1
142 590 1
142 604 1
142 610 1
142 629 1
142 630 1
143 22 1
143 32 1
143 39 1
143 40 1
143 41 1
143 42 1
143 45 1
143 46 1
143 82 1
143 85 1
143 86 1
143 101 1
143 102 1
143 119 1
143 132 1
143 146 1
143 162 1
143 172 1
143 201 1
143 205 1
143 206 1
143 226 1
143 231 1
143 232 1
143 565 1
143 566 1
143 572 1
143 591 1
143 592 1
143 606 1
143 612 1
143 631 1
143 632 1
144 24 1
144 34 1
144 41 1
144 42 1
144 43 1
144 44 1
144 47 1
144 48 1
144 84 1
144 87 1
144 88 1
144 103 1
144 104 1
144 121 1
144 134 1
144 148 1
144 164 1
144 174 1
144 203 1
144 207 1
144 208 1
144 228 1
144 233 1
144 234 1
144 567 1
144 568 1
144 574 1
144 593 1
144 594 1
144 608 1
144 614 1
144 633 1
144 634 1
145 26 1
145 36 1
145 43 1
145 44 1
145 45 1
145 46 1
145 49 1
145 50 1
145 86 1
145 89 1
145 90 1
145 105 1
145 106 1
145 123 1
145 136 1
145 150 1
145 166 1
145 176 1
145 205 1
145 209 1
145 210 1
145 230 1
145 235 1
145 236 1
145 569 1
145 570 1
145 576 1
145 595 1
145 596 1
145 610 1
145 616 1
145 635 1
145 636 1
146 28 1
146 38 1
146 45 1
146 46 1
146 47 1
146 48 1
146 51 1
146 52 1
146 88 1
146 91 1
146 92 1
146 107 1
146 108 1
146 125 1
146 138 1
146 152 1
146 168 1
146 178 1
146 207 1
146 211 1
146 212 1
146 232 1
146 237 1
146 238 1
146 571 1
146 572 1
146 578 1
146 597 1
146 598 1
146 612 1
146 618 1
146 637 1
146 638 1
147 30 1
147 40 1
147 47 1
147 48 1
147 49 1
147 50 1
147 53 1
147 54 1
147 90 1
147 93 1
147 94 1
147 109 1
147 110 1
147 127 1
147 140 1
147 154 1
147 170 1
147 180 1
147 209 1
147 213 1
147 214 1
147 234 1
147 239 1
147 240 1
147 573 1
147 574 1
147 580 1
147 599 1
147 600 1
147 614 1
147 620 1
147 639 1
147 640 1
148 32 1
148 42 1
148 49 1
148 50 1
148 51 1
148 52 1
148 55 1
148 56 1
148 92 1
148 95 1
148 96 1
148 111 1
148 112 1
148 129 1
148 142 1
148 156 1
148 161 1
148 162 1
148 172 1
148 182 1
148 211 1
148 215 1
148 216 1
148 236 1
148 561 1
148 562 1
148 575 1
148 576 1
148 582 1
148 601 1
148 602 1
148 616 1
148 622 1
149 34 1
149 44 1
149 51 1
149 52 1
149 53 1
149 54 1
149 57 1
149 58 1
149 94 1
149 97 1
149 98 1
149 113 1
149 114 1
149 131 1
149 144 1
149 158 1
149 163 1
149 164 1
149 174 1
149 184 1
149 213 1
149 217 1
149 218 1
149 238 1
149 563 1
149 564 1
149 577 1
149 578 1
149 584 1
149 603 1
149 604 1
149 618 1
149 624 1
150 36 1
150 46 1
150 53 1
150 54 1
150 55 1
150 56 1
150 59 1
150 60 1
150 96 1
150 99 1
150 100 1
150 115 1
150 116 1
150 133 1
150 146 1
150 160 1
150 165 1
150 166 1
150 176 1
150 186 1
150 215 1
150 219 1
150 220 1
150 240 1
150 565 1
150 566 1
150 579 1
150 580 1
150 586 1
150 605 1
150 606 1
150 620 1
150 626 1
151 38 1
151 48 1
151 55 1
151 56 1
151 57 1
151 58 1
151 61 1
151 62 1
151 82 1
151 98 1
151 101 1
151 102 1
151 117 1
151 118 1
151 135 1
151 148 1
151 162 1
151 167 1
151 168 1
151 178 1
151 188 1
151 217 1
151 221 1
151 222 1
151 567 1
151 568 1
151 581 1
151 582 1
151 588 1
151 607 1
151 608 1
151 622 1
151 628 1
152 40 1
152 50 1
152 57 1
152 58 1
152 59 1
152 60 1
152 63 1
152 64 1
152 84 1
152 100 1
152 103 1
152 104 1
152 119 1
152 120 1
152 137 1
152 150 1
152 164 1
152 169 1
152 170 1
152 180 1
152 190 1
152 219 1
152 223 1
152 224 1
152 569 1
152 570 1
152 583 1
152 584 1
152 590 1
152 609 1
152 610 1
152 624 1
152 630 1
153 42 1
153 52 1
153 59 1
153 60 1
153 61 1
153 62 1
153 65 1
153 66 1
153 86 1
153 102 1
153 105 1
153 106 1
153 121 1
153 122 1
153 139 1
153 152 1
153 166 1
153 171 1
153 172 1
153 182 1
153 192 1
153 221 1
153 225 1
153 226 1
153 571 1
153 572 1
153 585 1
153 586 1
153 592 1
153 611 1
153 612 1
153 626 1
153 632 1
154 44 1
154 54 1
154 61 1
154 62 1
154 63 1
154 64 1
154 67 1
154 68 1
154 88 1
154 104 1
154 107 1
154 108 1
154 123 1
154 124 1
154 141 1
154 154 1
154 168 1
154 173 1
154 174 1
154 184 1
154 194 1
154 223 1
154 227 1
154 228 1
154 573 1
154 574 1
154 587 1
154 588 1
154 594 1
154 613 1
154 614 1
154 628 1
154 634 1
155 46 1
155 56 1
155 63 1
155 64 1
155 65 1
155 66 1
155 69 1
155 70 1
155 90 1
155 106 1
155 109 1
155 110 1
155 125 1
155 126 1
155 143 1
155 156 1
155 170 1
155 175 1
155 176 1
155 186 1
155 196 1
155 225 1
155 229 1
155 230 1
155 575 1
155 576 1
155 589 1
155 590 1
155 596 1
155 615 1
155 616 1
155 630 1
155 636 1
156 48 1
156 58 1
156 65 1
156 66 1
156 67 1
156 68 1
156 71 1
156 72 1
156 92 1
156 108 1
156 111 1
156 112 1
156 127 1
156 128 1
156 145 1
156 158 1
156 172 1
156 177 1
156 178 1
156 188 1
156 198 1
156 227 1
156 231 1
156 232 1
156 577 1
156 578 1
156 591 1
156 592 1
156 598 1
156 617 1
156 618 1
156 632 1
156 638 1
157 50 1
157 60 1
157 67 1
157 68 1
157 69 1
157 70 1
157 73 1
157 74 1
157 94 1
157 110 1
157 113 1
157 114 1
157 129 1
157 130 1
157 147 1
157 160 1
157 174 1
157 179 1
157 180 1
157 190 1
157 200 1
157 229 1
157 233 1
157 234 1
157 579 1
157 580 1
157 593 1
157 594 1
157 600 1
157 619 1
157 620 1
157 634 1
157 640 1
158 52 1
158 62 1
158 69 1
158 70 1
158 71 1
158 72 1
158 75 1
158 76 1
158 82 1
158 96 1
158 112 1
158 115 1
158 116 1
158 131 1
158 132 1
158 149 1
158 176 1
158 181 1
158 182 1
158 192 1
158 202 1
158 231 1
158 235 1
158 236 1
158 562 1
158 581 1
158 582 1
158 595 1
158 596 1
158 602 1
158 621 1
158 622 1
158 636 1
159 54 1
159 64 1
159 71 1
159 72 1
159 73 1
159 74 1
159 77 1
159 78 1
159 84 1
159 98 1
159 114 1
159 117 1
159 118 1
159 133 1
159 134 1
159 151 1
159 178 1
159 183 1
159 184 1
159 194 1
159 204 1
159 233 1
159 237 1
159 238 1
159 564 1
159 583 1
159 584 1
159 597 1
159 598 1
159 604 1
159 623 1
159 624 1
159 638 1
160 56 1
160 66 1
160 73 1
160 74 1
160 75 1
160 76 1
160 79 1
160 80 1
160 86 1
160 100 1
160 116 1
160 119 1
160 120 1
160 135 1
160 136 1
160 153 1
160 180 1
160 185 1
160 186 1
160 196 1
160 206 1
160 235 1
160 239 1
160 240 1
160 566 1
160 585 1
160 586 1
160 599 1
160 600 1
160 606 1
160 625 1
160 626 1
160 640 1
