%%MatrixMarket matrix coordinate integer general
% Binary matrix over GF(2).
% Coordinate indices are 1-based; omitted entries are zero.
132 352 1122
1 2 1
1 45 1
1 89 1
1 133 1
1 177 1
1 221 1
1 265 1
1 309 1
2 1 1
2 2 1
2 46 1
2 90 1
2 134 1
2 178 1
2 222 1
2 266 1
2 310 1
3 4 1
3 47 1
3 91 1
3 135 1
3 179 1
3 223 1
3 267 1
3 311 1
4 3 1
4 4 1
4 48 1
4 92 1
4 136 1
4 180 1
4 224 1
4 268 1
4 312 1
5 6 1
5 49 1
5 93 1
5 137 1
5 181 1
5 225 1
5 269 1
5 313 1
6 5 1
6 6 1
6 50 1
6 94 1
6 138 1
6 182 1
6 226 1
6 270 1
6 314 1
7 8 1
7 51 1
7 95 1
7 139 1
7 183 1
7 227 1
7 271 1
7 315 1
8 7 1
8 8 1
8 52 1
8 96 1
8 140 1
8 184 1
8 228 1
8 272 1
8 316 1
9 10 1
9 53 1
9 97 1
9 141 1
9 185 1
9 229 1
9 273 1
9 317 1
10 9 1
10 10 1
10 54 1
10 98 1
10 142 1
10 186 1
10 230 1
10 274 1
10 318 1
11 12 1
11 55 1
11 99 1
11 143 1
11 187 1
11 231 1
11 275 1
11 319 1
12 11 1
12 12 1
12 56 1
12 100 1
12 144 1
12 188 1
12 232 1
12 276 1
12 320 1
13 14 1
13 57 1
13 101 1
13 145 1
13 189 1
13 233 1
13 277 1
13 321 1
14 13 1
14 14 1
14 58 1
14 102 1
14 146 1
14 190 1
14 234 1
14 278 1
14 322 1
15 16 1
15 59 1
15 103 1
15 147 1
15 191 1
15 235 1
15 279 1
15 323 1
16 15 1
16 16 1
16 60 1
16 104 1
16 148 1
16 192 1
16 236 1
16 280 1
16 324 1
17 18 1
17 61 1
17 105 1
17 149 1
17 193 1
17 237 1
17 281 1
17 325 1
18 17 1
18 18 1
18 62 1
18 106 1
18 150 1
18 194 1
18 238 1
18 282 1
18 326 1
19 20 1
19 63 1
19 107 1
19 151 1
19 195 1
19 239 1
19 283 1
19 327 1
20 19 1
20 20 1
20 64 1
20 108 1
20 152 1
20 196 1
20 240 1
20 284 1
20 328 1
21 22 1
21 65 1
21 109 1
21 153 1
21 197 1
21 241 1
21 285 1
21 329 1
22 21 1
22 22 1
22 66 1
22 110 1
22 154 1
22 198 1
22 242 1
22 286 1
22 330 1
23 24 1
23 67 1
23 111 1
23 155 1
23 199 1
23 243 1
23 287 1
23 331 1
24 23 1
24 24 1
24 68 1
24 112 1
24 156 1
24 200 1
24 244 1
24 288 1
24 332 1
25 26 1
25 69 1
25 113 1
25 157 1
25 201 1
25 245 1
25 289 1
25 333 1
26 25 1
26 26 1
26 70 1
26 114 1
26 158 1
26 202 1
26 246 1
26 290 1
26 334 1
27 28 1
27 71 1
27 115 1
27 159 1
27 203 1
27 247 1
27 291 1
27 335 1
28 27 1
28 28 1
28 72 1
28 116 1
28 160 1
28 204 1
28 248 1
28 292 1
28 336 1
29 30 1
29 73 1
29 117 1
29 161 1
29 205 1
29 249 1
29 293 1
29 337 1
30 29 1
30 30 1
30 74 1
30 118 1
30 162 1
30 206 1
30 250 1
30 294 1
30 338 1
31 32 1
31 75 1
31 119 1
31 163 1
31 207 1
31 251 1
31 295 1
31 339 1
32 31 1
32 32 1
32 76 1
32 120 1
32 164 1
32 208 1
32 252 1
32 296 1
32 340 1
33 34 1
33 77 1
33 121 1
33 165 1
33 209 1
33 253 1
33 297 1
33 341 1
34 33 1
34 34 1
34 78 1
34 122 1
34 166 1
34 210 1
34 254 1
34 298 1
34 342 1
35 36 1
35 79 1
35 123 1
35 167 1
35 211 1
35 255 1
35 299 1
35 343 1
36 35 1
36 36 1
36 80 1
36 124 1
36 168 1
36 212 1
36 256 1
36 300 1
36 344 1
37 38 1
37 81 1
37 125 1
37 169 1
37 213 1
37 257 1
37 301 1
37 345 1
38 37 1
38 38 1
38 82 1
38 126 1
38 170 1
38 214 1
38 258 1
38 302 1
38 346 1
39 40 1
39 83 1
39 127 1
39 171 1
39 215 1
39 259 1
39 303 1
39 347 1
40 39 1
40 40 1
40 84 1
40 128 1
40 172 1
40 216 1
40 260 1
40 304 1
40 348 1
41 42 1
41 85 1
41 129 1
41 173 1
41 217 1
41 261 1
41 305 1
41 349 1
42 41 1
42 42 1
42 86 1
42 130 1
42 174 1
42 218 1
42 262 1
42 306 1
42 350 1
43 44 1
43 87 1
43 131 1
43 175 1
43 219 1
43 263 1
43 307 1
43 351 1
44 43 1
44 44 1
44 88 1
44 132 1
44 176 1
44 220 1
44 264 1
44 308 1
44 352 1
45 1 1
45 88 1
45 109 1
45 173 1
45 193 1
45 239 1
45 297 1
45 345 1
46 2 1
46 87 1
46 88 1
46 110 1
46 174 1
46 194 1
46 240 1
46 298 1
46 346 1
47 3 1
47 46 1
47 111 1
47 175 1
47 195 1
47 241 1
47 299 1
47 347 1
48 4 1
48 45 1
48 46 1
48 112 1
48 176 1
48 196 1
48 242 1
48 300 1
48 348 1
49 5 1
49 48 1
49 113 1
49 133 1
49 197 1
49 243 1
49 301 1
49 349 1
50 6 1
50 47 1
50 48 1
50 114 1
50 134 1
50 198 1
50 244 1
50 302 1
50 350 1
51 7 1
51 50 1
51 115 1
51 135 1
51 199 1
51 245 1
51 303 1
51 351 1
52 8 1
52 49 1
52 50 1
52 116 1
52 136 1
52 200 1
52 246 1
52 304 1
52 352 1
53 9 1
53 52 1
53 117 1
53 137 1
53 201 1
53 247 1
53 305 1
53 309 1
54 10 1
54 51 1
54 52 1
54 118 1
54 138 1
54 202 1
54 248 1
54 306 1
54 310 1
55 11 1
55 54 1
55 119 1
55 139 1
55 203 1
55 249 1
55 307 1
55 311 1
56 12 1
56 53 1
56 54 1
56 120 1
56 140 1
56 204 1
56 250 1
56 308 1
56 312 1
57 13 1
57 56 1
57 121 1
57 141 1
57 205 1
57 251 1
57 265 1
57 313 1
58 14 1
58 55 1
58 56 1
58 122 1
58 142 1
58 206 1
58 252 1
58 266 1
58 314 1
59 15 1
59 58 1
59 123 1
59 143 1
59 207 1
59 253 1
59 267 1
59 315 1
60 16 1
60 57 1
60 58 1
60 124 1
60 144 1
60 208 1
60 254 1
60 268 1
60 316 1
61 17 1
61 60 1
61 125 1
61 145 1
61 209 1
61 255 1
61 269 1
61 317 1
62 18 1
62 59 1
62 60 1
62 126 1
62 146 1
62 210 1
62 256 1
62 270 1
62 318 1
63 19 1
63 62 1
63 127 1
63 147 1
63 211 1
63 257 1
63 271 1
63 319 1
64 20 1
64 61 1
64 62 1
64 128 1
64 148 1
64 212 1
64 258 1
64 272 1
64 320 1
65 21 1
65 64 1
65 129 1
65 149 1
65 213 1
65 259 1
65 273 1
65 321 1
66 22 1
66 63 1
66 64 1
66 130 1
66 150 1
66 214 1
66 260 1
66 274 1
66 322 1
67 23 1
67 66 1
67 131 1
67 151 1
67 215 1
67 261 1
67 275 1
67 323 1
68 24 1
68 65 1
68 66 1
68 132 1
68 152 1
68 216 1
68 262 1
68 276 1
68 324 1
69 25 1
69 68 1
69 89 1
69 153 1
69 217 1
69 263 1
69 277 1
69 325 1
70 26 1
70 67 1
70 68 1
70 90 1
70 154 1
70 218 1
70 264 1
70 278 1
70 326 1
71 27 1
71 70 1
71 91 1
71 155 1
71 219 1
71 221 1
71 279 1
71 327 1
72 28 1
72 69 1
72 70 1
72 92 1
72 156 1
72 220 1
72 222 1
72 280 1
72 328 1
73 29 1
73 72 1
73 93 1
73 157 1
73 177 1
73 223 1
73 281 1
73 329 1
74 30 1
74 71 1
74 72 1
74 94 1
74 158 1
74 178 1
74 224 1
74 282 1
74 330 1
75 31 1
75 74 1
75 95 1
75 159 1
75 179 1
75 225 1
75 283 1
75 331 1
76 32 1
76 73 1
76 74 1
76 96 1
76 160 1
76 180 1
76 226 1
76 284 1
76 332 1
77 33 1
77 76 1
77 97 1
77 161 1
77 181 1
77 227 1
77 285 1
77 333 1
78 34 1
78 75 1
78 76 1
78 98 1
78 162 1
78 182 1
78 228 1
78 286 1
78 334 1
79 35 1
79 78 1
79 99 1
79 163 1
79 183 1
79 229 1
79 287 1
79 335 1
80 36 1
80 77 1
80 78 1
80 100 1
80 164 1
80 184 1
80 230 1
80 288 1
80 336 1
81 37 1
81 80 1
81 101 1
81 165 1
81 185 1
81 231 1
81 289 1
81 337 1
82 38 1
82 79 1
82 80 1
82 102 1
82 166 1
82 186 1
82 232 1
82 290 1
82 338 1
83 39 1
83 82 1
83 103 1
83 167 1
83 187 1
83 233 1
83 291 1
83 339 1
84 40 1
84 81 1
84 82 1
84 104 1
84 168 1
84 188 1
84 234 1
84 292 1
84 340 1
85 41 1
85 84 1
85 105 1
85 169 1
85 189 1
85 235 1
85 293 1
85 341 1
86 42 1
86 83 1
86 84 1
86 106 1
86 170 1
86 190 1
86 236 1
86 294 1
86 342 1
87 43 1
87 86 1
87 107 1
87 171 1
87 191 1
87 237 1
87 295 1
87 343 1
88 44 1
88 85 1
88 86 1
88 108 1
88 172 1
88 192 1
88 238 1
88 296 1
88 344 1
89 1 1
89 69 1
89 112 1
89 153 1
89 189 1
89 259 1
89 275 1
89 315 1
90 2 1
90 70 1
90 111 1
90 112 1
90 154 1
90 190 1
90 260 1
90 276 1
90 316 1
91 3 1
91 71 1
91 114 1
91 155 1
91 191 1
91 261 1
91 277 1
91 317 1
92 4 1
92 72 1
92 113 1
92 114 1
92 156 1
92 192 1
92 262 1
92 278 1
92 318 1
93 5 1
93 73 1
93 116 1
93 157 1
93 193 1
93 263 1
93 279 1
93 319 1
94 6 1
94 74 1
94 115 1
94 116 1
94 158 1
94 194 1
94 264 1
94 280 1
94 320 1
95 7 1
95 75 1
95 118 1
95 159 1
95 195 1
95 221 1
95 281 1
95 321 1
96 8 1
96 76 1
96 117 1
96 118 1
96 160 1
96 196 1
96 222 1
96 282 1
96 322 1
97 9 1
97 77 1
97 120 1
97 161 1
97 197 1
97 223 1
97 283 1
97 323 1
98 10 1
98 78 1
98 119 1
98 120 1
98 162 1
98 198 1
98 224 1
98 284 1
98 324 1
99 11 1
99 79 1
99 122 1
99 163 1
99 199 1
99 225 1
99 285 1
99 325 1
100 12 1
100 80 1
100 121 1
100 122 1
100 164 1
100 200 1
100 226 1
100 286 1
100 326 1
101 13 1
101 81 1
101 124 1
101 165 1
101 201 1
101 227 1
101 287 1
101 327 1
102 14 1
102 82 1
102 123 1
102 124 1
102 166 1
102 202 1
102 228 1
102 288 1
102 328 1
103 15 1
103 83 1
103 126 1
103 167 1
103 203 1
103 229 1
103 289 1
103 329 1
104 16 1
104 84 1
104 125 1
104 126 1
104 168 1
104 204 1
104 230 1
104 290 1
104 330 1
105 17 1
105 85 1
105 128 1
105 169 1
105 205 1
105 231 1
105 291 1
105 331 1
106 18 1
106 86 1
106 127 1
106 128 1
106 170 1
106 206 1
106 232 1
106 292 1
106 332 1
107 19 1
107 87 1
107 130 1
107 171 1
107 207 1
107 233 1
107 293 1
107 333 1
108 20 1
108 88 1
108 129 1
108 130 1
108 172 1
108 208 1
108 234 1
108 294 1
108 334 1
109 21 1
109 45 1
109 132 1
109 173 1
109 209 1
109 235 1
109 295 1
109 335 1
110 22 1
110 46 1
110 131 1
110 132 1
110 174 1
110 210 1
110 236 1
110 296 1
110 336 1
111 23 1
111 47 1
111 90 1
111 175 1
111 211 1
111 237 1
111 297 1
111 337 1
112 24 1
112 48 1
112 89 1
112 90 1
112 176 1
112 212 1
112 238 1
112 298 1
112 338 1
113 25 1
113 49 1
113 92 1
113 133 1
113 213 1
113 239 1
113 299 1
113 339 1
114 26 1
114 50 1
114 91 1
114 92 1
114 134 1
114 214 1
114 240 1
114 300 1
114 340 1
115 27 1
115 51 1
115 94 1
115 135 1
115 215 1
115 241 1
115 301 1
115 341 1
116 28 1
116 52 1
116 93 1
116 94 1
116 136 1
116 216 1
116 242 1
116 302 1
116 342 1
117 29 1
117 53 1
117 96 1
117 137 1
117 217 1
117 243 1
117 303 1
117 343 1
118 30 1
118 54 1
118 95 1
118 96 1
118 138 1
118 218 1
118 244 1
118 304 1
118 344 1
119 31 1
119 55 1
119 98 1
119 139 1
119 219 1
119 245 1
119 305 1
119 345 1
120 32 1
120 56 1
120 97 1
120 98 1
120 140 1
120 220 1
120 246 1
120 306 1
120 346 1
121 33 1
121 57 1
121 100 1
121 141 1
121 177 1
121 247 1
121 307 1
121 347 1
122 34 1
122 58 1
122 99 1
122 100 1
122 142 1
122 178 1
122 248 1
122 308 1
122 348 1
123 35 1
123 59 1
123 102 1
123 143 1
123 179 1
123 249 1
123 265 1
123 349 1
124 36 1
124 60 1
124 101 1
124 102 1
124 144 1
124 180 1
124 250 1
124 266 1
124 350 1
125 37 1
125 61 1
125 104 1
125 145 1
125 181 1
125 251 1
125 267 1
125 351 1
126 38 1
126 62 1
126 103 1
126 104 1
126 146 1
126 182 1
126 252 1
126 268 1
126 352 1
127 39 1
127 63 1
127 106 1
127 147 1
127 183 1
127 253 1
127 269 1
127 309 1
128 40 1
128 64 1
128 105 1
128 106 1
128 148 1
128 184 1
128 254 1
128 270 1
128 310 1
129 41 1
129 65 1
129 108 1
129 149 1
129 185 1
129 255 1
129 271 1
129 311 1
130 42 1
130 66 1
130 107 1
130 108 1
130 150 1
130 186 1
130 256 1
130 272 1
130 312 1
131 43 1
131 67 1
131 110 1
131 151 1
131 187 1
131 257 1
131 273 1
131 313 1
132 44 1
132 68 1
132 109 1
132 110 1
132 152 1
132 188 1
132 258 1
132 274 1
132 314 1
