%%MatrixMarket matrix coordinate integer general
% GF(4) labels 0,1,2=omega,3=omega+1; arithmetic is NOT integer arithmetic.
% Coordinate indices are 1-based; omitted entries are zero.
66 176 528
1 1 2
1 23 1
1 45 1
1 67 1
1 89 1
1 111 1
1 133 1
1 155 1
2 2 2
2 24 1
2 46 1
2 68 1
2 90 1
2 112 1
2 134 1
2 156 1
3 3 2
3 25 1
3 47 1
3 69 1
3 91 1
3 113 1
3 135 1
3 157 1
4 4 2
4 26 1
4 48 1
4 70 1
4 92 1
4 114 1
4 136 1
4 158 1
5 5 2
5 27 1
5 49 1
5 71 1
5 93 1
5 115 1
5 137 1
5 159 1
6 6 2
6 28 1
6 50 1
6 72 1
6 94 1
6 116 1
6 138 1
6 160 1
7 7 2
7 29 1
7 51 1
7 73 1
7 95 1
7 117 1
7 139 1
7 161 1
8 8 2
8 30 1
8 52 1
8 74 1
8 96 1
8 118 1
8 140 1
8 162 1
9 9 2
9 31 1
9 53 1
9 75 1
9 97 1
9 119 1
9 141 1
9 163 1
10 10 2
10 32 1
10 54 1
10 76 1
10 98 1
10 120 1
10 142 1
10 164 1
11 11 2
11 33 1
11 55 1
11 77 1
11 99 1
11 121 1
11 143 1
11 165 1
12 12 2
12 34 1
12 56 1
12 78 1
12 100 1
12 122 1
12 144 1
12 166 1
13 13 2
13 35 1
13 57 1
13 79 1
13 101 1
13 123 1
13 145 1
13 167 1
14 14 2
14 36 1
14 58 1
14 80 1
14 102 1
14 124 1
14 146 1
14 168 1
15 15 2
15 37 1
15 59 1
15 81 1
15 103 1
15 125 1
15 147 1
15 169 1
16 16 2
16 38 1
16 60 1
16 82 1
16 104 1
16 126 1
16 148 1
16 170 1
17 17 2
17 39 1
17 61 1
17 83 1
17 105 1
17 127 1
17 149 1
17 171 1
18 18 2
18 40 1
18 62 1
18 84 1
18 106 1
18 128 1
18 150 1
18 172 1
19 19 2
19 41 1
19 63 1
19 85 1
19 107 1
19 129 1
19 151 1
19 173 1
20 20 2
20 42 1
20 64 1
20 86 1
20 108 1
20 130 1
20 152 1
20 174 1
21 21 2
21 43 1
21 65 1
21 87 1
21 109 1
21 131 1
21 153 1
21 175 1
22 22 2
22 44 1
22 66 1
22 88 1
22 110 1
22 132 1
22 154 1
22 176 1
23 1 1
23 44 2
23 55 1
23 87 1
23 97 1
23 120 1
23 149 1
23 173 1
24 2 1
24 23 2
24 56 1
24 88 1
24 98 1
24 121 1
24 150 1
24 174 1
25 3 1
25 24 2
25 57 1
25 67 1
25 99 1
25 122 1
25 151 1
25 175 1
26 4 1
26 25 2
26 58 1
26 68 1
26 100 1
26 123 1
26 152 1
26 176 1
27 5 1
27 26 2
27 59 1
27 69 1
27 101 1
27 124 1
27 153 1
27 155 1
28 6 1
28 27 2
28 60 1
28 70 1
28 102 1
28 125 1
28 154 1
28 156 1
29 7 1
29 28 2
29 61 1
29 71 1
29 103 1
29 126 1
29 133 1
29 157 1
30 8 1
30 29 2
30 62 1
30 72 1
30 104 1
30 127 1
30 134 1
30 158 1
31 9 1
31 30 2
31 63 1
31 73 1
31 105 1
31 128 1
31 135 1
31 159 1
32 10 1
32 31 2
32 64 1
32 74 1
32 106 1
32 129 1
32 136 1
32 160 1
33 11 1
33 32 2
33 65 1
33 75 1
33 107 1
33 130 1
33 137 1
33 161 1
34 12 1
34 33 2
34 66 1
34 76 1
34 108 1
34 131 1
34 138 1
34 162 1
35 13 1
35 34 2
35 45 1
35 77 1
35 109 1
35 132 1
35 139 1
35 163 1
36 14 1
36 35 2
36 46 1
36 78 1
36 110 1
36 111 1
36 140 1
36 164 1
37 15 1
37 36 2
37 47 1
37 79 1
37 89 1
37 112 1
37 141 1
37 165 1
38 16 1
38 37 2
38 48 1
38 80 1
38 90 1
38 113 1
38 142 1
38 166 1
39 17 1
39 38 2
39 49 1
39 81 1
39 91 1
39 114 1
39 143 1
39 167 1
40 18 1
40 39 2
40 50 1
40 82 1
40 92 1
40 115 1
40 144 1
40 168 1
41 19 1
41 40 2
41 51 1
41 83 1
41 93 1
41 116 1
41 145 1
41 169 1
42 20 1
42 41 2
42 52 1
42 84 1
42 94 1
42 117 1
42 146 1
42 170 1
43 21 1
43 42 2
43 53 1
43 85 1
43 95 1
43 118 1
43 147 1
43 171 1
44 22 1
44 43 2
44 54 1
44 86 1
44 96 1
44 119 1
44 148 1
44 172 1
45 1 1
45 35 1
45 56 2
45 77 1
45 95 1
45 130 1
45 138 1
45 158 1
46 2 1
46 36 1
46 57 2
46 78 1
46 96 1
46 131 1
46 139 1
46 159 1
47 3 1
47 37 1
47 58 2
47 79 1
47 97 1
47 132 1
47 140 1
47 160 1
48 4 1
48 38 1
48 59 2
48 80 1
48 98 1
48 111 1
48 141 1
48 161 1
49 5 1
49 39 1
49 60 2
49 81 1
49 99 1
49 112 1
49 142 1
49 162 1
50 6 1
50 40 1
50 61 2
50 82 1
50 100 1
50 113 1
50 143 1
50 163 1
51 7 1
51 41 1
51 62 2
51 83 1
51 101 1
51 114 1
51 144 1
51 164 1
52 8 1
52 42 1
52 63 2
52 84 1
52 102 1
52 115 1
52 145 1
52 165 1
53 9 1
53 43 1
53 64 2
53 85 1
53 103 1
53 116 1
53 146 1
53 166 1
54 10 1
54 44 1
54 65 2
54 86 1
54 104 1
54 117 1
54 147 1
54 167 1
55 11 1
55 23 1
55 66 2
55 87 1
55 105 1
55 118 1
55 148 1
55 168 1
56 12 1
56 24 1
56 45 2
56 88 1
56 106 1
56 119 1
56 149 1
56 169 1
57 13 1
57 25 1
57 46 2
57 67 1
57 107 1
57 120 1
57 150 1
57 170 1
58 14 1
58 26 1
58 47 2
58 68 1
58 108 1
58 121 1
58 151 1
58 171 1
59 15 1
59 27 1
59 48 2
59 69 1
59 109 1
59 122 1
59 152 1
59 172 1
60 16 1
60 28 1
60 49 2
60 70 1
60 110 1
60 123 1
60 153 1
60 173 1
61 17 1
61 29 1
61 50 2
61 71 1
61 89 1
61 124 1
61 154 1
61 174 1
62 18 1
62 30 1
62 51 2
62 72 1
62 90 1
62 125 1
62 133 1
62 175 1
63 19 1
63 31 1
63 52 2
63 73 1
63 91 1
63 126 1
63 134 1
63 176 1
64 20 1
64 32 1
64 53 2
64 74 1
64 92 1
64 127 1
64 135 1
64 155 1
65 21 1
65 33 1
65 54 2
65 75 1
65 93 1
65 128 1
65 136 1
65 156 1
66 22 1
66 34 1
66 55 2
66 76 1
66 94 1
66 129 1
66 137 1
66 157 1
