%%MatrixMarket matrix coordinate integer general
% Binary matrix over GF(2).
% Coordinate indices are 1-based; omitted entries are zero.
132 352 1122
1 1 1
1 71 1
1 99 1
1 173 1
1 178 1
1 261 1
1 275 1
1 335 1
2 2 1
2 72 1
2 100 1
2 174 1
2 177 1
2 178 1
2 262 1
2 276 1
2 336 1
3 3 1
3 73 1
3 101 1
3 175 1
3 180 1
3 263 1
3 277 1
3 337 1
4 4 1
4 74 1
4 102 1
4 176 1
4 179 1
4 180 1
4 264 1
4 278 1
4 338 1
5 5 1
5 75 1
5 103 1
5 133 1
5 182 1
5 221 1
5 279 1
5 339 1
6 6 1
6 76 1
6 104 1
6 134 1
6 181 1
6 182 1
6 222 1
6 280 1
6 340 1
7 7 1
7 77 1
7 105 1
7 135 1
7 184 1
7 223 1
7 281 1
7 341 1
8 8 1
8 78 1
8 106 1
8 136 1
8 183 1
8 184 1
8 224 1
8 282 1
8 342 1
9 9 1
9 79 1
9 107 1
9 137 1
9 186 1
9 225 1
9 283 1
9 343 1
10 10 1
10 80 1
10 108 1
10 138 1
10 185 1
10 186 1
10 226 1
10 284 1
10 344 1
11 11 1
11 81 1
11 109 1
11 139 1
11 188 1
11 227 1
11 285 1
11 345 1
12 12 1
12 82 1
12 110 1
12 140 1
12 187 1
12 188 1
12 228 1
12 286 1
12 346 1
13 13 1
13 83 1
13 111 1
13 141 1
13 190 1
13 229 1
13 287 1
13 347 1
14 14 1
14 84 1
14 112 1
14 142 1
14 189 1
14 190 1
14 230 1
14 288 1
14 348 1
15 15 1
15 85 1
15 113 1
15 143 1
15 192 1
15 231 1
15 289 1
15 349 1
16 16 1
16 86 1
16 114 1
16 144 1
16 191 1
16 192 1
16 232 1
16 290 1
16 350 1
17 17 1
17 87 1
17 115 1
17 145 1
17 194 1
17 233 1
17 291 1
17 351 1
18 18 1
18 88 1
18 116 1
18 146 1
18 193 1
18 194 1
18 234 1
18 292 1
18 352 1
19 19 1
19 45 1
19 117 1
19 147 1
19 196 1
19 235 1
19 293 1
19 309 1
20 20 1
20 46 1
20 118 1
20 148 1
20 195 1
20 196 1
20 236 1
20 294 1
20 310 1
21 21 1
21 47 1
21 119 1
21 149 1
21 198 1
21 237 1
21 295 1
21 311 1
22 22 1
22 48 1
22 120 1
22 150 1
22 197 1
22 198 1
22 238 1
22 296 1
22 312 1
23 23 1
23 49 1
23 121 1
23 151 1
23 200 1
23 239 1
23 297 1
23 313 1
24 24 1
24 50 1
24 122 1
24 152 1
24 199 1
24 200 1
24 240 1
24 298 1
24 314 1
25 25 1
25 51 1
25 123 1
25 153 1
25 202 1
25 241 1
25 299 1
25 315 1
26 26 1
26 52 1
26 124 1
26 154 1
26 201 1
26 202 1
26 242 1
26 300 1
26 316 1
27 27 1
27 53 1
27 125 1
27 155 1
27 204 1
27 243 1
27 301 1
27 317 1
28 28 1
28 54 1
28 126 1
28 156 1
28 203 1
28 204 1
28 244 1
28 302 1
28 318 1
29 29 1
29 55 1
29 127 1
29 157 1
29 206 1
29 245 1
29 303 1
29 319 1
30 30 1
30 56 1
30 128 1
30 158 1
30 205 1
30 206 1
30 246 1
30 304 1
30 320 1
31 31 1
31 57 1
31 129 1
31 159 1
31 208 1
31 247 1
31 305 1
31 321 1
32 32 1
32 58 1
32 130 1
32 160 1
32 207 1
32 208 1
32 248 1
32 306 1
32 322 1
33 33 1
33 59 1
33 131 1
33 161 1
33 210 1
33 249 1
33 307 1
33 323 1
34 34 1
34 60 1
34 132 1
34 162 1
34 209 1
34 210 1
34 250 1
34 308 1
34 324 1
35 35 1
35 61 1
35 89 1
35 163 1
35 212 1
35 251 1
35 265 1
35 325 1
36 36 1
36 62 1
36 90 1
36 164 1
36 211 1
36 212 1
36 252 1
36 266 1
36 326 1
37 37 1
37 63 1
37 91 1
37 165 1
37 214 1
37 253 1
37 267 1
37 327 1
38 38 1
38 64 1
38 92 1
38 166 1
38 213 1
38 214 1
38 254 1
38 268 1
38 328 1
39 39 1
39 65 1
39 93 1
39 167 1
39 216 1
39 255 1
39 269 1
39 329 1
40 40 1
40 66 1
40 94 1
40 168 1
40 215 1
40 216 1
40 256 1
40 270 1
40 330 1
41 41 1
41 67 1
41 95 1
41 169 1
41 218 1
41 257 1
41 271 1
41 331 1
42 42 1
42 68 1
42 96 1
42 170 1
42 217 1
42 218 1
42 258 1
42 272 1
42 332 1
43 43 1
43 69 1
43 97 1
43 171 1
43 220 1
43 259 1
43 273 1
43 333 1
44 44 1
44 70 1
44 98 1
44 172 1
44 219 1
44 220 1
44 260 1
44 274 1
44 334 1
45 1 1
45 69 1
45 117 1
45 165 1
45 201 1
45 222 1
45 297 1
45 337 1
46 2 1
46 70 1
46 118 1
46 166 1
46 202 1
46 221 1
46 222 1
46 298 1
46 338 1
47 3 1
47 71 1
47 119 1
47 167 1
47 203 1
47 224 1
47 299 1
47 339 1
48 4 1
48 72 1
48 120 1
48 168 1
48 204 1
48 223 1
48 224 1
48 300 1
48 340 1
49 5 1
49 73 1
49 121 1
49 169 1
49 205 1
49 226 1
49 301 1
49 341 1
50 6 1
50 74 1
50 122 1
50 170 1
50 206 1
50 225 1
50 226 1
50 302 1
50 342 1
51 7 1
51 75 1
51 123 1
51 171 1
51 207 1
51 228 1
51 303 1
51 343 1
52 8 1
52 76 1
52 124 1
52 172 1
52 208 1
52 227 1
52 228 1
52 304 1
52 344 1
53 9 1
53 77 1
53 125 1
53 173 1
53 209 1
53 230 1
53 305 1
53 345 1
54 10 1
54 78 1
54 126 1
54 174 1
54 210 1
54 229 1
54 230 1
54 306 1
54 346 1
55 11 1
55 79 1
55 127 1
55 175 1
55 211 1
55 232 1
55 307 1
55 347 1
56 12 1
56 80 1
56 128 1
56 176 1
56 212 1
56 231 1
56 232 1
56 308 1
56 348 1
57 13 1
57 81 1
57 129 1
57 133 1
57 213 1
57 234 1
57 265 1
57 349 1
58 14 1
58 82 1
58 130 1
58 134 1
58 214 1
58 233 1
58 234 1
58 266 1
58 350 1
59 15 1
59 83 1
59 131 1
59 135 1
59 215 1
59 236 1
59 267 1
59 351 1
60 16 1
60 84 1
60 132 1
60 136 1
60 216 1
60 235 1
60 236 1
60 268 1
60 352 1
61 17 1
61 85 1
61 89 1
61 137 1
61 217 1
61 238 1
61 269 1
61 309 1
62 18 1
62 86 1
62 90 1
62 138 1
62 218 1
62 237 1
62 238 1
62 270 1
62 310 1
63 19 1
63 87 1
63 91 1
63 139 1
63 219 1
63 240 1
63 271 1
63 311 1
64 20 1
64 88 1
64 92 1
64 140 1
64 220 1
64 239 1
64 240 1
64 272 1
64 312 1
65 21 1
65 45 1
65 93 1
65 141 1
65 177 1
65 242 1
65 273 1
65 313 1
66 22 1
66 46 1
66 94 1
66 142 1
66 178 1
66 241 1
66 242 1
66 274 1
66 314 1
67 23 1
67 47 1
67 95 1
67 143 1
67 179 1
67 244 1
67 275 1
67 315 1
68 24 1
68 48 1
68 96 1
68 144 1
68 180 1
68 243 1
68 244 1
68 276 1
68 316 1
69 25 1
69 49 1
69 97 1
69 145 1
69 181 1
69 246 1
69 277 1
69 317 1
70 26 1
70 50 1
70 98 1
70 146 1
70 182 1
70 245 1
70 246 1
70 278 1
70 318 1
71 27 1
71 51 1
71 99 1
71 147 1
71 183 1
71 248 1
71 279 1
71 319 1
72 28 1
72 52 1
72 100 1
72 148 1
72 184 1
72 247 1
72 248 1
72 280 1
72 320 1
73 29 1
73 53 1
73 101 1
73 149 1
73 185 1
73 250 1
73 281 1
73 321 1
74 30 1
74 54 1
74 102 1
74 150 1
74 186 1
74 249 1
74 250 1
74 282 1
74 322 1
75 31 1
75 55 1
75 103 1
75 151 1
75 187 1
75 252 1
75 283 1
75 323 1
76 32 1
76 56 1
76 104 1
76 152 1
76 188 1
76 251 1
76 252 1
76 284 1
76 324 1
77 33 1
77 57 1
77 105 1
77 153 1
77 189 1
77 254 1
77 285 1
77 325 1
78 34 1
78 58 1
78 106 1
78 154 1
78 190 1
78 253 1
78 254 1
78 286 1
78 326 1
79 35 1
79 59 1
79 107 1
79 155 1
79 191 1
79 256 1
79 287 1
79 327 1
80 36 1
80 60 1
80 108 1
80 156 1
80 192 1
80 255 1
80 256 1
80 288 1
80 328 1
81 37 1
81 61 1
81 109 1
81 157 1
81 193 1
81 258 1
81 289 1
81 329 1
82 38 1
82 62 1
82 110 1
82 158 1
82 194 1
82 257 1
82 258 1
82 290 1
82 330 1
83 39 1
83 63 1
83 111 1
83 159 1
83 195 1
83 260 1
83 291 1
83 331 1
84 40 1
84 64 1
84 112 1
84 160 1
84 196 1
84 259 1
84 260 1
84 292 1
84 332 1
85 41 1
85 65 1
85 113 1
85 161 1
85 197 1
85 262 1
85 293 1
85 333 1
86 42 1
86 66 1
86 114 1
86 162 1
86 198 1
86 261 1
86 262 1
86 294 1
86 334 1
87 43 1
87 67 1
87 115 1
87 163 1
87 199 1
87 264 1
87 295 1
87 335 1
88 44 1
88 68 1
88 116 1
88 164 1
88 200 1
88 263 1
88 264 1
88 296 1
88 336 1
89 1 1
89 55 1
89 101 1
89 169 1
89 189 1
89 231 1
89 266 1
89 345 1
90 2 1
90 56 1
90 102 1
90 170 1
90 190 1
90 232 1
90 265 1
90 266 1
90 346 1
91 3 1
91 57 1
91 103 1
91 171 1
91 191 1
91 233 1
91 268 1
91 347 1
92 4 1
92 58 1
92 104 1
92 172 1
92 192 1
92 234 1
92 267 1
92 268 1
92 348 1
93 5 1
93 59 1
93 105 1
93 173 1
93 193 1
93 235 1
93 270 1
93 349 1
94 6 1
94 60 1
94 106 1
94 174 1
94 194 1
94 236 1
94 269 1
94 270 1
94 350 1
95 7 1
95 61 1
95 107 1
95 175 1
95 195 1
95 237 1
95 272 1
95 351 1
96 8 1
96 62 1
96 108 1
96 176 1
96 196 1
96 238 1
96 271 1
96 272 1
96 352 1
97 9 1
97 63 1
97 109 1
97 133 1
97 197 1
97 239 1
97 274 1
97 309 1
98 10 1
98 64 1
98 110 1
98 134 1
98 198 1
98 240 1
98 273 1
98 274 1
98 310 1
99 11 1
99 65 1
99 111 1
99 135 1
99 199 1
99 241 1
99 276 1
99 311 1
100 12 1
100 66 1
100 112 1
100 136 1
100 200 1
100 242 1
100 275 1
100 276 1
100 312 1
101 13 1
101 67 1
101 113 1
101 137 1
101 201 1
101 243 1
101 278 1
101 313 1
102 14 1
102 68 1
102 114 1
102 138 1
102 202 1
102 244 1
102 277 1
102 278 1
102 314 1
103 15 1
103 69 1
103 115 1
103 139 1
103 203 1
103 245 1
103 280 1
103 315 1
104 16 1
104 70 1
104 116 1
104 140 1
104 204 1
104 246 1
104 279 1
104 280 1
104 316 1
105 17 1
105 71 1
105 117 1
105 141 1
105 205 1
105 247 1
105 282 1
105 317 1
106 18 1
106 72 1
106 118 1
106 142 1
106 206 1
106 248 1
106 281 1
106 282 1
106 318 1
107 19 1
107 73 1
107 119 1
107 143 1
107 207 1
107 249 1
107 284 1
107 319 1
108 20 1
108 74 1
108 120 1
108 144 1
108 208 1
108 250 1
108 283 1
108 284 1
108 320 1
109 21 1
109 75 1
109 121 1
109 145 1
109 209 1
109 251 1
109 286 1
109 321 1
110 22 1
110 76 1
110 122 1
110 146 1
110 210 1
110 252 1
110 285 1
110 286 1
110 322 1
111 23 1
111 77 1
111 123 1
111 147 1
111 211 1
111 253 1
111 288 1
111 323 1
112 24 1
112 78 1
112 124 1
112 148 1
112 212 1
112 254 1
112 287 1
112 288 1
112 324 1
113 25 1
113 79 1
113 125 1
113 149 1
113 213 1
113 255 1
113 290 1
113 325 1
114 26 1
114 80 1
114 126 1
114 150 1
114 214 1
114 256 1
114 289 1
114 290 1
114 326 1
115 27 1
115 81 1
115 127 1
115 151 1
115 215 1
115 257 1
115 292 1
115 327 1
116 28 1
116 82 1
116 128 1
116 152 1
116 216 1
116 258 1
116 291 1
116 292 1
116 328 1
117 29 1
117 83 1
117 129 1
117 153 1
117 217 1
117 259 1
117 294 1
117 329 1
118 30 1
118 84 1
118 130 1
118 154 1
118 218 1
118 260 1
118 293 1
118 294 1
118 330 1
119 31 1
119 85 1
119 131 1
119 155 1
119 219 1
119 261 1
119 296 1
119 331 1
120 32 1
120 86 1
120 132 1
120 156 1
120 220 1
120 262 1
120 295 1
120 296 1
120 332 1
121 33 1
121 87 1
121 89 1
121 157 1
121 177 1
121 263 1
121 298 1
121 333 1
122 34 1
122 88 1
122 90 1
122 158 1
122 178 1
122 264 1
122 297 1
122 298 1
122 334 1
123 35 1
123 45 1
123 91 1
123 159 1
123 179 1
123 221 1
123 300 1
123 335 1
124 36 1
124 46 1
124 92 1
124 160 1
124 180 1
124 222 1
124 299 1
124 300 1
124 336 1
125 37 1
125 47 1
125 93 1
125 161 1
125 181 1
125 223 1
125 302 1
125 337 1
126 38 1
126 48 1
126 94 1
126 162 1
126 182 1
126 224 1
126 301 1
126 302 1
126 338 1
127 39 1
127 49 1
127 95 1
127 163 1
127 183 1
127 225 1
127 304 1
127 339 1
128 40 1
128 50 1
128 96 1
128 164 1
128 184 1
128 226 1
128 303 1
128 304 1
128 340 1
129 41 1
129 51 1
129 97 1
129 165 1
129 185 1
129 227 1
129 306 1
129 341 1
130 42 1
130 52 1
130 98 1
130 166 1
130 186 1
130 228 1
130 305 1
130 306 1
130 342 1
131 43 1
131 53 1
131 99 1
131 167 1
131 187 1
131 229 1
131 308 1
131 343 1
132 44 1
132 54 1
132 100 1
132 168 1
132 188 1
132 230 1
132 307 1
132 308 1
132 344 1
