%%MatrixMarket matrix coordinate integer general
% GF(4) labels 0,1,2=omega,3=omega+1; arithmetic is NOT integer arithmetic.
% Coordinate indices are 1-based; omitted entries are zero.
66 176 528
1 1 1
1 36 1
1 50 1
1 87 1
1 89 2
1 131 1
1 138 1
1 168 1
2 2 1
2 37 1
2 51 1
2 88 1
2 90 2
2 132 1
2 139 1
2 169 1
3 3 1
3 38 1
3 52 1
3 67 1
3 91 2
3 111 1
3 140 1
3 170 1
4 4 1
4 39 1
4 53 1
4 68 1
4 92 2
4 112 1
4 141 1
4 171 1
5 5 1
5 40 1
5 54 1
5 69 1
5 93 2
5 113 1
5 142 1
5 172 1
6 6 1
6 41 1
6 55 1
6 70 1
6 94 2
6 114 1
6 143 1
6 173 1
7 7 1
7 42 1
7 56 1
7 71 1
7 95 2
7 115 1
7 144 1
7 174 1
8 8 1
8 43 1
8 57 1
8 72 1
8 96 2
8 116 1
8 145 1
8 175 1
9 9 1
9 44 1
9 58 1
9 73 1
9 97 2
9 117 1
9 146 1
9 176 1
10 10 1
10 23 1
10 59 1
10 74 1
10 98 2
10 118 1
10 147 1
10 155 1
11 11 1
11 24 1
11 60 1
11 75 1
11 99 2
11 119 1
11 148 1
11 156 1
12 12 1
12 25 1
12 61 1
12 76 1
12 100 2
12 120 1
12 149 1
12 157 1
13 13 1
13 26 1
13 62 1
13 77 1
13 101 2
13 121 1
13 150 1
13 158 1
14 14 1
14 27 1
14 63 1
14 78 1
14 102 2
14 122 1
14 151 1
14 159 1
15 15 1
15 28 1
15 64 1
15 79 1
15 103 2
15 123 1
15 152 1
15 160 1
16 16 1
16 29 1
16 65 1
16 80 1
16 104 2
16 124 1
16 153 1
16 161 1
17 17 1
17 30 1
17 66 1
17 81 1
17 105 2
17 125 1
17 154 1
17 162 1
18 18 1
18 31 1
18 45 1
18 82 1
18 106 2
18 126 1
18 133 1
18 163 1
19 19 1
19 32 1
19 46 1
19 83 1
19 107 2
19 127 1
19 134 1
19 164 1
20 20 1
20 33 1
20 47 1
20 84 1
20 108 2
20 128 1
20 135 1
20 165 1
21 21 1
21 34 1
21 48 1
21 85 1
21 109 2
21 129 1
21 136 1
21 166 1
22 22 1
22 35 1
22 49 1
22 86 1
22 110 2
22 130 1
22 137 1
22 167 1
23 1 1
23 35 1
23 59 1
23 83 1
23 101 1
23 111 2
23 149 1
23 169 1
24 2 1
24 36 1
24 60 1
24 84 1
24 102 1
24 112 2
24 150 1
24 170 1
25 3 1
25 37 1
25 61 1
25 85 1
25 103 1
25 113 2
25 151 1
25 171 1
26 4 1
26 38 1
26 62 1
26 86 1
26 104 1
26 114 2
26 152 1
26 172 1
27 5 1
27 39 1
27 63 1
27 87 1
27 105 1
27 115 2
27 153 1
27 173 1
28 6 1
28 40 1
28 64 1
28 88 1
28 106 1
28 116 2
28 154 1
28 174 1
29 7 1
29 41 1
29 65 1
29 67 1
29 107 1
29 117 2
29 133 1
29 175 1
30 8 1
30 42 1
30 66 1
30 68 1
30 108 1
30 118 2
30 134 1
30 176 1
31 9 1
31 43 1
31 45 1
31 69 1
31 109 1
31 119 2
31 135 1
31 155 1
32 10 1
32 44 1
32 46 1
32 70 1
32 110 1
32 120 2
32 136 1
32 156 1
33 11 1
33 23 1
33 47 1
33 71 1
33 89 1
33 121 2
33 137 1
33 157 1
34 12 1
34 24 1
34 48 1
34 72 1
34 90 1
34 122 2
34 138 1
34 158 1
35 13 1
35 25 1
35 49 1
35 73 1
35 91 1
35 123 2
35 139 1
35 159 1
36 14 1
36 26 1
36 50 1
36 74 1
36 92 1
36 124 2
36 140 1
36 160 1
37 15 1
37 27 1
37 51 1
37 75 1
37 93 1
37 125 2
37 141 1
37 161 1
38 16 1
38 28 1
38 52 1
38 76 1
38 94 1
38 126 2
38 142 1
38 162 1
39 17 1
39 29 1
39 53 1
39 77 1
39 95 1
39 127 2
39 143 1
39 163 1
40 18 1
40 30 1
40 54 1
40 78 1
40 96 1
40 128 2
40 144 1
40 164 1
41 19 1
41 31 1
41 55 1
41 79 1
41 97 1
41 129 2
41 145 1
41 165 1
42 20 1
42 32 1
42 56 1
42 80 1
42 98 1
42 130 2
42 146 1
42 166 1
43 21 1
43 33 1
43 57 1
43 81 1
43 99 1
43 131 2
43 147 1
43 167 1
44 22 1
44 34 1
44 58 1
44 82 1
44 100 1
44 132 2
44 148 1
44 168 1
45 1 1
45 28 1
45 51 1
45 85 1
45 95 1
45 116 1
45 133 2
45 173 1
46 2 1
46 29 1
46 52 1
46 86 1
46 96 1
46 117 1
46 134 2
46 174 1
47 3 1
47 30 1
47 53 1
47 87 1
47 97 1
47 118 1
47 135 2
47 175 1
48 4 1
48 31 1
48 54 1
48 88 1
48 98 1
48 119 1
48 136 2
48 176 1
49 5 1
49 32 1
49 55 1
49 67 1
49 99 1
49 120 1
49 137 2
49 155 1
50 6 1
50 33 1
50 56 1
50 68 1
50 100 1
50 121 1
50 138 2
50 156 1
51 7 1
51 34 1
51 57 1
51 69 1
51 101 1
51 122 1
51 139 2
51 157 1
52 8 1
52 35 1
52 58 1
52 70 1
52 102 1
52 123 1
52 140 2
52 158 1
53 9 1
53 36 1
53 59 1
53 71 1
53 103 1
53 124 1
53 141 2
53 159 1
54 10 1
54 37 1
54 60 1
54 72 1
54 104 1
54 125 1
54 142 2
54 160 1
55 11 1
55 38 1
55 61 1
55 73 1
55 105 1
55 126 1
55 143 2
55 161 1
56 12 1
56 39 1
56 62 1
56 74 1
56 106 1
56 127 1
56 144 2
56 162 1
57 13 1
57 40 1
57 63 1
57 75 1
57 107 1
57 128 1
57 145 2
57 163 1
58 14 1
58 41 1
58 64 1
58 76 1
58 108 1
58 129 1
58 146 2
58 164 1
59 15 1
59 42 1
59 65 1
59 77 1
59 109 1
59 130 1
59 147 2
59 165 1
60 16 1
60 43 1
60 66 1
60 78 1
60 110 1
60 131 1
60 148 2
60 166 1
61 17 1
61 44 1
61 45 1
61 79 1
61 89 1
61 132 1
61 149 2
61 167 1
62 18 1
62 23 1
62 46 1
62 80 1
62 90 1
62 111 1
62 150 2
62 168 1
63 19 1
63 24 1
63 47 1
63 81 1
63 91 1
63 112 1
63 151 2
63 169 1
64 20 1
64 25 1
64 48 1
64 82 1
64 92 1
64 113 1
64 152 2
64 170 1
65 21 1
65 26 1
65 49 1
65 83 1
65 93 1
65 114 1
65 153 2
65 171 1
66 22 1
66 27 1
66 50 1
66 84 1
66 94 1
66 115 1
66 154 2
66 172 1
