%%MatrixMarket matrix coordinate integer general
% Binary matrix over GF(2).
% Coordinate indices are 1-based; omitted entries are zero.
88 352 1958
1 61 1
1 62 1
1 66 1
1 83 1
1 84 1
1 195 1
1 197 1
1 212 1
1 215 1
1 216 1
1 217 1
1 267 1
1 272 1
1 287 1
1 291 1
1 293 1
1 294 1
1 309 1
1 312 1
1 327 1
1 329 1
1 330 1
1 348 1
1 351 1
2 63 1
2 64 1
2 68 1
2 85 1
2 86 1
2 197 1
2 199 1
2 214 1
2 217 1
2 218 1
2 219 1
2 269 1
2 274 1
2 289 1
2 293 1
2 295 1
2 296 1
2 309 1
2 311 1
2 314 1
2 329 1
2 331 1
2 332 1
2 350 1
3 65 1
3 66 1
3 70 1
3 87 1
3 88 1
3 177 1
3 199 1
3 201 1
3 216 1
3 219 1
3 220 1
3 271 1
3 276 1
3 291 1
3 295 1
3 297 1
3 298 1
3 311 1
3 313 1
3 316 1
3 331 1
3 333 1
3 334 1
3 352 1
4 45 1
4 46 1
4 67 1
4 68 1
4 72 1
4 177 1
4 178 1
4 179 1
4 201 1
4 203 1
4 218 1
4 273 1
4 278 1
4 293 1
4 297 1
4 299 1
4 300 1
4 310 1
4 313 1
4 315 1
4 318 1
4 333 1
4 335 1
4 336 1
5 47 1
5 48 1
5 69 1
5 70 1
5 74 1
5 179 1
5 180 1
5 181 1
5 203 1
5 205 1
5 220 1
5 275 1
5 280 1
5 295 1
5 299 1
5 301 1
5 302 1
5 312 1
5 315 1
5 317 1
5 320 1
5 335 1
5 337 1
5 338 1
6 49 1
6 50 1
6 71 1
6 72 1
6 76 1
6 178 1
6 181 1
6 182 1
6 183 1
6 205 1
6 207 1
6 277 1
6 282 1
6 297 1
6 301 1
6 303 1
6 304 1
6 314 1
6 317 1
6 319 1
6 322 1
6 337 1
6 339 1
6 340 1
7 51 1
7 52 1
7 73 1
7 74 1
7 78 1
7 180 1
7 183 1
7 184 1
7 185 1
7 207 1
7 209 1
7 279 1
7 284 1
7 299 1
7 303 1
7 305 1
7 306 1
7 316 1
7 319 1
7 321 1
7 324 1
7 339 1
7 341 1
7 342 1
8 53 1
8 54 1
8 75 1
8 76 1
8 80 1
8 182 1
8 185 1
8 186 1
8 187 1
8 209 1
8 211 1
8 281 1
8 286 1
8 301 1
8 305 1
8 307 1
8 308 1
8 318 1
8 321 1
8 323 1
8 326 1
8 341 1
8 343 1
8 344 1
9 55 1
9 56 1
9 77 1
9 78 1
9 82 1
9 184 1
9 187 1
9 188 1
9 189 1
9 211 1
9 213 1
9 265 1
9 266 1
9 283 1
9 288 1
9 303 1
9 307 1
9 320 1
9 323 1
9 325 1
9 328 1
9 343 1
9 345 1
9 346 1
10 57 1
10 58 1
10 79 1
10 80 1
10 84 1
10 186 1
10 189 1
10 190 1
10 191 1
10 213 1
10 215 1
10 265 1
10 267 1
10 268 1
10 285 1
10 290 1
10 305 1
10 322 1
10 325 1
10 327 1
10 330 1
10 345 1
10 347 1
10 348 1
11 59 1
11 60 1
11 81 1
11 82 1
11 86 1
11 188 1
11 191 1
11 192 1
11 193 1
11 215 1
11 217 1
11 267 1
11 269 1
11 270 1
11 287 1
11 292 1
11 307 1
11 324 1
11 327 1
11 329 1
11 332 1
11 347 1
11 349 1
11 350 1
12 61 1
12 62 1
12 83 1
12 84 1
12 88 1
12 190 1
12 193 1
12 194 1
12 195 1
12 217 1
12 219 1
12 265 1
12 269 1
12 271 1
12 272 1
12 289 1
12 294 1
12 326 1
12 329 1
12 331 1
12 334 1
12 349 1
12 351 1
12 352 1
13 46 1
13 63 1
13 64 1
13 85 1
13 86 1
13 177 1
13 192 1
13 195 1
13 196 1
13 197 1
13 219 1
13 267 1
13 271 1
13 273 1
13 274 1
13 291 1
13 296 1
13 309 1
13 310 1
13 328 1
13 331 1
13 333 1
13 336 1
13 351 1
14 48 1
14 65 1
14 66 1
14 87 1
14 88 1
14 177 1
14 179 1
14 194 1
14 197 1
14 198 1
14 199 1
14 269 1
14 273 1
14 275 1
14 276 1
14 293 1
14 298 1
14 309 1
14 311 1
14 312 1
14 330 1
14 333 1
14 335 1
14 338 1
15 45 1
15 46 1
15 50 1
15 67 1
15 68 1
15 179 1
15 181 1
15 196 1
15 199 1
15 200 1
15 201 1
15 271 1
15 275 1
15 277 1
15 278 1
15 295 1
15 300 1
15 311 1
15 313 1
15 314 1
15 332 1
15 335 1
15 337 1
15 340 1
16 47 1
16 48 1
16 52 1
16 69 1
16 70 1
16 181 1
16 183 1
16 198 1
16 201 1
16 202 1
16 203 1
16 273 1
16 277 1
16 279 1
16 280 1
16 297 1
16 302 1
16 313 1
16 315 1
16 316 1
16 334 1
16 337 1
16 339 1
16 342 1
17 49 1
17 50 1
17 54 1
17 71 1
17 72 1
17 183 1
17 185 1
17 200 1
17 203 1
17 204 1
17 205 1
17 275 1
17 279 1
17 281 1
17 282 1
17 299 1
17 304 1
17 315 1
17 317 1
17 318 1
17 336 1
17 339 1
17 341 1
17 344 1
18 51 1
18 52 1
18 56 1
18 73 1
18 74 1
18 185 1
18 187 1
18 202 1
18 205 1
18 206 1
18 207 1
18 277 1
18 281 1
18 283 1
18 284 1
18 301 1
18 306 1
18 317 1
18 319 1
18 320 1
18 338 1
18 341 1
18 343 1
18 346 1
19 53 1
19 54 1
19 58 1
19 75 1
19 76 1
19 187 1
19 189 1
19 204 1
19 207 1
19 208 1
19 209 1
19 279 1
19 283 1
19 285 1
19 286 1
19 303 1
19 308 1
19 319 1
19 321 1
19 322 1
19 340 1
19 343 1
19 345 1
19 348 1
20 55 1
20 56 1
20 60 1
20 77 1
20 78 1
20 189 1
20 191 1
20 206 1
20 209 1
20 210 1
20 211 1
20 266 1
20 281 1
20 285 1
20 287 1
20 288 1
20 305 1
20 321 1
20 323 1
20 324 1
20 342 1
20 345 1
20 347 1
20 350 1
21 57 1
21 58 1
21 62 1
21 79 1
21 80 1
21 191 1
21 193 1
21 208 1
21 211 1
21 212 1
21 213 1
21 268 1
21 283 1
21 287 1
21 289 1
21 290 1
21 307 1
21 323 1
21 325 1
21 326 1
21 344 1
21 347 1
21 349 1
21 352 1
22 59 1
22 60 1
22 64 1
22 81 1
22 82 1
22 193 1
22 195 1
22 210 1
22 213 1
22 214 1
22 215 1
22 265 1
22 270 1
22 285 1
22 289 1
22 291 1
22 292 1
22 310 1
22 325 1
22 327 1
22 328 1
22 346 1
22 349 1
22 351 1
23 61 1
23 65 1
23 66 1
23 83 1
23 196 1
23 198 1
23 211 1
23 212 1
23 215 1
23 218 1
23 268 1
23 271 1
23 272 1
23 288 1
23 292 1
23 293 1
23 310 1
23 311 1
23 312 1
23 328 1
23 329 1
23 347 1
23 348 1
23 352 1
24 63 1
24 67 1
24 68 1
24 85 1
24 198 1
24 200 1
24 213 1
24 214 1
24 217 1
24 220 1
24 270 1
24 273 1
24 274 1
24 290 1
24 294 1
24 295 1
24 310 1
24 312 1
24 313 1
24 314 1
24 330 1
24 331 1
24 349 1
24 350 1
25 65 1
25 69 1
25 70 1
25 87 1
25 178 1
25 200 1
25 202 1
25 215 1
25 216 1
25 219 1
25 272 1
25 275 1
25 276 1
25 292 1
25 296 1
25 297 1
25 312 1
25 314 1
25 315 1
25 316 1
25 332 1
25 333 1
25 351 1
25 352 1
26 45 1
26 67 1
26 71 1
26 72 1
26 177 1
26 180 1
26 202 1
26 204 1
26 217 1
26 218 1
26 274 1
26 277 1
26 278 1
26 294 1
26 298 1
26 299 1
26 309 1
26 310 1
26 314 1
26 316 1
26 317 1
26 318 1
26 334 1
26 335 1
27 47 1
27 69 1
27 73 1
27 74 1
27 179 1
27 182 1
27 204 1
27 206 1
27 219 1
27 220 1
27 276 1
27 279 1
27 280 1
27 296 1
27 300 1
27 301 1
27 311 1
27 312 1
27 316 1
27 318 1
27 319 1
27 320 1
27 336 1
27 337 1
28 49 1
28 71 1
28 75 1
28 76 1
28 177 1
28 178 1
28 181 1
28 184 1
28 206 1
28 208 1
28 278 1
28 281 1
28 282 1
28 298 1
28 302 1
28 303 1
28 313 1
28 314 1
28 318 1
28 320 1
28 321 1
28 322 1
28 338 1
28 339 1
29 51 1
29 73 1
29 77 1
29 78 1
29 179 1
29 180 1
29 183 1
29 186 1
29 208 1
29 210 1
29 280 1
29 283 1
29 284 1
29 300 1
29 304 1
29 305 1
29 315 1
29 316 1
29 320 1
29 322 1
29 323 1
29 324 1
29 340 1
29 341 1
30 53 1
30 75 1
30 79 1
30 80 1
30 181 1
30 182 1
30 185 1
30 188 1
30 210 1
30 212 1
30 282 1
30 285 1
30 286 1
30 302 1
30 306 1
30 307 1
30 317 1
30 318 1
30 322 1
30 324 1
30 325 1
30 326 1
30 342 1
30 343 1
31 55 1
31 77 1
31 81 1
31 82 1
31 183 1
31 184 1
31 187 1
31 190 1
31 212 1
31 214 1
31 265 1
31 284 1
31 287 1
31 288 1
31 304 1
31 308 1
31 319 1
31 320 1
31 324 1
31 326 1
31 327 1
31 328 1
31 344 1
31 345 1
32 57 1
32 79 1
32 83 1
32 84 1
32 185 1
32 186 1
32 189 1
32 192 1
32 214 1
32 216 1
32 266 1
32 267 1
32 286 1
32 289 1
32 290 1
32 306 1
32 321 1
32 322 1
32 326 1
32 328 1
32 329 1
32 330 1
32 346 1
32 347 1
33 59 1
33 81 1
33 85 1
33 86 1
33 187 1
33 188 1
33 191 1
33 194 1
33 216 1
33 218 1
33 268 1
33 269 1
33 288 1
33 291 1
33 292 1
33 308 1
33 323 1
33 324 1
33 328 1
33 330 1
33 331 1
33 332 1
33 348 1
33 349 1
34 61 1
34 83 1
34 87 1
34 88 1
34 189 1
34 190 1
34 193 1
34 196 1
34 218 1
34 220 1
34 266 1
34 270 1
34 271 1
34 290 1
34 293 1
34 294 1
34 325 1
34 326 1
34 330 1
34 332 1
34 333 1
34 334 1
34 350 1
34 351 1
35 45 1
35 46 1
35 63 1
35 85 1
35 178 1
35 191 1
35 192 1
35 195 1
35 198 1
35 220 1
35 268 1
35 272 1
35 273 1
35 292 1
35 295 1
35 296 1
35 309 1
35 327 1
35 328 1
35 332 1
35 334 1
35 335 1
35 336 1
35 352 1
36 47 1
36 48 1
36 65 1
36 87 1
36 178 1
36 180 1
36 193 1
36 194 1
36 197 1
36 200 1
36 270 1
36 274 1
36 275 1
36 294 1
36 297 1
36 298 1
36 310 1
36 311 1
36 329 1
36 330 1
36 334 1
36 336 1
36 337 1
36 338 1
37 45 1
37 49 1
37 50 1
37 67 1
37 180 1
37 182 1
37 195 1
37 196 1
37 199 1
37 202 1
37 272 1
37 276 1
37 277 1
37 296 1
37 299 1
37 300 1
37 312 1
37 313 1
37 331 1
37 332 1
37 336 1
37 338 1
37 339 1
37 340 1
38 47 1
38 51 1
38 52 1
38 69 1
38 182 1
38 184 1
38 197 1
38 198 1
38 201 1
38 204 1
38 274 1
38 278 1
38 279 1
38 298 1
38 301 1
38 302 1
38 314 1
38 315 1
38 333 1
38 334 1
38 338 1
38 340 1
38 341 1
38 342 1
39 49 1
39 53 1
39 54 1
39 71 1
39 184 1
39 186 1
39 199 1
39 200 1
39 203 1
39 206 1
39 276 1
39 280 1
39 281 1
39 300 1
39 303 1
39 304 1
39 316 1
39 317 1
39 335 1
39 336 1
39 340 1
39 342 1
39 343 1
39 344 1
40 51 1
40 55 1
40 56 1
40 73 1
40 186 1
40 188 1
40 201 1
40 202 1
40 205 1
40 208 1
40 278 1
40 282 1
40 283 1
40 302 1
40 305 1
40 306 1
40 318 1
40 319 1
40 337 1
40 338 1
40 342 1
40 344 1
40 345 1
40 346 1
41 53 1
41 57 1
41 58 1
41 75 1
41 188 1
41 190 1
41 203 1
41 204 1
41 207 1
41 210 1
41 280 1
41 284 1
41 285 1
41 304 1
41 307 1
41 308 1
41 320 1
41 321 1
41 339 1
41 340 1
41 344 1
41 346 1
41 347 1
41 348 1
42 55 1
42 59 1
42 60 1
42 77 1
42 190 1
42 192 1
42 205 1
42 206 1
42 209 1
42 212 1
42 265 1
42 266 1
42 282 1
42 286 1
42 287 1
42 306 1
42 322 1
42 323 1
42 341 1
42 342 1
42 346 1
42 348 1
42 349 1
42 350 1
43 57 1
43 61 1
43 62 1
43 79 1
43 192 1
43 194 1
43 207 1
43 208 1
43 211 1
43 214 1
43 267 1
43 268 1
43 284 1
43 288 1
43 289 1
43 308 1
43 324 1
43 325 1
43 343 1
43 344 1
43 348 1
43 350 1
43 351 1
43 352 1
44 59 1
44 63 1
44 64 1
44 81 1
44 194 1
44 196 1
44 209 1
44 210 1
44 213 1
44 216 1
44 266 1
44 269 1
44 270 1
44 286 1
44 290 1
44 291 1
44 309 1
44 310 1
44 326 1
44 327 1
44 345 1
44 346 1
44 350 1
44 352 1
45 195 1
45 197 1
45 202 1
45 218 1
45 219 1
45 220 1
45 237 1
45 241 1
45 242 1
45 259 1
45 273 1
45 274 1
45 294 1
45 298 1
45 311 1
45 312 1
45 314 1
45 331 1
45 332 1
45 333 1
45 334 1
46 177 1
46 178 1
46 197 1
46 199 1
46 204 1
46 220 1
46 239 1
46 243 1
46 244 1
46 261 1
46 275 1
46 276 1
46 296 1
46 300 1
46 313 1
46 314 1
46 316 1
46 333 1
46 334 1
46 335 1
46 336 1
47 178 1
47 179 1
47 180 1
47 199 1
47 201 1
47 206 1
47 241 1
47 245 1
47 246 1
47 263 1
47 277 1
47 278 1
47 298 1
47 302 1
47 315 1
47 316 1
47 318 1
47 335 1
47 336 1
47 337 1
47 338 1
48 180 1
48 181 1
48 182 1
48 201 1
48 203 1
48 208 1
48 221 1
48 243 1
48 247 1
48 248 1
48 279 1
48 280 1
48 300 1
48 304 1
48 317 1
48 318 1
48 320 1
48 337 1
48 338 1
48 339 1
48 340 1
49 182 1
49 183 1
49 184 1
49 203 1
49 205 1
49 210 1
49 223 1
49 245 1
49 249 1
49 250 1
49 281 1
49 282 1
49 302 1
49 306 1
49 319 1
49 320 1
49 322 1
49 339 1
49 340 1
49 341 1
49 342 1
50 184 1
50 185 1
50 186 1
50 205 1
50 207 1
50 212 1
50 225 1
50 247 1
50 251 1
50 252 1
50 283 1
50 284 1
50 304 1
50 308 1
50 321 1
50 322 1
50 324 1
50 341 1
50 342 1
50 343 1
50 344 1
51 186 1
51 187 1
51 188 1
51 207 1
51 209 1
51 214 1
51 227 1
51 249 1
51 253 1
51 254 1
51 266 1
51 285 1
51 286 1
51 306 1
51 323 1
51 324 1
51 326 1
51 343 1
51 344 1
51 345 1
51 346 1
52 188 1
52 189 1
52 190 1
52 209 1
52 211 1
52 216 1
52 229 1
52 251 1
52 255 1
52 256 1
52 268 1
52 287 1
52 288 1
52 308 1
52 325 1
52 326 1
52 328 1
52 345 1
52 346 1
52 347 1
52 348 1
53 190 1
53 191 1
53 192 1
53 211 1
53 213 1
53 218 1
53 231 1
53 253 1
53 257 1
53 258 1
53 266 1
53 270 1
53 289 1
53 290 1
53 327 1
53 328 1
53 330 1
53 347 1
53 348 1
53 349 1
53 350 1
54 192 1
54 193 1
54 194 1
54 213 1
54 215 1
54 220 1
54 233 1
54 255 1
54 259 1
54 260 1
54 268 1
54 272 1
54 291 1
54 292 1
54 329 1
54 330 1
54 332 1
54 349 1
54 350 1
54 351 1
54 352 1
55 178 1
55 194 1
55 195 1
55 196 1
55 215 1
55 217 1
55 235 1
55 257 1
55 261 1
55 262 1
55 270 1
55 274 1
55 293 1
55 294 1
55 309 1
55 310 1
55 331 1
55 332 1
55 334 1
55 351 1
55 352 1
56 180 1
56 196 1
56 197 1
56 198 1
56 217 1
56 219 1
56 237 1
56 259 1
56 263 1
56 264 1
56 272 1
56 276 1
56 295 1
56 296 1
56 309 1
56 310 1
56 311 1
56 312 1
56 333 1
56 334 1
56 336 1
57 177 1
57 182 1
57 198 1
57 199 1
57 200 1
57 219 1
57 221 1
57 222 1
57 239 1
57 261 1
57 274 1
57 278 1
57 297 1
57 298 1
57 311 1
57 312 1
57 313 1
57 314 1
57 335 1
57 336 1
57 338 1
58 177 1
58 179 1
58 184 1
58 200 1
58 201 1
58 202 1
58 223 1
58 224 1
58 241 1
58 263 1
58 276 1
58 280 1
58 299 1
58 300 1
58 313 1
58 314 1
58 315 1
58 316 1
58 337 1
58 338 1
58 340 1
59 179 1
59 181 1
59 186 1
59 202 1
59 203 1
59 204 1
59 221 1
59 225 1
59 226 1
59 243 1
59 278 1
59 282 1
59 301 1
59 302 1
59 315 1
59 316 1
59 317 1
59 318 1
59 339 1
59 340 1
59 342 1
60 181 1
60 183 1
60 188 1
60 204 1
60 205 1
60 206 1
60 223 1
60 227 1
60 228 1
60 245 1
60 280 1
60 284 1
60 303 1
60 304 1
60 317 1
60 318 1
60 319 1
60 320 1
60 341 1
60 342 1
60 344 1
61 183 1
61 185 1
61 190 1
61 206 1
61 207 1
61 208 1
61 225 1
61 229 1
61 230 1
61 247 1
61 282 1
61 286 1
61 305 1
61 306 1
61 319 1
61 320 1
61 321 1
61 322 1
61 343 1
61 344 1
61 346 1
62 185 1
62 187 1
62 192 1
62 208 1
62 209 1
62 210 1
62 227 1
62 231 1
62 232 1
62 249 1
62 284 1
62 288 1
62 307 1
62 308 1
62 321 1
62 322 1
62 323 1
62 324 1
62 345 1
62 346 1
62 348 1
63 187 1
63 189 1
63 194 1
63 210 1
63 211 1
63 212 1
63 229 1
63 233 1
63 234 1
63 251 1
63 265 1
63 266 1
63 286 1
63 290 1
63 323 1
63 324 1
63 325 1
63 326 1
63 347 1
63 348 1
63 350 1
64 189 1
64 191 1
64 196 1
64 212 1
64 213 1
64 214 1
64 231 1
64 235 1
64 236 1
64 253 1
64 267 1
64 268 1
64 288 1
64 292 1
64 325 1
64 326 1
64 327 1
64 328 1
64 349 1
64 350 1
64 352 1
65 191 1
65 193 1
65 198 1
65 214 1
65 215 1
65 216 1
65 233 1
65 237 1
65 238 1
65 255 1
65 269 1
65 270 1
65 290 1
65 294 1
65 310 1
65 327 1
65 328 1
65 329 1
65 330 1
65 351 1
65 352 1
66 193 1
66 195 1
66 200 1
66 216 1
66 217 1
66 218 1
66 235 1
66 239 1
66 240 1
66 257 1
66 271 1
66 272 1
66 292 1
66 296 1
66 309 1
66 310 1
66 312 1
66 329 1
66 330 1
66 331 1
66 332 1
67 196 1
67 198 1
67 201 1
67 202 1
67 217 1
67 218 1
67 219 1
67 238 1
67 241 1
67 260 1
67 273 1
67 293 1
67 294 1
67 297 1
67 298 1
67 311 1
67 313 1
67 314 1
67 331 1
67 333 1
68 177 1
68 198 1
68 200 1
68 203 1
68 204 1
68 219 1
68 220 1
68 240 1
68 243 1
68 262 1
68 275 1
68 295 1
68 296 1
68 299 1
68 300 1
68 313 1
68 315 1
68 316 1
68 333 1
68 335 1
69 177 1
69 178 1
69 179 1
69 200 1
69 202 1
69 205 1
69 206 1
69 242 1
69 245 1
69 264 1
69 277 1
69 297 1
69 298 1
69 301 1
69 302 1
69 315 1
69 317 1
69 318 1
69 335 1
69 337 1
70 179 1
70 180 1
70 181 1
70 202 1
70 204 1
70 207 1
70 208 1
70 222 1
70 244 1
70 247 1
70 279 1
70 299 1
70 300 1
70 303 1
70 304 1
70 317 1
70 319 1
70 320 1
70 337 1
70 339 1
71 181 1
71 182 1
71 183 1
71 204 1
71 206 1
71 209 1
71 210 1
71 224 1
71 246 1
71 249 1
71 281 1
71 301 1
71 302 1
71 305 1
71 306 1
71 319 1
71 321 1
71 322 1
71 339 1
71 341 1
72 183 1
72 184 1
72 185 1
72 206 1
72 208 1
72 211 1
72 212 1
72 226 1
72 248 1
72 251 1
72 283 1
72 303 1
72 304 1
72 307 1
72 308 1
72 321 1
72 323 1
72 324 1
72 341 1
72 343 1
73 185 1
73 186 1
73 187 1
73 208 1
73 210 1
73 213 1
73 214 1
73 228 1
73 250 1
73 253 1
73 265 1
73 266 1
73 285 1
73 305 1
73 306 1
73 323 1
73 325 1
73 326 1
73 343 1
73 345 1
74 187 1
74 188 1
74 189 1
74 210 1
74 212 1
74 215 1
74 216 1
74 230 1
74 252 1
74 255 1
74 267 1
74 268 1
74 287 1
74 307 1
74 308 1
74 325 1
74 327 1
74 328 1
74 345 1
74 347 1
75 189 1
75 190 1
75 191 1
75 212 1
75 214 1
75 217 1
75 218 1
75 232 1
75 254 1
75 257 1
75 265 1
75 266 1
75 269 1
75 270 1
75 289 1
75 327 1
75 329 1
75 330 1
75 347 1
75 349 1
76 191 1
76 192 1
76 193 1
76 214 1
76 216 1
76 219 1
76 220 1
76 234 1
76 256 1
76 259 1
76 267 1
76 268 1
76 271 1
76 272 1
76 291 1
76 329 1
76 331 1
76 332 1
76 349 1
76 351 1
77 177 1
77 178 1
77 193 1
77 194 1
77 195 1
77 216 1
77 218 1
77 236 1
77 258 1
77 261 1
77 269 1
77 270 1
77 273 1
77 274 1
77 293 1
77 309 1
77 331 1
77 333 1
77 334 1
77 351 1
78 179 1
78 180 1
78 195 1
78 196 1
78 197 1
78 218 1
78 220 1
78 238 1
78 260 1
78 263 1
78 271 1
78 272 1
78 275 1
78 276 1
78 295 1
78 309 1
78 311 1
78 333 1
78 335 1
78 336 1
79 178 1
79 181 1
79 182 1
79 197 1
79 198 1
79 199 1
79 220 1
79 221 1
79 240 1
79 262 1
79 273 1
79 274 1
79 277 1
79 278 1
79 297 1
79 311 1
79 313 1
79 335 1
79 337 1
79 338 1
80 178 1
80 180 1
80 183 1
80 184 1
80 199 1
80 200 1
80 201 1
80 223 1
80 242 1
80 264 1
80 275 1
80 276 1
80 279 1
80 280 1
80 299 1
80 313 1
80 315 1
80 337 1
80 339 1
80 340 1
81 180 1
81 182 1
81 185 1
81 186 1
81 201 1
81 202 1
81 203 1
81 222 1
81 225 1
81 244 1
81 277 1
81 278 1
81 281 1
81 282 1
81 301 1
81 315 1
81 317 1
81 339 1
81 341 1
81 342 1
82 182 1
82 184 1
82 187 1
82 188 1
82 203 1
82 204 1
82 205 1
82 224 1
82 227 1
82 246 1
82 279 1
82 280 1
82 283 1
82 284 1
82 303 1
82 317 1
82 319 1
82 341 1
82 343 1
82 344 1
83 184 1
83 186 1
83 189 1
83 190 1
83 205 1
83 206 1
83 207 1
83 226 1
83 229 1
83 248 1
83 281 1
83 282 1
83 285 1
83 286 1
83 305 1
83 319 1
83 321 1
83 343 1
83 345 1
83 346 1
84 186 1
84 188 1
84 191 1
84 192 1
84 207 1
84 208 1
84 209 1
84 228 1
84 231 1
84 250 1
84 283 1
84 284 1
84 287 1
84 288 1
84 307 1
84 321 1
84 323 1
84 345 1
84 347 1
84 348 1
85 188 1
85 190 1
85 193 1
85 194 1
85 209 1
85 210 1
85 211 1
85 230 1
85 233 1
85 252 1
85 265 1
85 285 1
85 286 1
85 289 1
85 290 1
85 323 1
85 325 1
85 347 1
85 349 1
85 350 1
86 190 1
86 192 1
86 195 1
86 196 1
86 211 1
86 212 1
86 213 1
86 232 1
86 235 1
86 254 1
86 267 1
86 287 1
86 288 1
86 291 1
86 292 1
86 325 1
86 327 1
86 349 1
86 351 1
86 352 1
87 192 1
87 194 1
87 197 1
87 198 1
87 213 1
87 214 1
87 215 1
87 234 1
87 237 1
87 256 1
87 269 1
87 289 1
87 290 1
87 293 1
87 294 1
87 309 1
87 310 1
87 327 1
87 329 1
87 351 1
88 194 1
88 196 1
88 199 1
88 200 1
88 215 1
88 216 1
88 217 1
88 236 1
88 239 1
88 258 1
88 271 1
88 291 1
88 292 1
88 295 1
88 296 1
88 309 1
88 311 1
88 312 1
88 329 1
88 331 1
