%%MatrixMarket matrix coordinate integer general
% GF(4) labels 0,1,2=omega,3=omega+1; arithmetic is NOT integer arithmetic.
% Coordinate indices are 1-based; omitted entries are zero.
44 176 748
1 31 3
1 33 2
1 42 3
1 98 1
1 99 1
1 106 2
1 108 3
1 109 1
1 134 1
1 136 2
1 144 1
1 146 1
1 147 3
1 155 1
1 156 2
1 164 1
1 165 3
1 174 2
1 176 1
2 32 3
2 34 2
2 43 3
2 99 1
2 100 1
2 107 2
2 109 3
2 110 1
2 135 1
2 137 2
2 145 1
2 147 1
2 148 3
2 155 1
2 156 1
2 157 2
2 165 1
2 166 3
2 175 2
3 33 3
3 35 2
3 44 3
3 89 1
3 100 1
3 101 1
3 108 2
3 110 3
3 136 1
3 138 2
3 146 1
3 148 1
3 149 3
3 156 1
3 157 1
3 158 2
3 166 1
3 167 3
3 176 2
4 23 3
4 34 3
4 36 2
4 89 3
4 90 1
4 101 1
4 102 1
4 109 2
4 137 1
4 139 2
4 147 1
4 149 1
4 150 3
4 155 2
4 157 1
4 158 1
4 159 2
4 167 1
4 168 3
5 24 3
5 35 3
5 37 2
5 90 3
5 91 1
5 102 1
5 103 1
5 110 2
5 138 1
5 140 2
5 148 1
5 150 1
5 151 3
5 156 2
5 158 1
5 159 1
5 160 2
5 168 1
5 169 3
6 25 3
6 36 3
6 38 2
6 89 2
6 91 3
6 92 1
6 103 1
6 104 1
6 139 1
6 141 2
6 149 1
6 151 1
6 152 3
6 157 2
6 159 1
6 160 1
6 161 2
6 169 1
6 170 3
7 26 3
7 37 3
7 39 2
7 90 2
7 92 3
7 93 1
7 104 1
7 105 1
7 140 1
7 142 2
7 150 1
7 152 1
7 153 3
7 158 2
7 160 1
7 161 1
7 162 2
7 170 1
7 171 3
8 27 3
8 38 3
8 40 2
8 91 2
8 93 3
8 94 1
8 105 1
8 106 1
8 141 1
8 143 2
8 151 1
8 153 1
8 154 3
8 159 2
8 161 1
8 162 1
8 163 2
8 171 1
8 172 3
9 28 3
9 39 3
9 41 2
9 92 2
9 94 3
9 95 1
9 106 1
9 107 1
9 133 3
9 142 1
9 144 2
9 152 1
9 154 1
9 160 2
9 162 1
9 163 1
9 164 2
9 172 1
9 173 3
10 29 3
10 40 3
10 42 2
10 93 2
10 95 3
10 96 1
10 107 1
10 108 1
10 133 1
10 134 3
10 143 1
10 145 2
10 153 1
10 161 2
10 163 1
10 164 1
10 165 2
10 173 1
10 174 3
11 30 3
11 41 3
11 43 2
11 94 2
11 96 3
11 97 1
11 108 1
11 109 1
11 134 1
11 135 3
11 144 1
11 146 2
11 154 1
11 162 2
11 164 1
11 165 1
11 166 2
11 174 1
11 175 3
12 31 3
12 42 3
12 44 2
12 95 2
12 97 3
12 98 1
12 109 1
12 110 1
12 133 1
12 135 1
12 136 3
12 145 1
12 147 2
12 163 2
12 165 1
12 166 1
12 167 2
12 175 1
12 176 3
13 23 2
13 32 3
13 43 3
13 89 1
13 96 2
13 98 3
13 99 1
13 110 1
13 134 1
13 136 1
13 137 3
13 146 1
13 148 2
13 155 3
13 164 2
13 166 1
13 167 1
13 168 2
13 176 1
14 24 2
14 33 3
14 44 3
14 89 1
14 90 1
14 97 2
14 99 3
14 100 1
14 135 1
14 137 1
14 138 3
14 147 1
14 149 2
14 155 1
14 156 3
14 165 2
14 167 1
14 168 1
14 169 2
15 23 3
15 25 2
15 34 3
15 90 1
15 91 1
15 98 2
15 100 3
15 101 1
15 136 1
15 138 1
15 139 3
15 148 1
15 150 2
15 156 1
15 157 3
15 166 2
15 168 1
15 169 1
15 170 2
16 24 3
16 26 2
16 35 3
16 91 1
16 92 1
16 99 2
16 101 3
16 102 1
16 137 1
16 139 1
16 140 3
16 149 1
16 151 2
16 157 1
16 158 3
16 167 2
16 169 1
16 170 1
16 171 2
17 25 3
17 27 2
17 36 3
17 92 1
17 93 1
17 100 2
17 102 3
17 103 1
17 138 1
17 140 1
17 141 3
17 150 1
17 152 2
17 158 1
17 159 3
17 168 2
17 170 1
17 171 1
17 172 2
18 26 3
18 28 2
18 37 3
18 93 1
18 94 1
18 101 2
18 103 3
18 104 1
18 139 1
18 141 1
18 142 3
18 151 1
18 153 2
18 159 1
18 160 3
18 169 2
18 171 1
18 172 1
18 173 2
19 27 3
19 29 2
19 38 3
19 94 1
19 95 1
19 102 2
19 104 3
19 105 1
19 140 1
19 142 1
19 143 3
19 152 1
19 154 2
19 160 1
19 161 3
19 170 2
19 172 1
19 173 1
19 174 2
20 28 3
20 30 2
20 39 3
20 95 1
20 96 1
20 103 2
20 105 3
20 106 1
20 133 2
20 141 1
20 143 1
20 144 3
20 153 1
20 161 1
20 162 3
20 171 2
20 173 1
20 174 1
20 175 2
21 29 3
21 31 2
21 40 3
21 96 1
21 97 1
21 104 2
21 106 3
21 107 1
21 134 2
21 142 1
21 144 1
21 145 3
21 154 1
21 162 1
21 163 3
21 172 2
21 174 1
21 175 1
21 176 2
22 30 3
22 32 2
22 41 3
22 97 1
22 98 1
22 105 2
22 107 3
22 108 1
22 133 1
22 135 2
22 143 1
22 145 1
22 146 3
22 155 2
22 163 1
22 164 3
22 173 2
22 175 1
22 176 1
23 98 1
23 99 1
23 101 2
23 109 2
23 110 3
23 119 1
23 121 3
23 130 1
23 137 3
23 147 2
23 149 2
23 156 3
23 157 2
23 166 3
23 167 3
24 89 3
24 99 1
24 100 1
24 102 2
24 110 2
24 120 1
24 122 3
24 131 1
24 138 3
24 148 2
24 150 2
24 157 3
24 158 2
24 167 3
24 168 3
25 89 2
25 90 3
25 100 1
25 101 1
25 103 2
25 121 1
25 123 3
25 132 1
25 139 3
25 149 2
25 151 2
25 158 3
25 159 2
25 168 3
25 169 3
26 90 2
26 91 3
26 101 1
26 102 1
26 104 2
26 111 1
26 122 1
26 124 3
26 140 3
26 150 2
26 152 2
26 159 3
26 160 2
26 169 3
26 170 3
27 91 2
27 92 3
27 102 1
27 103 1
27 105 2
27 112 1
27 123 1
27 125 3
27 141 3
27 151 2
27 153 2
27 160 3
27 161 2
27 170 3
27 171 3
28 92 2
28 93 3
28 103 1
28 104 1
28 106 2
28 113 1
28 124 1
28 126 3
28 142 3
28 152 2
28 154 2
28 161 3
28 162 2
28 171 3
28 172 3
29 93 2
29 94 3
29 104 1
29 105 1
29 107 2
29 114 1
29 125 1
29 127 3
29 133 2
29 143 3
29 153 2
29 162 3
29 163 2
29 172 3
29 173 3
30 94 2
30 95 3
30 105 1
30 106 1
30 108 2
30 115 1
30 126 1
30 128 3
30 134 2
30 144 3
30 154 2
30 163 3
30 164 2
30 173 3
30 174 3
31 95 2
31 96 3
31 106 1
31 107 1
31 109 2
31 116 1
31 127 1
31 129 3
31 133 2
31 135 2
31 145 3
31 164 3
31 165 2
31 174 3
31 175 3
32 96 2
32 97 3
32 107 1
32 108 1
32 110 2
32 117 1
32 128 1
32 130 3
32 134 2
32 136 2
32 146 3
32 165 3
32 166 2
32 175 3
32 176 3
33 89 2
33 97 2
33 98 3
33 108 1
33 109 1
33 118 1
33 129 1
33 131 3
33 135 2
33 137 2
33 147 3
33 155 3
33 166 3
33 167 2
33 176 3
34 90 2
34 98 2
34 99 3
34 109 1
34 110 1
34 119 1
34 130 1
34 132 3
34 136 2
34 138 2
34 148 3
34 155 3
34 156 3
34 167 3
34 168 2
35 89 1
35 91 2
35 99 2
35 100 3
35 110 1
35 111 3
35 120 1
35 131 1
35 137 2
35 139 2
35 149 3
35 156 3
35 157 3
35 168 3
35 169 2
36 89 1
36 90 1
36 92 2
36 100 2
36 101 3
36 112 3
36 121 1
36 132 1
36 138 2
36 140 2
36 150 3
36 157 3
36 158 3
36 169 3
36 170 2
37 90 1
37 91 1
37 93 2
37 101 2
37 102 3
37 111 1
37 113 3
37 122 1
37 139 2
37 141 2
37 151 3
37 158 3
37 159 3
37 170 3
37 171 2
38 91 1
38 92 1
38 94 2
38 102 2
38 103 3
38 112 1
38 114 3
38 123 1
38 140 2
38 142 2
38 152 3
38 159 3
38 160 3
38 171 3
38 172 2
39 92 1
39 93 1
39 95 2
39 103 2
39 104 3
39 113 1
39 115 3
39 124 1
39 141 2
39 143 2
39 153 3
39 160 3
39 161 3
39 172 3
39 173 2
40 93 1
40 94 1
40 96 2
40 104 2
40 105 3
40 114 1
40 116 3
40 125 1
40 142 2
40 144 2
40 154 3
40 161 3
40 162 3
40 173 3
40 174 2
41 94 1
41 95 1
41 97 2
41 105 2
41 106 3
41 115 1
41 117 3
41 126 1
41 133 3
41 143 2
41 145 2
41 162 3
41 163 3
41 174 3
41 175 2
42 95 1
42 96 1
42 98 2
42 106 2
42 107 3
42 116 1
42 118 3
42 127 1
42 134 3
42 144 2
42 146 2
42 163 3
42 164 3
42 175 3
42 176 2
43 96 1
43 97 1
43 99 2
43 107 2
43 108 3
43 117 1
43 119 3
43 128 1
43 135 3
43 145 2
43 147 2
43 155 2
43 164 3
43 165 3
43 176 3
44 97 1
44 98 1
44 100 2
44 108 2
44 109 3
44 118 1
44 120 3
44 129 1
44 136 3
44 146 2
44 148 2
44 155 3
44 156 2
44 165 3
44 166 3
