%%MatrixMarket matrix coordinate integer general
% Binary matrix over GF(2).
% Coordinate indices are 1-based; omitted entries are zero.
88 352 1958
1 4 1
1 23 1
1 24 1
1 44 1
1 47 1
1 65 1
1 66 1
1 69 1
1 89 1
1 90 1
1 92 1
1 108 1
1 111 1
1 113 1
1 133 1
1 134 1
1 152 1
1 153 1
1 154 1
1 175 1
1 176 1
2 2 1
2 6 1
2 25 1
2 26 1
2 49 1
2 67 1
2 68 1
2 71 1
2 91 1
2 92 1
2 94 1
2 110 1
2 113 1
2 115 1
2 133 1
2 134 1
2 135 1
2 136 1
2 154 1
2 155 1
2 156 1
3 4 1
3 8 1
3 27 1
3 28 1
3 51 1
3 69 1
3 70 1
3 73 1
3 93 1
3 94 1
3 96 1
3 112 1
3 115 1
3 117 1
3 135 1
3 136 1
3 137 1
3 138 1
3 156 1
3 157 1
3 158 1
4 6 1
4 10 1
4 29 1
4 30 1
4 53 1
4 71 1
4 72 1
4 75 1
4 95 1
4 96 1
4 98 1
4 114 1
4 117 1
4 119 1
4 137 1
4 138 1
4 139 1
4 140 1
4 158 1
4 159 1
4 160 1
5 8 1
5 12 1
5 31 1
5 32 1
5 55 1
5 73 1
5 74 1
5 77 1
5 97 1
5 98 1
5 100 1
5 116 1
5 119 1
5 121 1
5 139 1
5 140 1
5 141 1
5 142 1
5 160 1
5 161 1
5 162 1
6 10 1
6 14 1
6 33 1
6 34 1
6 57 1
6 75 1
6 76 1
6 79 1
6 99 1
6 100 1
6 102 1
6 118 1
6 121 1
6 123 1
6 141 1
6 142 1
6 143 1
6 144 1
6 162 1
6 163 1
6 164 1
7 12 1
7 16 1
7 35 1
7 36 1
7 59 1
7 77 1
7 78 1
7 81 1
7 101 1
7 102 1
7 104 1
7 120 1
7 123 1
7 125 1
7 143 1
7 144 1
7 145 1
7 146 1
7 164 1
7 165 1
7 166 1
8 14 1
8 18 1
8 37 1
8 38 1
8 61 1
8 79 1
8 80 1
8 83 1
8 103 1
8 104 1
8 106 1
8 122 1
8 125 1
8 127 1
8 145 1
8 146 1
8 147 1
8 148 1
8 166 1
8 167 1
8 168 1
9 16 1
9 20 1
9 39 1
9 40 1
9 63 1
9 81 1
9 82 1
9 85 1
9 105 1
9 106 1
9 108 1
9 124 1
9 127 1
9 129 1
9 147 1
9 148 1
9 149 1
9 150 1
9 168 1
9 169 1
9 170 1
10 18 1
10 22 1
10 41 1
10 42 1
10 65 1
10 83 1
10 84 1
10 87 1
10 107 1
10 108 1
10 110 1
10 126 1
10 129 1
10 131 1
10 149 1
10 150 1
10 151 1
10 152 1
10 170 1
10 171 1
10 172 1
11 20 1
11 24 1
11 43 1
11 44 1
11 45 1
11 67 1
11 85 1
11 86 1
11 89 1
11 109 1
11 110 1
11 112 1
11 128 1
11 131 1
11 151 1
11 152 1
11 153 1
11 154 1
11 172 1
11 173 1
11 174 1
12 1 1
12 2 1
12 22 1
12 26 1
12 47 1
12 69 1
12 87 1
12 88 1
12 89 1
12 91 1
12 111 1
12 112 1
12 114 1
12 130 1
12 153 1
12 154 1
12 155 1
12 156 1
12 174 1
12 175 1
12 176 1
13 3 1
13 4 1
13 24 1
13 28 1
13 45 1
13 46 1
13 49 1
13 71 1
13 91 1
13 93 1
13 113 1
13 114 1
13 116 1
13 132 1
13 133 1
13 134 1
13 155 1
13 156 1
13 157 1
13 158 1
13 176 1
14 5 1
14 6 1
14 26 1
14 30 1
14 47 1
14 48 1
14 51 1
14 73 1
14 90 1
14 93 1
14 95 1
14 115 1
14 116 1
14 118 1
14 134 1
14 135 1
14 136 1
14 157 1
14 158 1
14 159 1
14 160 1
15 7 1
15 8 1
15 28 1
15 32 1
15 49 1
15 50 1
15 53 1
15 75 1
15 92 1
15 95 1
15 97 1
15 117 1
15 118 1
15 120 1
15 136 1
15 137 1
15 138 1
15 159 1
15 160 1
15 161 1
15 162 1
16 9 1
16 10 1
16 30 1
16 34 1
16 51 1
16 52 1
16 55 1
16 77 1
16 94 1
16 97 1
16 99 1
16 119 1
16 120 1
16 122 1
16 138 1
16 139 1
16 140 1
16 161 1
16 162 1
16 163 1
16 164 1
17 11 1
17 12 1
17 32 1
17 36 1
17 53 1
17 54 1
17 57 1
17 79 1
17 96 1
17 99 1
17 101 1
17 121 1
17 122 1
17 124 1
17 140 1
17 141 1
17 142 1
17 163 1
17 164 1
17 165 1
17 166 1
18 13 1
18 14 1
18 34 1
18 38 1
18 55 1
18 56 1
18 59 1
18 81 1
18 98 1
18 101 1
18 103 1
18 123 1
18 124 1
18 126 1
18 142 1
18 143 1
18 144 1
18 165 1
18 166 1
18 167 1
18 168 1
19 15 1
19 16 1
19 36 1
19 40 1
19 57 1
19 58 1
19 61 1
19 83 1
19 100 1
19 103 1
19 105 1
19 125 1
19 126 1
19 128 1
19 144 1
19 145 1
19 146 1
19 167 1
19 168 1
19 169 1
19 170 1
20 17 1
20 18 1
20 38 1
20 42 1
20 59 1
20 60 1
20 63 1
20 85 1
20 102 1
20 105 1
20 107 1
20 127 1
20 128 1
20 130 1
20 146 1
20 147 1
20 148 1
20 169 1
20 170 1
20 171 1
20 172 1
21 19 1
21 20 1
21 40 1
21 44 1
21 61 1
21 62 1
21 65 1
21 87 1
21 104 1
21 107 1
21 109 1
21 129 1
21 130 1
21 132 1
21 148 1
21 149 1
21 150 1
21 171 1
21 172 1
21 173 1
21 174 1
22 2 1
22 21 1
22 22 1
22 42 1
22 45 1
22 63 1
22 64 1
22 67 1
22 90 1
22 106 1
22 109 1
22 111 1
22 131 1
22 132 1
22 150 1
22 151 1
22 152 1
22 173 1
22 174 1
22 175 1
22 176 1
23 3 1
23 4 1
23 23 1
23 43 1
23 44 1
23 48 1
23 65 1
23 70 1
23 89 1
23 91 1
23 92 1
23 107 1
23 108 1
23 112 1
23 114 1
23 133 1
23 151 1
23 152 1
23 153 1
23 175 1
24 1 1
24 2 1
24 5 1
24 6 1
24 25 1
24 50 1
24 67 1
24 72 1
24 91 1
24 93 1
24 94 1
24 109 1
24 110 1
24 114 1
24 116 1
24 133 1
24 135 1
24 153 1
24 154 1
24 155 1
25 3 1
25 4 1
25 7 1
25 8 1
25 27 1
25 52 1
25 69 1
25 74 1
25 93 1
25 95 1
25 96 1
25 111 1
25 112 1
25 116 1
25 118 1
25 135 1
25 137 1
25 155 1
25 156 1
25 157 1
26 5 1
26 6 1
26 9 1
26 10 1
26 29 1
26 54 1
26 71 1
26 76 1
26 95 1
26 97 1
26 98 1
26 113 1
26 114 1
26 118 1
26 120 1
26 137 1
26 139 1
26 157 1
26 158 1
26 159 1
27 7 1
27 8 1
27 11 1
27 12 1
27 31 1
27 56 1
27 73 1
27 78 1
27 97 1
27 99 1
27 100 1
27 115 1
27 116 1
27 120 1
27 122 1
27 139 1
27 141 1
27 159 1
27 160 1
27 161 1
28 9 1
28 10 1
28 13 1
28 14 1
28 33 1
28 58 1
28 75 1
28 80 1
28 99 1
28 101 1
28 102 1
28 117 1
28 118 1
28 122 1
28 124 1
28 141 1
28 143 1
28 161 1
28 162 1
28 163 1
29 11 1
29 12 1
29 15 1
29 16 1
29 35 1
29 60 1
29 77 1
29 82 1
29 101 1
29 103 1
29 104 1
29 119 1
29 120 1
29 124 1
29 126 1
29 143 1
29 145 1
29 163 1
29 164 1
29 165 1
30 13 1
30 14 1
30 17 1
30 18 1
30 37 1
30 62 1
30 79 1
30 84 1
30 103 1
30 105 1
30 106 1
30 121 1
30 122 1
30 126 1
30 128 1
30 145 1
30 147 1
30 165 1
30 166 1
30 167 1
31 15 1
31 16 1
31 19 1
31 20 1
31 39 1
31 64 1
31 81 1
31 86 1
31 105 1
31 107 1
31 108 1
31 123 1
31 124 1
31 128 1
31 130 1
31 147 1
31 149 1
31 167 1
31 168 1
31 169 1
32 17 1
32 18 1
32 21 1
32 22 1
32 41 1
32 66 1
32 83 1
32 88 1
32 107 1
32 109 1
32 110 1
32 125 1
32 126 1
32 130 1
32 132 1
32 149 1
32 151 1
32 169 1
32 170 1
32 171 1
33 19 1
33 20 1
33 23 1
33 24 1
33 43 1
33 46 1
33 68 1
33 85 1
33 90 1
33 109 1
33 111 1
33 112 1
33 127 1
33 128 1
33 132 1
33 151 1
33 153 1
33 171 1
33 172 1
33 173 1
34 1 1
34 21 1
34 22 1
34 25 1
34 26 1
34 48 1
34 70 1
34 87 1
34 90 1
34 92 1
34 111 1
34 113 1
34 114 1
34 129 1
34 130 1
34 153 1
34 155 1
34 173 1
34 174 1
34 175 1
35 3 1
35 23 1
35 24 1
35 27 1
35 28 1
35 45 1
35 50 1
35 72 1
35 92 1
35 94 1
35 113 1
35 115 1
35 116 1
35 131 1
35 132 1
35 133 1
35 155 1
35 157 1
35 175 1
35 176 1
36 5 1
36 25 1
36 26 1
36 29 1
36 30 1
36 47 1
36 52 1
36 74 1
36 89 1
36 90 1
36 94 1
36 96 1
36 115 1
36 117 1
36 118 1
36 133 1
36 134 1
36 135 1
36 157 1
36 159 1
37 7 1
37 27 1
37 28 1
37 31 1
37 32 1
37 49 1
37 54 1
37 76 1
37 91 1
37 92 1
37 96 1
37 98 1
37 117 1
37 119 1
37 120 1
37 135 1
37 136 1
37 137 1
37 159 1
37 161 1
38 9 1
38 29 1
38 30 1
38 33 1
38 34 1
38 51 1
38 56 1
38 78 1
38 93 1
38 94 1
38 98 1
38 100 1
38 119 1
38 121 1
38 122 1
38 137 1
38 138 1
38 139 1
38 161 1
38 163 1
39 11 1
39 31 1
39 32 1
39 35 1
39 36 1
39 53 1
39 58 1
39 80 1
39 95 1
39 96 1
39 100 1
39 102 1
39 121 1
39 123 1
39 124 1
39 139 1
39 140 1
39 141 1
39 163 1
39 165 1
40 13 1
40 33 1
40 34 1
40 37 1
40 38 1
40 55 1
40 60 1
40 82 1
40 97 1
40 98 1
40 102 1
40 104 1
40 123 1
40 125 1
40 126 1
40 141 1
40 142 1
40 143 1
40 165 1
40 167 1
41 15 1
41 35 1
41 36 1
41 39 1
41 40 1
41 57 1
41 62 1
41 84 1
41 99 1
41 100 1
41 104 1
41 106 1
41 125 1
41 127 1
41 128 1
41 143 1
41 144 1
41 145 1
41 167 1
41 169 1
42 17 1
42 37 1
42 38 1
42 41 1
42 42 1
42 59 1
42 64 1
42 86 1
42 101 1
42 102 1
42 106 1
42 108 1
42 127 1
42 129 1
42 130 1
42 145 1
42 146 1
42 147 1
42 169 1
42 171 1
43 19 1
43 39 1
43 40 1
43 43 1
43 44 1
43 61 1
43 66 1
43 88 1
43 103 1
43 104 1
43 108 1
43 110 1
43 129 1
43 131 1
43 132 1
43 147 1
43 148 1
43 149 1
43 171 1
43 173 1
44 1 1
44 2 1
44 21 1
44 41 1
44 42 1
44 46 1
44 63 1
44 68 1
44 89 1
44 90 1
44 105 1
44 106 1
44 110 1
44 112 1
44 131 1
44 149 1
44 150 1
44 151 1
44 173 1
44 175 1
45 3 1
45 4 1
45 5 1
45 9 1
45 26 1
45 29 1
45 91 1
45 93 1
45 94 1
45 98 1
45 111 1
45 113 1
45 135 1
45 136 1
45 137 1
45 154 1
45 155 1
45 157 1
45 162 1
45 223 1
45 224 1
45 242 1
45 245 1
45 246 1
46 5 1
46 6 1
46 7 1
46 11 1
46 28 1
46 31 1
46 93 1
46 95 1
46 96 1
46 100 1
46 113 1
46 115 1
46 137 1
46 138 1
46 139 1
46 156 1
46 157 1
46 159 1
46 164 1
46 225 1
46 226 1
46 244 1
46 247 1
46 248 1
47 7 1
47 8 1
47 9 1
47 13 1
47 30 1
47 33 1
47 95 1
47 97 1
47 98 1
47 102 1
47 115 1
47 117 1
47 139 1
47 140 1
47 141 1
47 158 1
47 159 1
47 161 1
47 166 1
47 227 1
47 228 1
47 246 1
47 249 1
47 250 1
48 9 1
48 10 1
48 11 1
48 15 1
48 32 1
48 35 1
48 97 1
48 99 1
48 100 1
48 104 1
48 117 1
48 119 1
48 141 1
48 142 1
48 143 1
48 160 1
48 161 1
48 163 1
48 168 1
48 229 1
48 230 1
48 248 1
48 251 1
48 252 1
49 11 1
49 12 1
49 13 1
49 17 1
49 34 1
49 37 1
49 99 1
49 101 1
49 102 1
49 106 1
49 119 1
49 121 1
49 143 1
49 144 1
49 145 1
49 162 1
49 163 1
49 165 1
49 170 1
49 231 1
49 232 1
49 250 1
49 253 1
49 254 1
50 13 1
50 14 1
50 15 1
50 19 1
50 36 1
50 39 1
50 101 1
50 103 1
50 104 1
50 108 1
50 121 1
50 123 1
50 145 1
50 146 1
50 147 1
50 164 1
50 165 1
50 167 1
50 172 1
50 233 1
50 234 1
50 252 1
50 255 1
50 256 1
51 15 1
51 16 1
51 17 1
51 21 1
51 38 1
51 41 1
51 103 1
51 105 1
51 106 1
51 110 1
51 123 1
51 125 1
51 147 1
51 148 1
51 149 1
51 166 1
51 167 1
51 169 1
51 174 1
51 235 1
51 236 1
51 254 1
51 257 1
51 258 1
52 17 1
52 18 1
52 19 1
52 23 1
52 40 1
52 43 1
52 105 1
52 107 1
52 108 1
52 112 1
52 125 1
52 127 1
52 149 1
52 150 1
52 151 1
52 168 1
52 169 1
52 171 1
52 176 1
52 237 1
52 238 1
52 256 1
52 259 1
52 260 1
53 1 1
53 19 1
53 20 1
53 21 1
53 25 1
53 42 1
53 107 1
53 109 1
53 110 1
53 114 1
53 127 1
53 129 1
53 134 1
53 151 1
53 152 1
53 153 1
53 170 1
53 171 1
53 173 1
53 239 1
53 240 1
53 258 1
53 261 1
53 262 1
54 3 1
54 21 1
54 22 1
54 23 1
54 27 1
54 44 1
54 109 1
54 111 1
54 112 1
54 116 1
54 129 1
54 131 1
54 136 1
54 153 1
54 154 1
54 155 1
54 172 1
54 173 1
54 175 1
54 241 1
54 242 1
54 260 1
54 263 1
54 264 1
55 2 1
55 5 1
55 23 1
55 24 1
55 25 1
55 29 1
55 89 1
55 111 1
55 113 1
55 114 1
55 118 1
55 131 1
55 133 1
55 138 1
55 155 1
55 156 1
55 157 1
55 174 1
55 175 1
55 221 1
55 222 1
55 243 1
55 244 1
55 262 1
56 4 1
56 7 1
56 25 1
56 26 1
56 27 1
56 31 1
56 89 1
56 91 1
56 113 1
56 115 1
56 116 1
56 120 1
56 133 1
56 135 1
56 140 1
56 157 1
56 158 1
56 159 1
56 176 1
56 223 1
56 224 1
56 245 1
56 246 1
56 264 1
57 6 1
57 9 1
57 27 1
57 28 1
57 29 1
57 33 1
57 91 1
57 93 1
57 115 1
57 117 1
57 118 1
57 122 1
57 134 1
57 135 1
57 137 1
57 142 1
57 159 1
57 160 1
57 161 1
57 222 1
57 225 1
57 226 1
57 247 1
57 248 1
58 8 1
58 11 1
58 29 1
58 30 1
58 31 1
58 35 1
58 93 1
58 95 1
58 117 1
58 119 1
58 120 1
58 124 1
58 136 1
58 137 1
58 139 1
58 144 1
58 161 1
58 162 1
58 163 1
58 224 1
58 227 1
58 228 1
58 249 1
58 250 1
59 10 1
59 13 1
59 31 1
59 32 1
59 33 1
59 37 1
59 95 1
59 97 1
59 119 1
59 121 1
59 122 1
59 126 1
59 138 1
59 139 1
59 141 1
59 146 1
59 163 1
59 164 1
59 165 1
59 226 1
59 229 1
59 230 1
59 251 1
59 252 1
60 12 1
60 15 1
60 33 1
60 34 1
60 35 1
60 39 1
60 97 1
60 99 1
60 121 1
60 123 1
60 124 1
60 128 1
60 140 1
60 141 1
60 143 1
60 148 1
60 165 1
60 166 1
60 167 1
60 228 1
60 231 1
60 232 1
60 253 1
60 254 1
61 14 1
61 17 1
61 35 1
61 36 1
61 37 1
61 41 1
61 99 1
61 101 1
61 123 1
61 125 1
61 126 1
61 130 1
61 142 1
61 143 1
61 145 1
61 150 1
61 167 1
61 168 1
61 169 1
61 230 1
61 233 1
61 234 1
61 255 1
61 256 1
62 16 1
62 19 1
62 37 1
62 38 1
62 39 1
62 43 1
62 101 1
62 103 1
62 125 1
62 127 1
62 128 1
62 132 1
62 144 1
62 145 1
62 147 1
62 152 1
62 169 1
62 170 1
62 171 1
62 232 1
62 235 1
62 236 1
62 257 1
62 258 1
63 1 1
63 18 1
63 21 1
63 39 1
63 40 1
63 41 1
63 90 1
63 103 1
63 105 1
63 127 1
63 129 1
63 130 1
63 146 1
63 147 1
63 149 1
63 154 1
63 171 1
63 172 1
63 173 1
63 234 1
63 237 1
63 238 1
63 259 1
63 260 1
64 3 1
64 20 1
64 23 1
64 41 1
64 42 1
64 43 1
64 92 1
64 105 1
64 107 1
64 129 1
64 131 1
64 132 1
64 148 1
64 149 1
64 151 1
64 156 1
64 173 1
64 174 1
64 175 1
64 236 1
64 239 1
64 240 1
64 261 1
64 262 1
65 1 1
65 5 1
65 22 1
65 25 1
65 43 1
65 44 1
65 89 1
65 90 1
65 94 1
65 107 1
65 109 1
65 131 1
65 133 1
65 150 1
65 151 1
65 153 1
65 158 1
65 175 1
65 176 1
65 238 1
65 241 1
65 242 1
65 263 1
65 264 1
66 1 1
66 2 1
66 3 1
66 7 1
66 24 1
66 27 1
66 89 1
66 91 1
66 92 1
66 96 1
66 109 1
66 111 1
66 133 1
66 134 1
66 135 1
66 152 1
66 153 1
66 155 1
66 160 1
66 221 1
66 222 1
66 240 1
66 243 1
66 244 1
67 3 1
67 6 1
67 10 1
67 25 1
67 26 1
67 30 1
67 92 1
67 93 1
67 97 1
67 98 1
67 112 1
67 114 1
67 135 1
67 138 1
67 153 1
67 154 1
67 156 1
67 158 1
67 161 1
67 162 1
67 223 1
67 241 1
67 242 1
67 245 1
68 5 1
68 8 1
68 12 1
68 27 1
68 28 1
68 32 1
68 94 1
68 95 1
68 99 1
68 100 1
68 114 1
68 116 1
68 137 1
68 140 1
68 155 1
68 156 1
68 158 1
68 160 1
68 163 1
68 164 1
68 225 1
68 243 1
68 244 1
68 247 1
69 7 1
69 10 1
69 14 1
69 29 1
69 30 1
69 34 1
69 96 1
69 97 1
69 101 1
69 102 1
69 116 1
69 118 1
69 139 1
69 142 1
69 157 1
69 158 1
69 160 1
69 162 1
69 165 1
69 166 1
69 227 1
69 245 1
69 246 1
69 249 1
70 9 1
70 12 1
70 16 1
70 31 1
70 32 1
70 36 1
70 98 1
70 99 1
70 103 1
70 104 1
70 118 1
70 120 1
70 141 1
70 144 1
70 159 1
70 160 1
70 162 1
70 164 1
70 167 1
70 168 1
70 229 1
70 247 1
70 248 1
70 251 1
71 11 1
71 14 1
71 18 1
71 33 1
71 34 1
71 38 1
71 100 1
71 101 1
71 105 1
71 106 1
71 120 1
71 122 1
71 143 1
71 146 1
71 161 1
71 162 1
71 164 1
71 166 1
71 169 1
71 170 1
71 231 1
71 249 1
71 250 1
71 253 1
72 13 1
72 16 1
72 20 1
72 35 1
72 36 1
72 40 1
72 102 1
72 103 1
72 107 1
72 108 1
72 122 1
72 124 1
72 145 1
72 148 1
72 163 1
72 164 1
72 166 1
72 168 1
72 171 1
72 172 1
72 233 1
72 251 1
72 252 1
72 255 1
73 15 1
73 18 1
73 22 1
73 37 1
73 38 1
73 42 1
73 104 1
73 105 1
73 109 1
73 110 1
73 124 1
73 126 1
73 147 1
73 150 1
73 165 1
73 166 1
73 168 1
73 170 1
73 173 1
73 174 1
73 235 1
73 253 1
73 254 1
73 257 1
74 17 1
74 20 1
74 24 1
74 39 1
74 40 1
74 44 1
74 106 1
74 107 1
74 111 1
74 112 1
74 126 1
74 128 1
74 149 1
74 152 1
74 167 1
74 168 1
74 170 1
74 172 1
74 175 1
74 176 1
74 237 1
74 255 1
74 256 1
74 259 1
75 2 1
75 19 1
75 22 1
75 26 1
75 41 1
75 42 1
75 108 1
75 109 1
75 113 1
75 114 1
75 128 1
75 130 1
75 133 1
75 134 1
75 151 1
75 154 1
75 169 1
75 170 1
75 172 1
75 174 1
75 239 1
75 257 1
75 258 1
75 261 1
76 4 1
76 21 1
76 24 1
76 28 1
76 43 1
76 44 1
76 110 1
76 111 1
76 115 1
76 116 1
76 130 1
76 132 1
76 135 1
76 136 1
76 153 1
76 156 1
76 171 1
76 172 1
76 174 1
76 176 1
76 241 1
76 259 1
76 260 1
76 263 1
77 1 1
77 2 1
77 6 1
77 23 1
77 26 1
77 30 1
77 90 1
77 112 1
77 113 1
77 117 1
77 118 1
77 132 1
77 134 1
77 137 1
77 138 1
77 155 1
77 158 1
77 173 1
77 174 1
77 176 1
77 221 1
77 243 1
77 261 1
77 262 1
78 3 1
78 4 1
78 8 1
78 25 1
78 28 1
78 32 1
78 90 1
78 92 1
78 114 1
78 115 1
78 119 1
78 120 1
78 134 1
78 136 1
78 139 1
78 140 1
78 157 1
78 160 1
78 175 1
78 176 1
78 223 1
78 245 1
78 263 1
78 264 1
79 5 1
79 6 1
79 10 1
79 27 1
79 30 1
79 34 1
79 92 1
79 94 1
79 116 1
79 117 1
79 121 1
79 122 1
79 133 1
79 134 1
79 136 1
79 138 1
79 141 1
79 142 1
79 159 1
79 162 1
79 221 1
79 222 1
79 225 1
79 247 1
80 7 1
80 8 1
80 12 1
80 29 1
80 32 1
80 36 1
80 94 1
80 96 1
80 118 1
80 119 1
80 123 1
80 124 1
80 135 1
80 136 1
80 138 1
80 140 1
80 143 1
80 144 1
80 161 1
80 164 1
80 223 1
80 224 1
80 227 1
80 249 1
81 9 1
81 10 1
81 14 1
81 31 1
81 34 1
81 38 1
81 96 1
81 98 1
81 120 1
81 121 1
81 125 1
81 126 1
81 137 1
81 138 1
81 140 1
81 142 1
81 145 1
81 146 1
81 163 1
81 166 1
81 225 1
81 226 1
81 229 1
81 251 1
82 11 1
82 12 1
82 16 1
82 33 1
82 36 1
82 40 1
82 98 1
82 100 1
82 122 1
82 123 1
82 127 1
82 128 1
82 139 1
82 140 1
82 142 1
82 144 1
82 147 1
82 148 1
82 165 1
82 168 1
82 227 1
82 228 1
82 231 1
82 253 1
83 13 1
83 14 1
83 18 1
83 35 1
83 38 1
83 42 1
83 100 1
83 102 1
83 124 1
83 125 1
83 129 1
83 130 1
83 141 1
83 142 1
83 144 1
83 146 1
83 149 1
83 150 1
83 167 1
83 170 1
83 229 1
83 230 1
83 233 1
83 255 1
84 15 1
84 16 1
84 20 1
84 37 1
84 40 1
84 44 1
84 102 1
84 104 1
84 126 1
84 127 1
84 131 1
84 132 1
84 143 1
84 144 1
84 146 1
84 148 1
84 151 1
84 152 1
84 169 1
84 172 1
84 231 1
84 232 1
84 235 1
84 257 1
85 2 1
85 17 1
85 18 1
85 22 1
85 39 1
85 42 1
85 89 1
85 90 1
85 104 1
85 106 1
85 128 1
85 129 1
85 145 1
85 146 1
85 148 1
85 150 1
85 153 1
85 154 1
85 171 1
85 174 1
85 233 1
85 234 1
85 237 1
85 259 1
86 4 1
86 19 1
86 20 1
86 24 1
86 41 1
86 44 1
86 91 1
86 92 1
86 106 1
86 108 1
86 130 1
86 131 1
86 147 1
86 148 1
86 150 1
86 152 1
86 155 1
86 156 1
86 173 1
86 176 1
86 235 1
86 236 1
86 239 1
86 261 1
87 2 1
87 6 1
87 21 1
87 22 1
87 26 1
87 43 1
87 89 1
87 93 1
87 94 1
87 108 1
87 110 1
87 132 1
87 134 1
87 149 1
87 150 1
87 152 1
87 154 1
87 157 1
87 158 1
87 175 1
87 237 1
87 238 1
87 241 1
87 263 1
88 1 1
88 4 1
88 8 1
88 23 1
88 24 1
88 28 1
88 90 1
88 91 1
88 95 1
88 96 1
88 110 1
88 112 1
88 133 1
88 136 1
88 151 1
88 152 1
88 154 1
88 156 1
88 159 1
88 160 1
88 221 1
88 239 1
88 240 1
88 243 1
