%%MatrixMarket matrix coordinate integer general
% GF(4) labels 0,1,2=omega,3=omega+1; arithmetic is NOT integer arithmetic.
% Coordinate indices are 1-based; omitted entries are zero.
44 176 748
1 2 2
1 12 3
1 22 2
1 24 1
1 33 3
1 35 1
1 45 3
1 46 2
1 54 2
1 56 1
1 57 1
1 67 3
1 76 2
1 77 3
1 88 3
2 1 2
2 3 2
2 13 3
2 25 1
2 34 3
2 36 1
2 46 3
2 47 2
2 55 2
2 57 1
2 58 1
2 67 3
2 68 3
2 77 2
2 78 3
3 2 2
3 4 2
3 14 3
3 26 1
3 35 3
3 37 1
3 47 3
3 48 2
3 56 2
3 58 1
3 59 1
3 68 3
3 69 3
3 78 2
3 79 3
4 3 2
4 5 2
4 15 3
4 27 1
4 36 3
4 38 1
4 48 3
4 49 2
4 57 2
4 59 1
4 60 1
4 69 3
4 70 3
4 79 2
4 80 3
5 4 2
5 6 2
5 16 3
5 28 1
5 37 3
5 39 1
5 49 3
5 50 2
5 58 2
5 60 1
5 61 1
5 70 3
5 71 3
5 80 2
5 81 3
6 5 2
6 7 2
6 17 3
6 29 1
6 38 3
6 40 1
6 50 3
6 51 2
6 59 2
6 61 1
6 62 1
6 71 3
6 72 3
6 81 2
6 82 3
7 6 2
7 8 2
7 18 3
7 30 1
7 39 3
7 41 1
7 51 3
7 52 2
7 60 2
7 62 1
7 63 1
7 72 3
7 73 3
7 82 2
7 83 3
8 7 2
8 9 2
8 19 3
8 31 1
8 40 3
8 42 1
8 52 3
8 53 2
8 61 2
8 63 1
8 64 1
8 73 3
8 74 3
8 83 2
8 84 3
9 8 2
9 10 2
9 20 3
9 32 1
9 41 3
9 43 1
9 53 3
9 54 2
9 62 2
9 64 1
9 65 1
9 74 3
9 75 3
9 84 2
9 85 3
10 9 2
10 11 2
10 21 3
10 33 1
10 42 3
10 44 1
10 54 3
10 55 2
10 63 2
10 65 1
10 66 1
10 75 3
10 76 3
10 85 2
10 86 3
11 10 2
11 12 2
11 22 3
11 23 1
11 34 1
11 43 3
11 45 1
11 55 3
11 56 2
11 64 2
11 66 1
11 76 3
11 77 3
11 86 2
11 87 3
12 1 3
12 11 2
12 13 2
12 24 1
12 35 1
12 44 3
12 45 1
12 46 1
12 56 3
12 57 2
12 65 2
12 77 3
12 78 3
12 87 2
12 88 3
13 2 3
13 12 2
13 14 2
13 23 3
13 25 1
13 36 1
13 46 1
13 47 1
13 57 3
13 58 2
13 66 2
13 67 3
13 78 3
13 79 3
13 88 2
14 3 3
14 13 2
14 15 2
14 24 3
14 26 1
14 37 1
14 45 2
14 47 1
14 48 1
14 58 3
14 59 2
14 67 2
14 68 3
14 79 3
14 80 3
15 4 3
15 14 2
15 16 2
15 25 3
15 27 1
15 38 1
15 46 2
15 48 1
15 49 1
15 59 3
15 60 2
15 68 2
15 69 3
15 80 3
15 81 3
16 5 3
16 15 2
16 17 2
16 26 3
16 28 1
16 39 1
16 47 2
16 49 1
16 50 1
16 60 3
16 61 2
16 69 2
16 70 3
16 81 3
16 82 3
17 6 3
17 16 2
17 18 2
17 27 3
17 29 1
17 40 1
17 48 2
17 50 1
17 51 1
17 61 3
17 62 2
17 70 2
17 71 3
17 82 3
17 83 3
18 7 3
18 17 2
18 19 2
18 28 3
18 30 1
18 41 1
18 49 2
18 51 1
18 52 1
18 62 3
18 63 2
18 71 2
18 72 3
18 83 3
18 84 3
19 8 3
19 18 2
19 20 2
19 29 3
19 31 1
19 42 1
19 50 2
19 52 1
19 53 1
19 63 3
19 64 2
19 72 2
19 73 3
19 84 3
19 85 3
20 9 3
20 19 2
20 21 2
20 30 3
20 32 1
20 43 1
20 51 2
20 53 1
20 54 1
20 64 3
20 65 2
20 73 2
20 74 3
20 85 3
20 86 3
21 10 3
21 20 2
21 22 2
21 31 3
21 33 1
21 44 1
21 52 2
21 54 1
21 55 1
21 65 3
21 66 2
21 74 2
21 75 3
21 86 3
21 87 3
22 1 2
22 11 3
22 21 2
22 23 1
22 32 3
22 34 1
22 45 2
22 53 2
22 55 1
22 56 1
22 66 3
22 75 2
22 76 3
22 87 3
22 88 3
23 2 3
23 3 1
23 5 1
23 13 2
23 15 1
23 46 1
23 47 3
23 49 2
23 56 1
23 57 1
23 68 3
23 69 1
23 77 2
23 78 1
23 79 1
23 81 2
23 112 3
23 121 2
23 123 3
24 3 3
24 4 1
24 6 1
24 14 2
24 16 1
24 47 1
24 48 3
24 50 2
24 57 1
24 58 1
24 69 3
24 70 1
24 78 2
24 79 1
24 80 1
24 82 2
24 113 3
24 122 2
24 124 3
25 4 3
25 5 1
25 7 1
25 15 2
25 17 1
25 48 1
25 49 3
25 51 2
25 58 1
25 59 1
25 70 3
25 71 1
25 79 2
25 80 1
25 81 1
25 83 2
25 114 3
25 123 2
25 125 3
26 5 3
26 6 1
26 8 1
26 16 2
26 18 1
26 49 1
26 50 3
26 52 2
26 59 1
26 60 1
26 71 3
26 72 1
26 80 2
26 81 1
26 82 1
26 84 2
26 115 3
26 124 2
26 126 3
27 6 3
27 7 1
27 9 1
27 17 2
27 19 1
27 50 1
27 51 3
27 53 2
27 60 1
27 61 1
27 72 3
27 73 1
27 81 2
27 82 1
27 83 1
27 85 2
27 116 3
27 125 2
27 127 3
28 7 3
28 8 1
28 10 1
28 18 2
28 20 1
28 51 1
28 52 3
28 54 2
28 61 1
28 62 1
28 73 3
28 74 1
28 82 2
28 83 1
28 84 1
28 86 2
28 117 3
28 126 2
28 128 3
29 8 3
29 9 1
29 11 1
29 19 2
29 21 1
29 52 1
29 53 3
29 55 2
29 62 1
29 63 1
29 74 3
29 75 1
29 83 2
29 84 1
29 85 1
29 87 2
29 118 3
29 127 2
29 129 3
30 9 3
30 10 1
30 12 1
30 20 2
30 22 1
30 53 1
30 54 3
30 56 2
30 63 1
30 64 1
30 75 3
30 76 1
30 84 2
30 85 1
30 86 1
30 88 2
30 119 3
30 128 2
30 130 3
31 1 1
31 10 3
31 11 1
31 13 1
31 21 2
31 54 1
31 55 3
31 57 2
31 64 1
31 65 1
31 67 2
31 76 3
31 77 1
31 85 2
31 86 1
31 87 1
31 120 3
31 129 2
31 131 3
32 2 1
32 11 3
32 12 1
32 14 1
32 22 2
32 55 1
32 56 3
32 58 2
32 65 1
32 66 1
32 68 2
32 77 3
32 78 1
32 86 2
32 87 1
32 88 1
32 121 3
32 130 2
32 132 3
33 1 2
33 3 1
33 12 3
33 13 1
33 15 1
33 45 1
33 56 1
33 57 3
33 59 2
33 66 1
33 67 1
33 69 2
33 78 3
33 79 1
33 87 2
33 88 1
33 111 3
33 122 3
33 131 2
34 2 2
34 4 1
34 13 3
34 14 1
34 16 1
34 45 1
34 46 1
34 57 1
34 58 3
34 60 2
34 67 1
34 68 1
34 70 2
34 79 3
34 80 1
34 88 2
34 112 3
34 123 3
34 132 2
35 3 2
35 5 1
35 14 3
35 15 1
35 17 1
35 46 1
35 47 1
35 58 1
35 59 3
35 61 2
35 67 2
35 68 1
35 69 1
35 71 2
35 80 3
35 81 1
35 111 2
35 113 3
35 124 3
36 4 2
36 6 1
36 15 3
36 16 1
36 18 1
36 47 1
36 48 1
36 59 1
36 60 3
36 62 2
36 68 2
36 69 1
36 70 1
36 72 2
36 81 3
36 82 1
36 112 2
36 114 3
36 125 3
37 5 2
37 7 1
37 16 3
37 17 1
37 19 1
37 48 1
37 49 1
37 60 1
37 61 3
37 63 2
37 69 2
37 70 1
37 71 1
37 73 2
37 82 3
37 83 1
37 113 2
37 115 3
37 126 3
38 6 2
38 8 1
38 17 3
38 18 1
38 20 1
38 49 1
38 50 1
38 61 1
38 62 3
38 64 2
38 70 2
38 71 1
38 72 1
38 74 2
38 83 3
38 84 1
38 114 2
38 116 3
38 127 3
39 7 2
39 9 1
39 18 3
39 19 1
39 21 1
39 50 1
39 51 1
39 62 1
39 63 3
39 65 2
39 71 2
39 72 1
39 73 1
39 75 2
39 84 3
39 85 1
39 115 2
39 117 3
39 128 3
40 8 2
40 10 1
40 19 3
40 20 1
40 22 1
40 51 1
40 52 1
40 63 1
40 64 3
40 66 2
40 72 2
40 73 1
40 74 1
40 76 2
40 85 3
40 86 1
40 116 2
40 118 3
40 129 3
41 1 1
41 9 2
41 11 1
41 20 3
41 21 1
41 45 2
41 52 1
41 53 1
41 64 1
41 65 3
41 73 2
41 74 1
41 75 1
41 77 2
41 86 3
41 87 1
41 117 2
41 119 3
41 130 3
42 2 1
42 10 2
42 12 1
42 21 3
42 22 1
42 46 2
42 53 1
42 54 1
42 65 1
42 66 3
42 74 2
42 75 1
42 76 1
42 78 2
42 87 3
42 88 1
42 118 2
42 120 3
42 131 3
43 1 1
43 3 1
43 11 2
43 13 1
43 22 3
43 45 3
43 47 2
43 54 1
43 55 1
43 66 1
43 67 1
43 75 2
43 76 1
43 77 1
43 79 2
43 88 3
43 119 2
43 121 3
43 132 3
44 1 3
44 2 1
44 4 1
44 12 2
44 14 1
44 45 1
44 46 3
44 48 2
44 55 1
44 56 1
44 67 3
44 68 1
44 76 2
44 77 1
44 78 1
44 80 2
44 111 3
44 120 2
44 122 3
