%%MatrixMarket matrix coordinate integer general
% Binary matrix over GF(2).
% Coordinate indices are 1-based; omitted entries are zero.
120 320 1020
1 2 1
1 41 1
1 81 1
1 121 1
1 161 1
1 201 1
1 241 1
1 281 1
2 1 1
2 2 1
2 42 1
2 82 1
2 122 1
2 162 1
2 202 1
2 242 1
2 282 1
3 4 1
3 43 1
3 83 1
3 123 1
3 163 1
3 203 1
3 243 1
3 283 1
4 3 1
4 4 1
4 44 1
4 84 1
4 124 1
4 164 1
4 204 1
4 244 1
4 284 1
5 6 1
5 45 1
5 85 1
5 125 1
5 165 1
5 205 1
5 245 1
5 285 1
6 5 1
6 6 1
6 46 1
6 86 1
6 126 1
6 166 1
6 206 1
6 246 1
6 286 1
7 8 1
7 47 1
7 87 1
7 127 1
7 167 1
7 207 1
7 247 1
7 287 1
8 7 1
8 8 1
8 48 1
8 88 1
8 128 1
8 168 1
8 208 1
8 248 1
8 288 1
9 10 1
9 49 1
9 89 1
9 129 1
9 169 1
9 209 1
9 249 1
9 289 1
10 9 1
10 10 1
10 50 1
10 90 1
10 130 1
10 170 1
10 210 1
10 250 1
10 290 1
11 12 1
11 51 1
11 91 1
11 131 1
11 171 1
11 211 1
11 251 1
11 291 1
12 11 1
12 12 1
12 52 1
12 92 1
12 132 1
12 172 1
12 212 1
12 252 1
12 292 1
13 14 1
13 53 1
13 93 1
13 133 1
13 173 1
13 213 1
13 253 1
13 293 1
14 13 1
14 14 1
14 54 1
14 94 1
14 134 1
14 174 1
14 214 1
14 254 1
14 294 1
15 16 1
15 55 1
15 95 1
15 135 1
15 175 1
15 215 1
15 255 1
15 295 1
16 15 1
16 16 1
16 56 1
16 96 1
16 136 1
16 176 1
16 216 1
16 256 1
16 296 1
17 18 1
17 57 1
17 97 1
17 137 1
17 177 1
17 217 1
17 257 1
17 297 1
18 17 1
18 18 1
18 58 1
18 98 1
18 138 1
18 178 1
18 218 1
18 258 1
18 298 1
19 20 1
19 59 1
19 99 1
19 139 1
19 179 1
19 219 1
19 259 1
19 299 1
20 19 1
20 20 1
20 60 1
20 100 1
20 140 1
20 180 1
20 220 1
20 260 1
20 300 1
21 22 1
21 61 1
21 101 1
21 141 1
21 181 1
21 221 1
21 261 1
21 301 1
22 21 1
22 22 1
22 62 1
22 102 1
22 142 1
22 182 1
22 222 1
22 262 1
22 302 1
23 24 1
23 63 1
23 103 1
23 143 1
23 183 1
23 223 1
23 263 1
23 303 1
24 23 1
24 24 1
24 64 1
24 104 1
24 144 1
24 184 1
24 224 1
24 264 1
24 304 1
25 26 1
25 65 1
25 105 1
25 145 1
25 185 1
25 225 1
25 265 1
25 305 1
26 25 1
26 26 1
26 66 1
26 106 1
26 146 1
26 186 1
26 226 1
26 266 1
26 306 1
27 28 1
27 67 1
27 107 1
27 147 1
27 187 1
27 227 1
27 267 1
27 307 1
28 27 1
28 28 1
28 68 1
28 108 1
28 148 1
28 188 1
28 228 1
28 268 1
28 308 1
29 30 1
29 69 1
29 109 1
29 149 1
29 189 1
29 229 1
29 269 1
29 309 1
30 29 1
30 30 1
30 70 1
30 110 1
30 150 1
30 190 1
30 230 1
30 270 1
30 310 1
31 32 1
31 71 1
31 111 1
31 151 1
31 191 1
31 231 1
31 271 1
31 311 1
32 31 1
32 32 1
32 72 1
32 112 1
32 152 1
32 192 1
32 232 1
32 272 1
32 312 1
33 34 1
33 73 1
33 113 1
33 153 1
33 193 1
33 233 1
33 273 1
33 313 1
34 33 1
34 34 1
34 74 1
34 114 1
34 154 1
34 194 1
34 234 1
34 274 1
34 314 1
35 36 1
35 75 1
35 115 1
35 155 1
35 195 1
35 235 1
35 275 1
35 315 1
36 35 1
36 36 1
36 76 1
36 116 1
36 156 1
36 196 1
36 236 1
36 276 1
36 316 1
37 38 1
37 77 1
37 117 1
37 157 1
37 197 1
37 237 1
37 277 1
37 317 1
38 37 1
38 38 1
38 78 1
38 118 1
38 158 1
38 198 1
38 238 1
38 278 1
38 318 1
39 40 1
39 79 1
39 119 1
39 159 1
39 199 1
39 239 1
39 279 1
39 319 1
40 39 1
40 40 1
40 80 1
40 120 1
40 160 1
40 200 1
40 240 1
40 280 1
40 320 1
41 1 1
41 78 1
41 105 1
41 153 1
41 191 1
41 229 1
41 279 1
41 301 1
42 2 1
42 77 1
42 78 1
42 106 1
42 154 1
42 192 1
42 230 1
42 280 1
42 302 1
43 3 1
43 80 1
43 107 1
43 155 1
43 193 1
43 231 1
43 241 1
43 303 1
44 4 1
44 79 1
44 80 1
44 108 1
44 156 1
44 194 1
44 232 1
44 242 1
44 304 1
45 5 1
45 42 1
45 109 1
45 157 1
45 195 1
45 233 1
45 243 1
45 305 1
46 6 1
46 41 1
46 42 1
46 110 1
46 158 1
46 196 1
46 234 1
46 244 1
46 306 1
47 7 1
47 44 1
47 111 1
47 159 1
47 197 1
47 235 1
47 245 1
47 307 1
48 8 1
48 43 1
48 44 1
48 112 1
48 160 1
48 198 1
48 236 1
48 246 1
48 308 1
49 9 1
49 46 1
49 113 1
49 121 1
49 199 1
49 237 1
49 247 1
49 309 1
50 10 1
50 45 1
50 46 1
50 114 1
50 122 1
50 200 1
50 238 1
50 248 1
50 310 1
51 11 1
51 48 1
51 115 1
51 123 1
51 161 1
51 239 1
51 249 1
51 311 1
52 12 1
52 47 1
52 48 1
52 116 1
52 124 1
52 162 1
52 240 1
52 250 1
52 312 1
53 13 1
53 50 1
53 117 1
53 125 1
53 163 1
53 201 1
53 251 1
53 313 1
54 14 1
54 49 1
54 50 1
54 118 1
54 126 1
54 164 1
54 202 1
54 252 1
54 314 1
55 15 1
55 52 1
55 119 1
55 127 1
55 165 1
55 203 1
55 253 1
55 315 1
56 16 1
56 51 1
56 52 1
56 120 1
56 128 1
56 166 1
56 204 1
56 254 1
56 316 1
57 17 1
57 54 1
57 81 1
57 129 1
57 167 1
57 205 1
57 255 1
57 317 1
58 18 1
58 53 1
58 54 1
58 82 1
58 130 1
58 168 1
58 206 1
58 256 1
58 318 1
59 19 1
59 56 1
59 83 1
59 131 1
59 169 1
59 207 1
59 257 1
59 319 1
60 20 1
60 55 1
60 56 1
60 84 1
60 132 1
60 170 1
60 208 1
60 258 1
60 320 1
61 21 1
61 58 1
61 85 1
61 133 1
61 171 1
61 209 1
61 259 1
61 281 1
62 22 1
62 57 1
62 58 1
62 86 1
62 134 1
62 172 1
62 210 1
62 260 1
62 282 1
63 23 1
63 60 1
63 87 1
63 135 1
63 173 1
63 211 1
63 261 1
63 283 1
64 24 1
64 59 1
64 60 1
64 88 1
64 136 1
64 174 1
64 212 1
64 262 1
64 284 1
65 25 1
65 62 1
65 89 1
65 137 1
65 175 1
65 213 1
65 263 1
65 285 1
66 26 1
66 61 1
66 62 1
66 90 1
66 138 1
66 176 1
66 214 1
66 264 1
66 286 1
67 27 1
67 64 1
67 91 1
67 139 1
67 177 1
67 215 1
67 265 1
67 287 1
68 28 1
68 63 1
68 64 1
68 92 1
68 140 1
68 178 1
68 216 1
68 266 1
68 288 1
69 29 1
69 66 1
69 93 1
69 141 1
69 179 1
69 217 1
69 267 1
69 289 1
70 30 1
70 65 1
70 66 1
70 94 1
70 142 1
70 180 1
70 218 1
70 268 1
70 290 1
71 31 1
71 68 1
71 95 1
71 143 1
71 181 1
71 219 1
71 269 1
71 291 1
72 32 1
72 67 1
72 68 1
72 96 1
72 144 1
72 182 1
72 220 1
72 270 1
72 292 1
73 33 1
73 70 1
73 97 1
73 145 1
73 183 1
73 221 1
73 271 1
73 293 1
74 34 1
74 69 1
74 70 1
74 98 1
74 146 1
74 184 1
74 222 1
74 272 1
74 294 1
75 35 1
75 72 1
75 99 1
75 147 1
75 185 1
75 223 1
75 273 1
75 295 1
76 36 1
76 71 1
76 72 1
76 100 1
76 148 1
76 186 1
76 224 1
76 274 1
76 296 1
77 37 1
77 74 1
77 101 1
77 149 1
77 187 1
77 225 1
77 275 1
77 297 1
78 38 1
78 73 1
78 74 1
78 102 1
78 150 1
78 188 1
78 226 1
78 276 1
78 298 1
79 39 1
79 76 1
79 103 1
79 151 1
79 189 1
79 227 1
79 277 1
79 299 1
80 40 1
80 75 1
80 76 1
80 104 1
80 152 1
80 190 1
80 228 1
80 278 1
80 300 1
81 1 1
81 57 1
81 102 1
81 131 1
81 175 1
81 237 1
81 265 1
81 289 1
82 2 1
82 58 1
82 101 1
82 102 1
82 132 1
82 176 1
82 238 1
82 266 1
82 290 1
83 3 1
83 59 1
83 104 1
83 133 1
83 177 1
83 239 1
83 267 1
83 291 1
84 4 1
84 60 1
84 103 1
84 104 1
84 134 1
84 178 1
84 240 1
84 268 1
84 292 1
85 5 1
85 61 1
85 106 1
85 135 1
85 179 1
85 201 1
85 269 1
85 293 1
86 6 1
86 62 1
86 105 1
86 106 1
86 136 1
86 180 1
86 202 1
86 270 1
86 294 1
87 7 1
87 63 1
87 108 1
87 137 1
87 181 1
87 203 1
87 271 1
87 295 1
88 8 1
88 64 1
88 107 1
88 108 1
88 138 1
88 182 1
88 204 1
88 272 1
88 296 1
89 9 1
89 65 1
89 110 1
89 139 1
89 183 1
89 205 1
89 273 1
89 297 1
90 10 1
90 66 1
90 109 1
90 110 1
90 140 1
90 184 1
90 206 1
90 274 1
90 298 1
91 11 1
91 67 1
91 112 1
91 141 1
91 185 1
91 207 1
91 275 1
91 299 1
92 12 1
92 68 1
92 111 1
92 112 1
92 142 1
92 186 1
92 208 1
92 276 1
92 300 1
93 13 1
93 69 1
93 114 1
93 143 1
93 187 1
93 209 1
93 277 1
93 301 1
94 14 1
94 70 1
94 113 1
94 114 1
94 144 1
94 188 1
94 210 1
94 278 1
94 302 1
95 15 1
95 71 1
95 116 1
95 145 1
95 189 1
95 211 1
95 279 1
95 303 1
96 16 1
96 72 1
96 115 1
96 116 1
96 146 1
96 190 1
96 212 1
96 280 1
96 304 1
97 17 1
97 73 1
97 118 1
97 147 1
97 191 1
97 213 1
97 241 1
97 305 1
98 18 1
98 74 1
98 117 1
98 118 1
98 148 1
98 192 1
98 214 1
98 242 1
98 306 1
99 19 1
99 75 1
99 120 1
99 149 1
99 193 1
99 215 1
99 243 1
99 307 1
100 20 1
100 76 1
100 119 1
100 120 1
100 150 1
100 194 1
100 216 1
100 244 1
100 308 1
101 21 1
101 77 1
101 82 1
101 151 1
101 195 1
101 217 1
101 245 1
101 309 1
102 22 1
102 78 1
102 81 1
102 82 1
102 152 1
102 196 1
102 218 1
102 246 1
102 310 1
103 23 1
103 79 1
103 84 1
103 153 1
103 197 1
103 219 1
103 247 1
103 311 1
104 24 1
104 80 1
104 83 1
104 84 1
104 154 1
104 198 1
104 220 1
104 248 1
104 312 1
105 25 1
105 41 1
105 86 1
105 155 1
105 199 1
105 221 1
105 249 1
105 313 1
106 26 1
106 42 1
106 85 1
106 86 1
106 156 1
106 200 1
106 222 1
106 250 1
106 314 1
107 27 1
107 43 1
107 88 1
107 157 1
107 161 1
107 223 1
107 251 1
107 315 1
108 28 1
108 44 1
108 87 1
108 88 1
108 158 1
108 162 1
108 224 1
108 252 1
108 316 1
109 29 1
109 45 1
109 90 1
109 159 1
109 163 1
109 225 1
109 253 1
109 317 1
110 30 1
110 46 1
110 89 1
110 90 1
110 160 1
110 164 1
110 226 1
110 254 1
110 318 1
111 31 1
111 47 1
111 92 1
111 121 1
111 165 1
111 227 1
111 255 1
111 319 1
112 32 1
112 48 1
112 91 1
112 92 1
112 122 1
112 166 1
112 228 1
112 256 1
112 320 1
113 33 1
113 49 1
113 94 1
113 123 1
113 167 1
113 229 1
113 257 1
113 281 1
114 34 1
114 50 1
114 93 1
114 94 1
114 124 1
114 168 1
114 230 1
114 258 1
114 282 1
115 35 1
115 51 1
115 96 1
115 125 1
115 169 1
115 231 1
115 259 1
115 283 1
116 36 1
116 52 1
116 95 1
116 96 1
116 126 1
116 170 1
116 232 1
116 260 1
116 284 1
117 37 1
117 53 1
117 98 1
117 127 1
117 171 1
117 233 1
117 261 1
117 285 1
118 38 1
118 54 1
118 97 1
118 98 1
118 128 1
118 172 1
118 234 1
118 262 1
118 286 1
119 39 1
119 55 1
119 100 1
119 129 1
119 173 1
119 235 1
119 263 1
119 287 1
120 40 1
120 56 1
120 99 1
120 100 1
120 130 1
120 174 1
120 236 1
120 264 1
120 288 1
