%%MatrixMarket matrix coordinate integer general
% GF(4) labels 0,1,2=omega,3=omega+1; arithmetic is NOT integer arithmetic.
% Coordinate indices are 1-based; omitted entries are zero.
60 160 480
1 1 2
1 21 1
1 41 1
1 61 1
1 81 1
1 101 1
1 121 1
1 141 1
2 2 2
2 22 1
2 42 1
2 62 1
2 82 1
2 102 1
2 122 1
2 142 1
3 3 2
3 23 1
3 43 1
3 63 1
3 83 1
3 103 1
3 123 1
3 143 1
4 4 2
4 24 1
4 44 1
4 64 1
4 84 1
4 104 1
4 124 1
4 144 1
5 5 2
5 25 1
5 45 1
5 65 1
5 85 1
5 105 1
5 125 1
5 145 1
6 6 2
6 26 1
6 46 1
6 66 1
6 86 1
6 106 1
6 126 1
6 146 1
7 7 2
7 27 1
7 47 1
7 67 1
7 87 1
7 107 1
7 127 1
7 147 1
8 8 2
8 28 1
8 48 1
8 68 1
8 88 1
8 108 1
8 128 1
8 148 1
9 9 2
9 29 1
9 49 1
9 69 1
9 89 1
9 109 1
9 129 1
9 149 1
10 10 2
10 30 1
10 50 1
10 70 1
10 90 1
10 110 1
10 130 1
10 150 1
11 11 2
11 31 1
11 51 1
11 71 1
11 91 1
11 111 1
11 131 1
11 151 1
12 12 2
12 32 1
12 52 1
12 72 1
12 92 1
12 112 1
12 132 1
12 152 1
13 13 2
13 33 1
13 53 1
13 73 1
13 93 1
13 113 1
13 133 1
13 153 1
14 14 2
14 34 1
14 54 1
14 74 1
14 94 1
14 114 1
14 134 1
14 154 1
15 15 2
15 35 1
15 55 1
15 75 1
15 95 1
15 115 1
15 135 1
15 155 1
16 16 2
16 36 1
16 56 1
16 76 1
16 96 1
16 116 1
16 136 1
16 156 1
17 17 2
17 37 1
17 57 1
17 77 1
17 97 1
17 117 1
17 137 1
17 157 1
18 18 2
18 38 1
18 58 1
18 78 1
18 98 1
18 118 1
18 138 1
18 158 1
19 19 2
19 39 1
19 59 1
19 79 1
19 99 1
19 119 1
19 139 1
19 159 1
20 20 2
20 40 1
20 60 1
20 80 1
20 100 1
20 120 1
20 140 1
20 160 1
21 1 1
21 39 2
21 53 1
21 77 1
21 96 1
21 115 1
21 140 1
21 151 1
22 2 1
22 40 2
22 54 1
22 78 1
22 97 1
22 116 1
22 121 1
22 152 1
23 3 1
23 21 2
23 55 1
23 79 1
23 98 1
23 117 1
23 122 1
23 153 1
24 4 1
24 22 2
24 56 1
24 80 1
24 99 1
24 118 1
24 123 1
24 154 1
25 5 1
25 23 2
25 57 1
25 61 1
25 100 1
25 119 1
25 124 1
25 155 1
26 6 1
26 24 2
26 58 1
26 62 1
26 81 1
26 120 1
26 125 1
26 156 1
27 7 1
27 25 2
27 59 1
27 63 1
27 82 1
27 101 1
27 126 1
27 157 1
28 8 1
28 26 2
28 60 1
28 64 1
28 83 1
28 102 1
28 127 1
28 158 1
29 9 1
29 27 2
29 41 1
29 65 1
29 84 1
29 103 1
29 128 1
29 159 1
30 10 1
30 28 2
30 42 1
30 66 1
30 85 1
30 104 1
30 129 1
30 160 1
31 11 1
31 29 2
31 43 1
31 67 1
31 86 1
31 105 1
31 130 1
31 141 1
32 12 1
32 30 2
32 44 1
32 68 1
32 87 1
32 106 1
32 131 1
32 142 1
33 13 1
33 31 2
33 45 1
33 69 1
33 88 1
33 107 1
33 132 1
33 143 1
34 14 1
34 32 2
34 46 1
34 70 1
34 89 1
34 108 1
34 133 1
34 144 1
35 15 1
35 33 2
35 47 1
35 71 1
35 90 1
35 109 1
35 134 1
35 145 1
36 16 1
36 34 2
36 48 1
36 72 1
36 91 1
36 110 1
36 135 1
36 146 1
37 17 1
37 35 2
37 49 1
37 73 1
37 92 1
37 111 1
37 136 1
37 147 1
38 18 1
38 36 2
38 50 1
38 74 1
38 93 1
38 112 1
38 137 1
38 148 1
39 19 1
39 37 2
39 51 1
39 75 1
39 94 1
39 113 1
39 138 1
39 149 1
40 20 1
40 38 2
40 52 1
40 76 1
40 95 1
40 114 1
40 139 1
40 150 1
41 1 1
41 29 1
41 51 2
41 66 1
41 88 1
41 119 1
41 133 1
41 145 1
42 2 1
42 30 1
42 52 2
42 67 1
42 89 1
42 120 1
42 134 1
42 146 1
43 3 1
43 31 1
43 53 2
43 68 1
43 90 1
43 101 1
43 135 1
43 147 1
44 4 1
44 32 1
44 54 2
44 69 1
44 91 1
44 102 1
44 136 1
44 148 1
45 5 1
45 33 1
45 55 2
45 70 1
45 92 1
45 103 1
45 137 1
45 149 1
46 6 1
46 34 1
46 56 2
46 71 1
46 93 1
46 104 1
46 138 1
46 150 1
47 7 1
47 35 1
47 57 2
47 72 1
47 94 1
47 105 1
47 139 1
47 151 1
48 8 1
48 36 1
48 58 2
48 73 1
48 95 1
48 106 1
48 140 1
48 152 1
49 9 1
49 37 1
49 59 2
49 74 1
49 96 1
49 107 1
49 121 1
49 153 1
50 10 1
50 38 1
50 60 2
50 75 1
50 97 1
50 108 1
50 122 1
50 154 1
51 11 1
51 39 1
51 41 2
51 76 1
51 98 1
51 109 1
51 123 1
51 155 1
52 12 1
52 40 1
52 42 2
52 77 1
52 99 1
52 110 1
52 124 1
52 156 1
53 13 1
53 21 1
53 43 2
53 78 1
53 100 1
53 111 1
53 125 1
53 157 1
54 14 1
54 22 1
54 44 2
54 79 1
54 81 1
54 112 1
54 126 1
54 158 1
55 15 1
55 23 1
55 45 2
55 80 1
55 82 1
55 113 1
55 127 1
55 159 1
56 16 1
56 24 1
56 46 2
56 61 1
56 83 1
56 114 1
56 128 1
56 160 1
57 17 1
57 25 1
57 47 2
57 62 1
57 84 1
57 115 1
57 129 1
57 141 1
58 18 1
58 26 1
58 48 2
58 63 1
58 85 1
58 116 1
58 130 1
58 142 1
59 19 1
59 27 1
59 49 2
59 64 1
59 86 1
59 117 1
59 131 1
59 143 1
60 20 1
60 28 1
60 50 2
60 65 1
60 87 1
60 118 1
60 132 1
60 144 1
