%%MatrixMarket matrix coordinate integer general
% Binary matrix over GF(2).
% Coordinate indices are 1-based; omitted entries are zero.
120 320 1020
1 1 1
1 47 1
1 87 1
1 131 1
1 162 1
1 211 1
1 279 1
1 319 1
2 2 1
2 48 1
2 88 1
2 132 1
2 161 1
2 162 1
2 212 1
2 280 1
2 320 1
3 3 1
3 49 1
3 89 1
3 133 1
3 164 1
3 213 1
3 241 1
3 281 1
4 4 1
4 50 1
4 90 1
4 134 1
4 163 1
4 164 1
4 214 1
4 242 1
4 282 1
5 5 1
5 51 1
5 91 1
5 135 1
5 166 1
5 215 1
5 243 1
5 283 1
6 6 1
6 52 1
6 92 1
6 136 1
6 165 1
6 166 1
6 216 1
6 244 1
6 284 1
7 7 1
7 53 1
7 93 1
7 137 1
7 168 1
7 217 1
7 245 1
7 285 1
8 8 1
8 54 1
8 94 1
8 138 1
8 167 1
8 168 1
8 218 1
8 246 1
8 286 1
9 9 1
9 55 1
9 95 1
9 139 1
9 170 1
9 219 1
9 247 1
9 287 1
10 10 1
10 56 1
10 96 1
10 140 1
10 169 1
10 170 1
10 220 1
10 248 1
10 288 1
11 11 1
11 57 1
11 97 1
11 141 1
11 172 1
11 221 1
11 249 1
11 289 1
12 12 1
12 58 1
12 98 1
12 142 1
12 171 1
12 172 1
12 222 1
12 250 1
12 290 1
13 13 1
13 59 1
13 99 1
13 143 1
13 174 1
13 223 1
13 251 1
13 291 1
14 14 1
14 60 1
14 100 1
14 144 1
14 173 1
14 174 1
14 224 1
14 252 1
14 292 1
15 15 1
15 61 1
15 101 1
15 145 1
15 176 1
15 225 1
15 253 1
15 293 1
16 16 1
16 62 1
16 102 1
16 146 1
16 175 1
16 176 1
16 226 1
16 254 1
16 294 1
17 17 1
17 63 1
17 103 1
17 147 1
17 178 1
17 227 1
17 255 1
17 295 1
18 18 1
18 64 1
18 104 1
18 148 1
18 177 1
18 178 1
18 228 1
18 256 1
18 296 1
19 19 1
19 65 1
19 105 1
19 149 1
19 180 1
19 229 1
19 257 1
19 297 1
20 20 1
20 66 1
20 106 1
20 150 1
20 179 1
20 180 1
20 230 1
20 258 1
20 298 1
21 21 1
21 67 1
21 107 1
21 151 1
21 182 1
21 231 1
21 259 1
21 299 1
22 22 1
22 68 1
22 108 1
22 152 1
22 181 1
22 182 1
22 232 1
22 260 1
22 300 1
23 23 1
23 69 1
23 109 1
23 153 1
23 184 1
23 233 1
23 261 1
23 301 1
24 24 1
24 70 1
24 110 1
24 154 1
24 183 1
24 184 1
24 234 1
24 262 1
24 302 1
25 25 1
25 71 1
25 111 1
25 155 1
25 186 1
25 235 1
25 263 1
25 303 1
26 26 1
26 72 1
26 112 1
26 156 1
26 185 1
26 186 1
26 236 1
26 264 1
26 304 1
27 27 1
27 73 1
27 113 1
27 157 1
27 188 1
27 237 1
27 265 1
27 305 1
28 28 1
28 74 1
28 114 1
28 158 1
28 187 1
28 188 1
28 238 1
28 266 1
28 306 1
29 29 1
29 75 1
29 115 1
29 159 1
29 190 1
29 239 1
29 267 1
29 307 1
30 30 1
30 76 1
30 116 1
30 160 1
30 189 1
30 190 1
30 240 1
30 268 1
30 308 1
31 31 1
31 77 1
31 117 1
31 121 1
31 192 1
31 201 1
31 269 1
31 309 1
32 32 1
32 78 1
32 118 1
32 122 1
32 191 1
32 192 1
32 202 1
32 270 1
32 310 1
33 33 1
33 79 1
33 119 1
33 123 1
33 194 1
33 203 1
33 271 1
33 311 1
34 34 1
34 80 1
34 120 1
34 124 1
34 193 1
34 194 1
34 204 1
34 272 1
34 312 1
35 35 1
35 41 1
35 81 1
35 125 1
35 196 1
35 205 1
35 273 1
35 313 1
36 36 1
36 42 1
36 82 1
36 126 1
36 195 1
36 196 1
36 206 1
36 274 1
36 314 1
37 37 1
37 43 1
37 83 1
37 127 1
37 198 1
37 207 1
37 275 1
37 315 1
38 38 1
38 44 1
38 84 1
38 128 1
38 197 1
38 198 1
38 208 1
38 276 1
38 316 1
39 39 1
39 45 1
39 85 1
39 129 1
39 200 1
39 209 1
39 277 1
39 317 1
40 40 1
40 46 1
40 86 1
40 130 1
40 199 1
40 200 1
40 210 1
40 278 1
40 318 1
41 1 1
41 49 1
41 105 1
41 129 1
41 167 1
41 202 1
41 265 1
41 287 1
42 2 1
42 50 1
42 106 1
42 130 1
42 168 1
42 201 1
42 202 1
42 266 1
42 288 1
43 3 1
43 51 1
43 107 1
43 131 1
43 169 1
43 204 1
43 267 1
43 289 1
44 4 1
44 52 1
44 108 1
44 132 1
44 170 1
44 203 1
44 204 1
44 268 1
44 290 1
45 5 1
45 53 1
45 109 1
45 133 1
45 171 1
45 206 1
45 269 1
45 291 1
46 6 1
46 54 1
46 110 1
46 134 1
46 172 1
46 205 1
46 206 1
46 270 1
46 292 1
47 7 1
47 55 1
47 111 1
47 135 1
47 173 1
47 208 1
47 271 1
47 293 1
48 8 1
48 56 1
48 112 1
48 136 1
48 174 1
48 207 1
48 208 1
48 272 1
48 294 1
49 9 1
49 57 1
49 113 1
49 137 1
49 175 1
49 210 1
49 273 1
49 295 1
50 10 1
50 58 1
50 114 1
50 138 1
50 176 1
50 209 1
50 210 1
50 274 1
50 296 1
51 11 1
51 59 1
51 115 1
51 139 1
51 177 1
51 212 1
51 275 1
51 297 1
52 12 1
52 60 1
52 116 1
52 140 1
52 178 1
52 211 1
52 212 1
52 276 1
52 298 1
53 13 1
53 61 1
53 117 1
53 141 1
53 179 1
53 214 1
53 277 1
53 299 1
54 14 1
54 62 1
54 118 1
54 142 1
54 180 1
54 213 1
54 214 1
54 278 1
54 300 1
55 15 1
55 63 1
55 119 1
55 143 1
55 181 1
55 216 1
55 279 1
55 301 1
56 16 1
56 64 1
56 120 1
56 144 1
56 182 1
56 215 1
56 216 1
56 280 1
56 302 1
57 17 1
57 65 1
57 81 1
57 145 1
57 183 1
57 218 1
57 241 1
57 303 1
58 18 1
58 66 1
58 82 1
58 146 1
58 184 1
58 217 1
58 218 1
58 242 1
58 304 1
59 19 1
59 67 1
59 83 1
59 147 1
59 185 1
59 220 1
59 243 1
59 305 1
60 20 1
60 68 1
60 84 1
60 148 1
60 186 1
60 219 1
60 220 1
60 244 1
60 306 1
61 21 1
61 69 1
61 85 1
61 149 1
61 187 1
61 222 1
61 245 1
61 307 1
62 22 1
62 70 1
62 86 1
62 150 1
62 188 1
62 221 1
62 222 1
62 246 1
62 308 1
63 23 1
63 71 1
63 87 1
63 151 1
63 189 1
63 224 1
63 247 1
63 309 1
64 24 1
64 72 1
64 88 1
64 152 1
64 190 1
64 223 1
64 224 1
64 248 1
64 310 1
65 25 1
65 73 1
65 89 1
65 153 1
65 191 1
65 226 1
65 249 1
65 311 1
66 26 1
66 74 1
66 90 1
66 154 1
66 192 1
66 225 1
66 226 1
66 250 1
66 312 1
67 27 1
67 75 1
67 91 1
67 155 1
67 193 1
67 228 1
67 251 1
67 313 1
68 28 1
68 76 1
68 92 1
68 156 1
68 194 1
68 227 1
68 228 1
68 252 1
68 314 1
69 29 1
69 77 1
69 93 1
69 157 1
69 195 1
69 230 1
69 253 1
69 315 1
70 30 1
70 78 1
70 94 1
70 158 1
70 196 1
70 229 1
70 230 1
70 254 1
70 316 1
71 31 1
71 79 1
71 95 1
71 159 1
71 197 1
71 232 1
71 255 1
71 317 1
72 32 1
72 80 1
72 96 1
72 160 1
72 198 1
72 231 1
72 232 1
72 256 1
72 318 1
73 33 1
73 41 1
73 97 1
73 121 1
73 199 1
73 234 1
73 257 1
73 319 1
74 34 1
74 42 1
74 98 1
74 122 1
74 200 1
74 233 1
74 234 1
74 258 1
74 320 1
75 35 1
75 43 1
75 99 1
75 123 1
75 161 1
75 236 1
75 259 1
75 281 1
76 36 1
76 44 1
76 100 1
76 124 1
76 162 1
76 235 1
76 236 1
76 260 1
76 282 1
77 37 1
77 45 1
77 101 1
77 125 1
77 163 1
77 238 1
77 261 1
77 283 1
78 38 1
78 46 1
78 102 1
78 126 1
78 164 1
78 237 1
78 238 1
78 262 1
78 284 1
79 39 1
79 47 1
79 103 1
79 127 1
79 165 1
79 240 1
79 263 1
79 285 1
80 40 1
80 48 1
80 104 1
80 128 1
80 166 1
80 239 1
80 240 1
80 264 1
80 286 1
81 1 1
81 79 1
81 117 1
81 153 1
81 199 1
81 237 1
81 242 1
81 313 1
82 2 1
82 80 1
82 118 1
82 154 1
82 200 1
82 238 1
82 241 1
82 242 1
82 314 1
83 3 1
83 41 1
83 119 1
83 155 1
83 161 1
83 239 1
83 244 1
83 315 1
84 4 1
84 42 1
84 120 1
84 156 1
84 162 1
84 240 1
84 243 1
84 244 1
84 316 1
85 5 1
85 43 1
85 81 1
85 157 1
85 163 1
85 201 1
85 246 1
85 317 1
86 6 1
86 44 1
86 82 1
86 158 1
86 164 1
86 202 1
86 245 1
86 246 1
86 318 1
87 7 1
87 45 1
87 83 1
87 159 1
87 165 1
87 203 1
87 248 1
87 319 1
88 8 1
88 46 1
88 84 1
88 160 1
88 166 1
88 204 1
88 247 1
88 248 1
88 320 1
89 9 1
89 47 1
89 85 1
89 121 1
89 167 1
89 205 1
89 250 1
89 281 1
90 10 1
90 48 1
90 86 1
90 122 1
90 168 1
90 206 1
90 249 1
90 250 1
90 282 1
91 11 1
91 49 1
91 87 1
91 123 1
91 169 1
91 207 1
91 252 1
91 283 1
92 12 1
92 50 1
92 88 1
92 124 1
92 170 1
92 208 1
92 251 1
92 252 1
92 284 1
93 13 1
93 51 1
93 89 1
93 125 1
93 171 1
93 209 1
93 254 1
93 285 1
94 14 1
94 52 1
94 90 1
94 126 1
94 172 1
94 210 1
94 253 1
94 254 1
94 286 1
95 15 1
95 53 1
95 91 1
95 127 1
95 173 1
95 211 1
95 256 1
95 287 1
96 16 1
96 54 1
96 92 1
96 128 1
96 174 1
96 212 1
96 255 1
96 256 1
96 288 1
97 17 1
97 55 1
97 93 1
97 129 1
97 175 1
97 213 1
97 258 1
97 289 1
98 18 1
98 56 1
98 94 1
98 130 1
98 176 1
98 214 1
98 257 1
98 258 1
98 290 1
99 19 1
99 57 1
99 95 1
99 131 1
99 177 1
99 215 1
99 260 1
99 291 1
100 20 1
100 58 1
100 96 1
100 132 1
100 178 1
100 216 1
100 259 1
100 260 1
100 292 1
101 21 1
101 59 1
101 97 1
101 133 1
101 179 1
101 217 1
101 262 1
101 293 1
102 22 1
102 60 1
102 98 1
102 134 1
102 180 1
102 218 1
102 261 1
102 262 1
102 294 1
103 23 1
103 61 1
103 99 1
103 135 1
103 181 1
103 219 1
103 264 1
103 295 1
104 24 1
104 62 1
104 100 1
104 136 1
104 182 1
104 220 1
104 263 1
104 264 1
104 296 1
105 25 1
105 63 1
105 101 1
105 137 1
105 183 1
105 221 1
105 266 1
105 297 1
106 26 1
106 64 1
106 102 1
106 138 1
106 184 1
106 222 1
106 265 1
106 266 1
106 298 1
107 27 1
107 65 1
107 103 1
107 139 1
107 185 1
107 223 1
107 268 1
107 299 1
108 28 1
108 66 1
108 104 1
108 140 1
108 186 1
108 224 1
108 267 1
108 268 1
108 300 1
109 29 1
109 67 1
109 105 1
109 141 1
109 187 1
109 225 1
109 270 1
109 301 1
110 30 1
110 68 1
110 106 1
110 142 1
110 188 1
110 226 1
110 269 1
110 270 1
110 302 1
111 31 1
111 69 1
111 107 1
111 143 1
111 189 1
111 227 1
111 272 1
111 303 1
112 32 1
112 70 1
112 108 1
112 144 1
112 190 1
112 228 1
112 271 1
112 272 1
112 304 1
113 33 1
113 71 1
113 109 1
113 145 1
113 191 1
113 229 1
113 274 1
113 305 1
114 34 1
114 72 1
114 110 1
114 146 1
114 192 1
114 230 1
114 273 1
114 274 1
114 306 1
115 35 1
115 73 1
115 111 1
115 147 1
115 193 1
115 231 1
115 276 1
115 307 1
116 36 1
116 74 1
116 112 1
116 148 1
116 194 1
116 232 1
116 275 1
116 276 1
116 308 1
117 37 1
117 75 1
117 113 1
117 149 1
117 195 1
117 233 1
117 278 1
117 309 1
118 38 1
118 76 1
118 114 1
118 150 1
118 196 1
118 234 1
118 277 1
118 278 1
118 310 1
119 39 1
119 77 1
119 115 1
119 151 1
119 197 1
119 235 1
119 280 1
119 311 1
120 40 1
120 78 1
120 116 1
120 152 1
120 198 1
120 236 1
120 279 1
120 280 1
120 312 1
