%%MatrixMarket matrix coordinate integer general
% GF(4) labels 0,1,2=omega,3=omega+1; arithmetic is NOT integer arithmetic.
% Coordinate indices are 1-based; omitted entries are zero.
60 160 480
1 1 1
1 24 1
1 44 1
1 66 1
1 81 2
1 106 1
1 140 1
1 160 1
2 2 1
2 25 1
2 45 1
2 67 1
2 82 2
2 107 1
2 121 1
2 141 1
3 3 1
3 26 1
3 46 1
3 68 1
3 83 2
3 108 1
3 122 1
3 142 1
4 4 1
4 27 1
4 47 1
4 69 1
4 84 2
4 109 1
4 123 1
4 143 1
5 5 1
5 28 1
5 48 1
5 70 1
5 85 2
5 110 1
5 124 1
5 144 1
6 6 1
6 29 1
6 49 1
6 71 1
6 86 2
6 111 1
6 125 1
6 145 1
7 7 1
7 30 1
7 50 1
7 72 1
7 87 2
7 112 1
7 126 1
7 146 1
8 8 1
8 31 1
8 51 1
8 73 1
8 88 2
8 113 1
8 127 1
8 147 1
9 9 1
9 32 1
9 52 1
9 74 1
9 89 2
9 114 1
9 128 1
9 148 1
10 10 1
10 33 1
10 53 1
10 75 1
10 90 2
10 115 1
10 129 1
10 149 1
11 11 1
11 34 1
11 54 1
11 76 1
11 91 2
11 116 1
11 130 1
11 150 1
12 12 1
12 35 1
12 55 1
12 77 1
12 92 2
12 117 1
12 131 1
12 151 1
13 13 1
13 36 1
13 56 1
13 78 1
13 93 2
13 118 1
13 132 1
13 152 1
14 14 1
14 37 1
14 57 1
14 79 1
14 94 2
14 119 1
14 133 1
14 153 1
15 15 1
15 38 1
15 58 1
15 80 1
15 95 2
15 120 1
15 134 1
15 154 1
16 16 1
16 39 1
16 59 1
16 61 1
16 96 2
16 101 1
16 135 1
16 155 1
17 17 1
17 40 1
17 60 1
17 62 1
17 97 2
17 102 1
17 136 1
17 156 1
18 18 1
18 21 1
18 41 1
18 63 1
18 98 2
18 103 1
18 137 1
18 157 1
19 19 1
19 22 1
19 42 1
19 64 1
19 99 2
19 104 1
19 138 1
19 158 1
20 20 1
20 23 1
20 43 1
20 65 1
20 100 2
20 105 1
20 139 1
20 159 1
21 1 1
21 25 1
21 53 1
21 65 1
21 84 1
21 101 2
21 133 1
21 144 1
22 2 1
22 26 1
22 54 1
22 66 1
22 85 1
22 102 2
22 134 1
22 145 1
23 3 1
23 27 1
23 55 1
23 67 1
23 86 1
23 103 2
23 135 1
23 146 1
24 4 1
24 28 1
24 56 1
24 68 1
24 87 1
24 104 2
24 136 1
24 147 1
25 5 1
25 29 1
25 57 1
25 69 1
25 88 1
25 105 2
25 137 1
25 148 1
26 6 1
26 30 1
26 58 1
26 70 1
26 89 1
26 106 2
26 138 1
26 149 1
27 7 1
27 31 1
27 59 1
27 71 1
27 90 1
27 107 2
27 139 1
27 150 1
28 8 1
28 32 1
28 60 1
28 72 1
28 91 1
28 108 2
28 140 1
28 151 1
29 9 1
29 33 1
29 41 1
29 73 1
29 92 1
29 109 2
29 121 1
29 152 1
30 10 1
30 34 1
30 42 1
30 74 1
30 93 1
30 110 2
30 122 1
30 153 1
31 11 1
31 35 1
31 43 1
31 75 1
31 94 1
31 111 2
31 123 1
31 154 1
32 12 1
32 36 1
32 44 1
32 76 1
32 95 1
32 112 2
32 124 1
32 155 1
33 13 1
33 37 1
33 45 1
33 77 1
33 96 1
33 113 2
33 125 1
33 156 1
34 14 1
34 38 1
34 46 1
34 78 1
34 97 1
34 114 2
34 126 1
34 157 1
35 15 1
35 39 1
35 47 1
35 79 1
35 98 1
35 115 2
35 127 1
35 158 1
36 16 1
36 40 1
36 48 1
36 80 1
36 99 1
36 116 2
36 128 1
36 159 1
37 17 1
37 21 1
37 49 1
37 61 1
37 100 1
37 117 2
37 129 1
37 160 1
38 18 1
38 22 1
38 50 1
38 62 1
38 81 1
38 118 2
38 130 1
38 141 1
39 19 1
39 23 1
39 51 1
39 63 1
39 82 1
39 119 2
39 131 1
39 142 1
40 20 1
40 24 1
40 52 1
40 64 1
40 83 1
40 120 2
40 132 1
40 143 1
41 1 1
41 40 1
41 59 1
41 77 1
41 100 1
41 119 1
41 121 2
41 157 1
42 2 1
42 21 1
42 60 1
42 78 1
42 81 1
42 120 1
42 122 2
42 158 1
43 3 1
43 22 1
43 41 1
43 79 1
43 82 1
43 101 1
43 123 2
43 159 1
44 4 1
44 23 1
44 42 1
44 80 1
44 83 1
44 102 1
44 124 2
44 160 1
45 5 1
45 24 1
45 43 1
45 61 1
45 84 1
45 103 1
45 125 2
45 141 1
46 6 1
46 25 1
46 44 1
46 62 1
46 85 1
46 104 1
46 126 2
46 142 1
47 7 1
47 26 1
47 45 1
47 63 1
47 86 1
47 105 1
47 127 2
47 143 1
48 8 1
48 27 1
48 46 1
48 64 1
48 87 1
48 106 1
48 128 2
48 144 1
49 9 1
49 28 1
49 47 1
49 65 1
49 88 1
49 107 1
49 129 2
49 145 1
50 10 1
50 29 1
50 48 1
50 66 1
50 89 1
50 108 1
50 130 2
50 146 1
51 11 1
51 30 1
51 49 1
51 67 1
51 90 1
51 109 1
51 131 2
51 147 1
52 12 1
52 31 1
52 50 1
52 68 1
52 91 1
52 110 1
52 132 2
52 148 1
53 13 1
53 32 1
53 51 1
53 69 1
53 92 1
53 111 1
53 133 2
53 149 1
54 14 1
54 33 1
54 52 1
54 70 1
54 93 1
54 112 1
54 134 2
54 150 1
55 15 1
55 34 1
55 53 1
55 71 1
55 94 1
55 113 1
55 135 2
55 151 1
56 16 1
56 35 1
56 54 1
56 72 1
56 95 1
56 114 1
56 136 2
56 152 1
57 17 1
57 36 1
57 55 1
57 73 1
57 96 1
57 115 1
57 137 2
57 153 1
58 18 1
58 37 1
58 56 1
58 74 1
58 97 1
58 116 1
58 138 2
58 154 1
59 19 1
59 38 1
59 57 1
59 75 1
59 98 1
59 117 1
59 139 2
59 155 1
60 20 1
60 39 1
60 58 1
60 76 1
60 99 1
60 118 1
60 140 2
60 156 1
