%%MatrixMarket matrix coordinate integer general
% Binary matrix over GF(2).
% Coordinate indices are 1-based; omitted entries are zero.
80 320 2380
1 126 1
1 134 1
1 141 1
1 142 1
1 150 1
1 153 1
1 154 1
1 157 1
1 163 1
1 167 1
1 172 1
1 180 1
1 183 1
1 187 1
1 188 1
1 195 1
1 199 1
1 214 1
1 218 1
1 221 1
1 222 1
1 237 1
1 242 1
1 249 1
1 250 1
1 257 1
1 261 1
1 265 1
1 278 1
2 128 1
2 136 1
2 143 1
2 144 1
2 152 1
2 155 1
2 156 1
2 159 1
2 161 1
2 165 1
2 169 1
2 174 1
2 182 1
2 185 1
2 189 1
2 190 1
2 197 1
2 216 1
2 220 1
2 223 1
2 224 1
2 239 1
2 244 1
2 251 1
2 252 1
2 259 1
2 263 1
2 267 1
2 280 1
3 121 1
3 130 1
3 138 1
3 145 1
3 146 1
3 154 1
3 157 1
3 158 1
3 163 1
3 167 1
3 171 1
3 176 1
3 184 1
3 187 1
3 191 1
3 192 1
3 199 1
3 201 1
3 218 1
3 222 1
3 225 1
3 226 1
3 242 1
3 246 1
3 253 1
3 254 1
3 261 1
3 265 1
3 269 1
4 123 1
4 132 1
4 140 1
4 147 1
4 148 1
4 156 1
4 159 1
4 160 1
4 161 1
4 165 1
4 169 1
4 173 1
4 178 1
4 186 1
4 189 1
4 193 1
4 194 1
4 203 1
4 220 1
4 224 1
4 227 1
4 228 1
4 244 1
4 248 1
4 255 1
4 256 1
4 263 1
4 267 1
4 271 1
5 121 1
5 122 1
5 125 1
5 134 1
5 142 1
5 149 1
5 150 1
5 158 1
5 163 1
5 167 1
5 171 1
5 175 1
5 180 1
5 188 1
5 191 1
5 195 1
5 196 1
5 205 1
5 222 1
5 226 1
5 229 1
5 230 1
5 246 1
5 250 1
5 257 1
5 258 1
5 265 1
5 269 1
5 273 1
6 123 1
6 124 1
6 127 1
6 136 1
6 144 1
6 151 1
6 152 1
6 160 1
6 165 1
6 169 1
6 173 1
6 177 1
6 182 1
6 190 1
6 193 1
6 197 1
6 198 1
6 207 1
6 224 1
6 228 1
6 231 1
6 232 1
6 248 1
6 252 1
6 259 1
6 260 1
6 267 1
6 271 1
6 275 1
7 122 1
7 125 1
7 126 1
7 129 1
7 138 1
7 146 1
7 153 1
7 154 1
7 167 1
7 171 1
7 175 1
7 179 1
7 184 1
7 192 1
7 195 1
7 199 1
7 200 1
7 209 1
7 226 1
7 230 1
7 233 1
7 234 1
7 250 1
7 254 1
7 261 1
7 262 1
7 269 1
7 273 1
7 277 1
8 124 1
8 127 1
8 128 1
8 131 1
8 140 1
8 148 1
8 155 1
8 156 1
8 161 1
8 162 1
8 169 1
8 173 1
8 177 1
8 181 1
8 186 1
8 194 1
8 197 1
8 211 1
8 228 1
8 232 1
8 235 1
8 236 1
8 252 1
8 256 1
8 263 1
8 264 1
8 271 1
8 275 1
8 279 1
9 126 1
9 129 1
9 130 1
9 133 1
9 142 1
9 150 1
9 157 1
9 158 1
9 163 1
9 164 1
9 171 1
9 175 1
9 179 1
9 183 1
9 188 1
9 196 1
9 199 1
9 213 1
9 230 1
9 234 1
9 237 1
9 238 1
9 241 1
9 254 1
9 258 1
9 265 1
9 266 1
9 273 1
9 277 1
10 128 1
10 131 1
10 132 1
10 135 1
10 144 1
10 152 1
10 159 1
10 160 1
10 161 1
10 165 1
10 166 1
10 173 1
10 177 1
10 181 1
10 185 1
10 190 1
10 198 1
10 215 1
10 232 1
10 236 1
10 239 1
10 240 1
10 243 1
10 256 1
10 260 1
10 267 1
10 268 1
10 275 1
10 279 1
11 121 1
11 122 1
11 130 1
11 133 1
11 134 1
11 137 1
11 146 1
11 154 1
11 163 1
11 167 1
11 168 1
11 175 1
11 179 1
11 183 1
11 187 1
11 192 1
11 200 1
11 201 1
11 202 1
11 217 1
11 234 1
11 238 1
11 241 1
11 245 1
11 258 1
11 262 1
11 269 1
11 270 1
11 277 1
12 123 1
12 124 1
12 132 1
12 135 1
12 136 1
12 139 1
12 148 1
12 156 1
12 162 1
12 165 1
12 169 1
12 170 1
12 177 1
12 181 1
12 185 1
12 189 1
12 194 1
12 203 1
12 204 1
12 219 1
12 236 1
12 240 1
12 243 1
12 247 1
12 260 1
12 264 1
12 271 1
12 272 1
12 279 1
13 125 1
13 126 1
13 134 1
13 137 1
13 138 1
13 141 1
13 150 1
13 158 1
13 164 1
13 167 1
13 171 1
13 172 1
13 179 1
13 183 1
13 187 1
13 191 1
13 196 1
13 202 1
13 205 1
13 206 1
13 221 1
13 238 1
13 241 1
13 245 1
13 249 1
13 262 1
13 266 1
13 273 1
13 274 1
14 127 1
14 128 1
14 136 1
14 139 1
14 140 1
14 143 1
14 152 1
14 160 1
14 166 1
14 169 1
14 173 1
14 174 1
14 181 1
14 185 1
14 189 1
14 193 1
14 198 1
14 204 1
14 207 1
14 208 1
14 223 1
14 240 1
14 243 1
14 247 1
14 251 1
14 264 1
14 268 1
14 275 1
14 276 1
15 122 1
15 129 1
15 130 1
15 138 1
15 141 1
15 142 1
15 145 1
15 154 1
15 168 1
15 171 1
15 175 1
15 176 1
15 183 1
15 187 1
15 191 1
15 195 1
15 200 1
15 202 1
15 206 1
15 209 1
15 210 1
15 225 1
15 245 1
15 249 1
15 253 1
15 266 1
15 270 1
15 277 1
15 278 1
16 124 1
16 131 1
16 132 1
16 140 1
16 143 1
16 144 1
16 147 1
16 156 1
16 162 1
16 170 1
16 173 1
16 177 1
16 178 1
16 185 1
16 189 1
16 193 1
16 197 1
16 204 1
16 208 1
16 211 1
16 212 1
16 227 1
16 247 1
16 251 1
16 255 1
16 268 1
16 272 1
16 279 1
16 280 1
17 126 1
17 133 1
17 134 1
17 142 1
17 145 1
17 146 1
17 149 1
17 158 1
17 164 1
17 172 1
17 175 1
17 179 1
17 180 1
17 187 1
17 191 1
17 195 1
17 199 1
17 206 1
17 210 1
17 213 1
17 214 1
17 229 1
17 241 1
17 242 1
17 249 1
17 253 1
17 257 1
17 270 1
17 274 1
18 128 1
18 135 1
18 136 1
18 144 1
18 147 1
18 148 1
18 151 1
18 160 1
18 161 1
18 166 1
18 174 1
18 177 1
18 181 1
18 182 1
18 189 1
18 193 1
18 197 1
18 208 1
18 212 1
18 215 1
18 216 1
18 231 1
18 243 1
18 244 1
18 251 1
18 255 1
18 259 1
18 272 1
18 276 1
19 122 1
19 130 1
19 137 1
19 138 1
19 146 1
19 149 1
19 150 1
19 153 1
19 163 1
19 168 1
19 176 1
19 179 1
19 183 1
19 184 1
19 191 1
19 195 1
19 199 1
19 210 1
19 214 1
19 217 1
19 218 1
19 233 1
19 245 1
19 246 1
19 253 1
19 257 1
19 261 1
19 274 1
19 278 1
20 124 1
20 132 1
20 139 1
20 140 1
20 148 1
20 151 1
20 152 1
20 155 1
20 161 1
20 165 1
20 170 1
20 178 1
20 181 1
20 185 1
20 186 1
20 193 1
20 197 1
20 212 1
20 216 1
20 219 1
20 220 1
20 235 1
20 247 1
20 248 1
20 255 1
20 259 1
20 263 1
20 276 1
20 280 1
21 125 1
21 126 1
21 133 1
21 134 1
21 141 1
21 149 1
21 150 1
21 153 1
21 158 1
21 164 1
21 168 1
21 171 1
21 172 1
21 179 1
21 180 1
21 184 1
21 187 1
21 196 1
21 200 1
21 213 1
21 214 1
21 217 1
21 218 1
21 221 1
21 238 1
21 241 1
21 242 1
21 249 1
21 258 1
21 262 1
21 266 1
21 277 1
21 278 1
22 127 1
22 128 1
22 135 1
22 136 1
22 143 1
22 151 1
22 152 1
22 155 1
22 160 1
22 162 1
22 166 1
22 170 1
22 173 1
22 174 1
22 181 1
22 182 1
22 186 1
22 189 1
22 198 1
22 215 1
22 216 1
22 219 1
22 220 1
22 223 1
22 240 1
22 243 1
22 244 1
22 251 1
22 260 1
22 264 1
22 268 1
22 279 1
22 280 1
23 122 1
23 129 1
23 130 1
23 137 1
23 138 1
23 145 1
23 153 1
23 154 1
23 157 1
23 164 1
23 168 1
23 172 1
23 175 1
23 176 1
23 183 1
23 184 1
23 188 1
23 191 1
23 200 1
23 202 1
23 217 1
23 218 1
23 221 1
23 222 1
23 225 1
23 241 1
23 242 1
23 245 1
23 246 1
23 253 1
23 262 1
23 266 1
23 270 1
24 124 1
24 131 1
24 132 1
24 139 1
24 140 1
24 147 1
24 155 1
24 156 1
24 159 1
24 162 1
24 166 1
24 170 1
24 174 1
24 177 1
24 178 1
24 185 1
24 186 1
24 190 1
24 193 1
24 204 1
24 219 1
24 220 1
24 223 1
24 224 1
24 227 1
24 243 1
24 244 1
24 247 1
24 248 1
24 255 1
24 264 1
24 268 1
24 272 1
25 121 1
25 126 1
25 133 1
25 134 1
25 141 1
25 142 1
25 149 1
25 157 1
25 158 1
25 164 1
25 168 1
25 172 1
25 176 1
25 179 1
25 180 1
25 187 1
25 188 1
25 192 1
25 195 1
25 206 1
25 221 1
25 222 1
25 225 1
25 226 1
25 229 1
25 245 1
25 246 1
25 249 1
25 250 1
25 257 1
25 266 1
25 270 1
25 274 1
26 123 1
26 128 1
26 135 1
26 136 1
26 143 1
26 144 1
26 151 1
26 159 1
26 160 1
26 166 1
26 170 1
26 174 1
26 178 1
26 181 1
26 182 1
26 189 1
26 190 1
26 194 1
26 197 1
26 208 1
26 223 1
26 224 1
26 227 1
26 228 1
26 231 1
26 247 1
26 248 1
26 251 1
26 252 1
26 259 1
26 268 1
26 272 1
26 276 1
27 121 1
27 122 1
27 125 1
27 130 1
27 137 1
27 138 1
27 145 1
27 146 1
27 153 1
27 168 1
27 172 1
27 176 1
27 180 1
27 183 1
27 184 1
27 191 1
27 192 1
27 196 1
27 199 1
27 210 1
27 225 1
27 226 1
27 229 1
27 230 1
27 233 1
27 249 1
27 250 1
27 253 1
27 254 1
27 261 1
27 270 1
27 274 1
27 278 1
28 123 1
28 124 1
28 127 1
28 132 1
28 139 1
28 140 1
28 147 1
28 148 1
28 155 1
28 161 1
28 170 1
28 174 1
28 178 1
28 182 1
28 185 1
28 186 1
28 193 1
28 194 1
28 198 1
28 212 1
28 227 1
28 228 1
28 231 1
28 232 1
28 235 1
28 251 1
28 252 1
28 255 1
28 256 1
28 263 1
28 272 1
28 276 1
28 280 1
29 125 1
29 126 1
29 129 1
29 134 1
29 141 1
29 142 1
29 149 1
29 150 1
29 157 1
29 163 1
29 172 1
29 176 1
29 180 1
29 184 1
29 187 1
29 188 1
29 195 1
29 196 1
29 200 1
29 214 1
29 229 1
29 230 1
29 233 1
29 234 1
29 237 1
29 242 1
29 253 1
29 254 1
29 257 1
29 258 1
29 265 1
29 274 1
29 278 1
30 127 1
30 128 1
30 131 1
30 136 1
30 143 1
30 144 1
30 151 1
30 152 1
30 159 1
30 162 1
30 165 1
30 174 1
30 178 1
30 182 1
30 186 1
30 189 1
30 190 1
30 197 1
30 198 1
30 216 1
30 231 1
30 232 1
30 235 1
30 236 1
30 239 1
30 244 1
30 255 1
30 256 1
30 259 1
30 260 1
30 267 1
30 276 1
30 280 1
31 121 1
31 129 1
31 130 1
31 133 1
31 138 1
31 145 1
31 146 1
31 153 1
31 154 1
31 164 1
31 167 1
31 176 1
31 180 1
31 184 1
31 188 1
31 191 1
31 192 1
31 199 1
31 200 1
31 201 1
31 218 1
31 233 1
31 234 1
31 237 1
31 238 1
31 242 1
31 246 1
31 257 1
31 258 1
31 261 1
31 262 1
31 269 1
31 278 1
32 123 1
32 131 1
32 132 1
32 135 1
32 140 1
32 147 1
32 148 1
32 155 1
32 156 1
32 161 1
32 162 1
32 166 1
32 169 1
32 178 1
32 182 1
32 186 1
32 190 1
32 193 1
32 194 1
32 203 1
32 220 1
32 235 1
32 236 1
32 239 1
32 240 1
32 244 1
32 248 1
32 259 1
32 260 1
32 263 1
32 264 1
32 271 1
32 280 1
33 125 1
33 133 1
33 134 1
33 137 1
33 142 1
33 149 1
33 150 1
33 157 1
33 158 1
33 163 1
33 164 1
33 168 1
33 171 1
33 180 1
33 184 1
33 188 1
33 192 1
33 195 1
33 196 1
33 201 1
33 202 1
33 205 1
33 222 1
33 237 1
33 238 1
33 242 1
33 246 1
33 250 1
33 261 1
33 262 1
33 265 1
33 266 1
33 273 1
34 127 1
34 135 1
34 136 1
34 139 1
34 144 1
34 151 1
34 152 1
34 159 1
34 160 1
34 165 1
34 166 1
34 170 1
34 173 1
34 182 1
34 186 1
34 190 1
34 194 1
34 197 1
34 198 1
34 203 1
34 204 1
34 207 1
34 224 1
34 239 1
34 240 1
34 244 1
34 248 1
34 252 1
34 263 1
34 264 1
34 267 1
34 268 1
34 275 1
35 121 1
35 122 1
35 129 1
35 137 1
35 138 1
35 141 1
35 146 1
35 153 1
35 154 1
35 167 1
35 168 1
35 172 1
35 175 1
35 184 1
35 188 1
35 192 1
35 196 1
35 199 1
35 200 1
35 201 1
35 202 1
35 205 1
35 206 1
35 209 1
35 226 1
35 246 1
35 250 1
35 254 1
35 265 1
35 266 1
35 269 1
35 270 1
35 277 1
36 123 1
36 124 1
36 131 1
36 139 1
36 140 1
36 143 1
36 148 1
36 155 1
36 156 1
36 161 1
36 162 1
36 169 1
36 170 1
36 174 1
36 177 1
36 186 1
36 190 1
36 194 1
36 198 1
36 203 1
36 204 1
36 207 1
36 208 1
36 211 1
36 228 1
36 248 1
36 252 1
36 256 1
36 267 1
36 268 1
36 271 1
36 272 1
36 279 1
37 125 1
37 126 1
37 133 1
37 141 1
37 142 1
37 145 1
37 150 1
37 157 1
37 158 1
37 163 1
37 164 1
37 171 1
37 172 1
37 176 1
37 179 1
37 188 1
37 192 1
37 196 1
37 200 1
37 205 1
37 206 1
37 209 1
37 210 1
37 213 1
37 230 1
37 241 1
37 250 1
37 254 1
37 258 1
37 269 1
37 270 1
37 273 1
37 274 1
38 127 1
38 128 1
38 135 1
38 143 1
38 144 1
38 147 1
38 152 1
38 159 1
38 160 1
38 162 1
38 165 1
38 166 1
38 173 1
38 174 1
38 178 1
38 181 1
38 190 1
38 194 1
38 198 1
38 207 1
38 208 1
38 211 1
38 212 1
38 215 1
38 232 1
38 243 1
38 252 1
38 256 1
38 260 1
38 271 1
38 272 1
38 275 1
38 276 1
39 121 1
39 122 1
39 129 1
39 130 1
39 137 1
39 145 1
39 146 1
39 149 1
39 154 1
39 164 1
39 167 1
39 168 1
39 175 1
39 176 1
39 180 1
39 183 1
39 192 1
39 196 1
39 200 1
39 209 1
39 210 1
39 213 1
39 214 1
39 217 1
39 234 1
39 245 1
39 254 1
39 258 1
39 262 1
39 273 1
39 274 1
39 277 1
39 278 1
40 123 1
40 124 1
40 131 1
40 132 1
40 139 1
40 147 1
40 148 1
40 151 1
40 156 1
40 162 1
40 166 1
40 169 1
40 170 1
40 177 1
40 178 1
40 182 1
40 185 1
40 194 1
40 198 1
40 211 1
40 212 1
40 215 1
40 216 1
40 219 1
40 236 1
40 247 1
40 256 1
40 260 1
40 264 1
40 275 1
40 276 1
40 279 1
40 280 1
41 161 1
41 162 1
41 164 1
41 171 1
41 175 1
41 176 1
41 183 1
41 184 1
41 185 1
41 205 1
41 206 1
41 221 1
41 222 1
41 225 1
41 236 1
41 237 1
41 239 1
41 240 1
41 241 1
41 242 1
41 245 1
41 250 1
41 267 1
41 268 1
41 273 1
41 274 1
41 279 1
41 285 1
41 289 1
41 290 1
41 301 1
41 305 1
42 163 1
42 164 1
42 166 1
42 173 1
42 177 1
42 178 1
42 185 1
42 186 1
42 187 1
42 201 1
42 202 1
42 207 1
42 208 1
42 223 1
42 224 1
42 227 1
42 238 1
42 239 1
42 241 1
42 243 1
42 244 1
42 247 1
42 252 1
42 269 1
42 270 1
42 275 1
42 276 1
42 287 1
42 291 1
42 292 1
42 303 1
42 307 1
43 165 1
43 166 1
43 168 1
43 175 1
43 179 1
43 180 1
43 187 1
43 188 1
43 189 1
43 201 1
43 203 1
43 204 1
43 209 1
43 210 1
43 225 1
43 226 1
43 229 1
43 240 1
43 243 1
43 245 1
43 246 1
43 249 1
43 254 1
43 271 1
43 272 1
43 277 1
43 278 1
43 289 1
43 293 1
43 294 1
43 305 1
43 309 1
44 167 1
44 168 1
44 170 1
44 177 1
44 181 1
44 182 1
44 189 1
44 190 1
44 191 1
44 202 1
44 203 1
44 205 1
44 206 1
44 211 1
44 212 1
44 227 1
44 228 1
44 231 1
44 245 1
44 247 1
44 248 1
44 251 1
44 256 1
44 273 1
44 274 1
44 279 1
44 280 1
44 291 1
44 295 1
44 296 1
44 307 1
44 311 1
45 169 1
45 170 1
45 172 1
45 179 1
45 183 1
45 184 1
45 191 1
45 192 1
45 193 1
45 204 1
45 205 1
45 207 1
45 208 1
45 213 1
45 214 1
45 229 1
45 230 1
45 233 1
45 241 1
45 242 1
45 247 1
45 249 1
45 250 1
45 253 1
45 258 1
45 275 1
45 276 1
45 293 1
45 297 1
45 298 1
45 309 1
45 313 1
46 171 1
46 172 1
46 174 1
46 181 1
46 185 1
46 186 1
46 193 1
46 194 1
46 195 1
46 206 1
46 207 1
46 209 1
46 210 1
46 215 1
46 216 1
46 231 1
46 232 1
46 235 1
46 243 1
46 244 1
46 249 1
46 251 1
46 252 1
46 255 1
46 260 1
46 277 1
46 278 1
46 295 1
46 299 1
46 300 1
46 311 1
46 315 1
47 173 1
47 174 1
47 176 1
47 183 1
47 187 1
47 188 1
47 195 1
47 196 1
47 197 1
47 208 1
47 209 1
47 211 1
47 212 1
47 217 1
47 218 1
47 233 1
47 234 1
47 237 1
47 245 1
47 246 1
47 251 1
47 253 1
47 254 1
47 257 1
47 262 1
47 279 1
47 280 1
47 297 1
47 301 1
47 302 1
47 313 1
47 317 1
48 175 1
48 176 1
48 178 1
48 185 1
48 189 1
48 190 1
48 197 1
48 198 1
48 199 1
48 210 1
48 211 1
48 213 1
48 214 1
48 219 1
48 220 1
48 235 1
48 236 1
48 239 1
48 241 1
48 242 1
48 247 1
48 248 1
48 253 1
48 255 1
48 256 1
48 259 1
48 264 1
48 299 1
48 303 1
48 304 1
48 315 1
48 319 1
49 161 1
49 177 1
49 178 1
49 180 1
49 187 1
49 191 1
49 192 1
49 199 1
49 200 1
49 201 1
49 212 1
49 213 1
49 215 1
49 216 1
49 221 1
49 222 1
49 237 1
49 238 1
49 243 1
49 244 1
49 249 1
49 250 1
49 255 1
49 257 1
49 258 1
49 261 1
49 266 1
49 281 1
49 301 1
49 305 1
49 306 1
49 317 1
50 161 1
50 162 1
50 163 1
50 179 1
50 180 1
50 182 1
50 189 1
50 193 1
50 194 1
50 203 1
50 214 1
50 215 1
50 217 1
50 218 1
50 223 1
50 224 1
50 239 1
50 240 1
50 245 1
50 246 1
50 251 1
50 252 1
50 257 1
50 259 1
50 260 1
50 263 1
50 268 1
50 283 1
50 303 1
50 307 1
50 308 1
50 319 1
51 163 1
51 164 1
51 165 1
51 181 1
51 182 1
51 184 1
51 191 1
51 195 1
51 196 1
51 201 1
51 202 1
51 205 1
51 216 1
51 217 1
51 219 1
51 220 1
51 225 1
51 226 1
51 247 1
51 248 1
51 253 1
51 254 1
51 259 1
51 261 1
51 262 1
51 265 1
51 270 1
51 281 1
51 285 1
51 305 1
51 309 1
51 310 1
52 165 1
52 166 1
52 167 1
52 183 1
52 184 1
52 186 1
52 193 1
52 197 1
52 198 1
52 203 1
52 204 1
52 207 1
52 218 1
52 219 1
52 221 1
52 222 1
52 227 1
52 228 1
52 249 1
52 250 1
52 255 1
52 256 1
52 261 1
52 263 1
52 264 1
52 267 1
52 272 1
52 283 1
52 287 1
52 307 1
52 311 1
52 312 1
53 167 1
53 168 1
53 169 1
53 185 1
53 186 1
53 188 1
53 195 1
53 199 1
53 200 1
53 205 1
53 206 1
53 209 1
53 220 1
53 221 1
53 223 1
53 224 1
53 229 1
53 230 1
53 251 1
53 252 1
53 257 1
53 258 1
53 263 1
53 265 1
53 266 1
53 269 1
53 274 1
53 285 1
53 289 1
53 309 1
53 313 1
53 314 1
54 161 1
54 162 1
54 169 1
54 170 1
54 171 1
54 187 1
54 188 1
54 190 1
54 197 1
54 207 1
54 208 1
54 211 1
54 222 1
54 223 1
54 225 1
54 226 1
54 231 1
54 232 1
54 253 1
54 254 1
54 259 1
54 260 1
54 265 1
54 267 1
54 268 1
54 271 1
54 276 1
54 287 1
54 291 1
54 311 1
54 315 1
54 316 1
55 163 1
55 164 1
55 171 1
55 172 1
55 173 1
55 189 1
55 190 1
55 192 1
55 199 1
55 209 1
55 210 1
55 213 1
55 224 1
55 225 1
55 227 1
55 228 1
55 233 1
55 234 1
55 255 1
55 256 1
55 261 1
55 262 1
55 267 1
55 269 1
55 270 1
55 273 1
55 278 1
55 289 1
55 293 1
55 313 1
55 317 1
55 318 1
56 161 1
56 165 1
56 166 1
56 173 1
56 174 1
56 175 1
56 191 1
56 192 1
56 194 1
56 211 1
56 212 1
56 215 1
56 226 1
56 227 1
56 229 1
56 230 1
56 235 1
56 236 1
56 257 1
56 258 1
56 263 1
56 264 1
56 269 1
56 271 1
56 272 1
56 275 1
56 280 1
56 291 1
56 295 1
56 315 1
56 319 1
56 320 1
57 163 1
57 167 1
57 168 1
57 175 1
57 176 1
57 177 1
57 193 1
57 194 1
57 196 1
57 213 1
57 214 1
57 217 1
57 228 1
57 229 1
57 231 1
57 232 1
57 237 1
57 238 1
57 242 1
57 259 1
57 260 1
57 265 1
57 266 1
57 271 1
57 273 1
57 274 1
57 277 1
57 281 1
57 282 1
57 293 1
57 297 1
57 317 1
58 165 1
58 169 1
58 170 1
58 177 1
58 178 1
58 179 1
58 195 1
58 196 1
58 198 1
58 215 1
58 216 1
58 219 1
58 230 1
58 231 1
58 233 1
58 234 1
58 239 1
58 240 1
58 244 1
58 261 1
58 262 1
58 267 1
58 268 1
58 273 1
58 275 1
58 276 1
58 279 1
58 283 1
58 284 1
58 295 1
58 299 1
58 319 1
59 167 1
59 171 1
59 172 1
59 179 1
59 180 1
59 181 1
59 197 1
59 198 1
59 200 1
59 201 1
59 202 1
59 217 1
59 218 1
59 221 1
59 232 1
59 233 1
59 235 1
59 236 1
59 241 1
59 246 1
59 263 1
59 264 1
59 269 1
59 270 1
59 275 1
59 277 1
59 278 1
59 281 1
59 285 1
59 286 1
59 297 1
59 301 1
60 162 1
60 169 1
60 173 1
60 174 1
60 181 1
60 182 1
60 183 1
60 199 1
60 200 1
60 203 1
60 204 1
60 219 1
60 220 1
60 223 1
60 234 1
60 235 1
60 237 1
60 238 1
60 243 1
60 248 1
60 265 1
60 266 1
60 271 1
60 272 1
60 277 1
60 279 1
60 280 1
60 283 1
60 287 1
60 288 1
60 299 1
60 303 1
61 161 1
61 163 1
61 164 1
61 172 1
61 175 1
61 183 1
61 186 1
61 205 1
61 221 1
61 226 1
61 235 1
61 236 1
61 238 1
61 239 1
61 241 1
61 246 1
61 249 1
61 250 1
61 267 1
61 273 1
61 280 1
61 286 1
61 289 1
61 302 1
61 306 1
62 163 1
62 165 1
62 166 1
62 174 1
62 177 1
62 185 1
62 188 1
62 201 1
62 207 1
62 223 1
62 228 1
62 237 1
62 238 1
62 240 1
62 242 1
62 243 1
62 248 1
62 251 1
62 252 1
62 269 1
62 275 1
62 288 1
62 291 1
62 304 1
62 308 1
63 165 1
63 167 1
63 168 1
63 176 1
63 179 1
63 187 1
63 190 1
63 202 1
63 203 1
63 209 1
63 225 1
63 230 1
63 239 1
63 240 1
63 244 1
63 245 1
63 250 1
63 253 1
63 254 1
63 271 1
63 277 1
63 290 1
63 293 1
63 306 1
63 310 1
64 167 1
64 169 1
64 170 1
64 178 1
64 181 1
64 189 1
64 192 1
64 201 1
64 202 1
64 204 1
64 205 1
64 211 1
64 227 1
64 232 1
64 246 1
64 247 1
64 252 1
64 255 1
64 256 1
64 273 1
64 279 1
64 292 1
64 295 1
64 308 1
64 312 1
65 169 1
65 171 1
65 172 1
65 180 1
65 183 1
65 191 1
65 194 1
65 203 1
65 204 1
65 206 1
65 207 1
65 213 1
65 229 1
65 234 1
65 241 1
65 248 1
65 249 1
65 254 1
65 257 1
65 258 1
65 275 1
65 294 1
65 297 1
65 310 1
65 314 1
66 171 1
66 173 1
66 174 1
66 182 1
66 185 1
66 193 1
66 196 1
66 205 1
66 206 1
66 208 1
66 209 1
66 215 1
66 231 1
66 236 1
66 243 1
66 250 1
66 251 1
66 256 1
66 259 1
66 260 1
66 277 1
66 296 1
66 299 1
66 312 1
66 316 1
67 173 1
67 175 1
67 176 1
67 184 1
67 187 1
67 195 1
67 198 1
67 207 1
67 208 1
67 210 1
67 211 1
67 217 1
67 233 1
67 238 1
67 245 1
67 252 1
67 253 1
67 258 1
67 261 1
67 262 1
67 279 1
67 298 1
67 301 1
67 314 1
67 318 1
68 175 1
68 177 1
68 178 1
68 186 1
68 189 1
68 197 1
68 200 1
68 209 1
68 210 1
68 212 1
68 213 1
68 219 1
68 235 1
68 240 1
68 241 1
68 247 1
68 254 1
68 255 1
68 260 1
68 263 1
68 264 1
68 300 1
68 303 1
68 316 1
68 320 1
69 162 1
69 177 1
69 179 1
69 180 1
69 188 1
69 191 1
69 199 1
69 202 1
69 211 1
69 212 1
69 214 1
69 215 1
69 221 1
69 237 1
69 243 1
69 249 1
69 256 1
69 257 1
69 262 1
69 265 1
69 266 1
69 282 1
69 302 1
69 305 1
69 318 1
70 161 1
70 164 1
70 179 1
70 181 1
70 182 1
70 190 1
70 193 1
70 204 1
70 213 1
70 214 1
70 216 1
70 217 1
70 223 1
70 239 1
70 245 1
70 251 1
70 258 1
70 259 1
70 264 1
70 267 1
70 268 1
70 284 1
70 304 1
70 307 1
70 320 1
71 163 1
71 166 1
71 181 1
71 183 1
71 184 1
71 192 1
71 195 1
71 201 1
71 206 1
71 215 1
71 216 1
71 218 1
71 219 1
71 225 1
71 247 1
71 253 1
71 260 1
71 261 1
71 266 1
71 269 1
71 270 1
71 282 1
71 286 1
71 306 1
71 309 1
72 165 1
72 168 1
72 183 1
72 185 1
72 186 1
72 194 1
72 197 1
72 203 1
72 208 1
72 217 1
72 218 1
72 220 1
72 221 1
72 227 1
72 249 1
72 255 1
72 262 1
72 263 1
72 268 1
72 271 1
72 272 1
72 284 1
72 288 1
72 308 1
72 311 1
73 167 1
73 170 1
73 185 1
73 187 1
73 188 1
73 196 1
73 199 1
73 205 1
73 210 1
73 219 1
73 220 1
73 222 1
73 223 1
73 229 1
73 251 1
73 257 1
73 264 1
73 265 1
73 270 1
73 273 1
73 274 1
73 286 1
73 290 1
73 310 1
73 313 1
74 161 1
74 169 1
74 172 1
74 187 1
74 189 1
74 190 1
74 198 1
74 207 1
74 212 1
74 221 1
74 222 1
74 224 1
74 225 1
74 231 1
74 253 1
74 259 1
74 266 1
74 267 1
74 272 1
74 275 1
74 276 1
74 288 1
74 292 1
74 312 1
74 315 1
75 163 1
75 171 1
75 174 1
75 189 1
75 191 1
75 192 1
75 200 1
75 209 1
75 214 1
75 223 1
75 224 1
75 226 1
75 227 1
75 233 1
75 255 1
75 261 1
75 268 1
75 269 1
75 274 1
75 277 1
75 278 1
75 290 1
75 294 1
75 314 1
75 317 1
76 162 1
76 165 1
76 173 1
76 176 1
76 191 1
76 193 1
76 194 1
76 211 1
76 216 1
76 225 1
76 226 1
76 228 1
76 229 1
76 235 1
76 257 1
76 263 1
76 270 1
76 271 1
76 276 1
76 279 1
76 280 1
76 292 1
76 296 1
76 316 1
76 319 1
77 164 1
77 167 1
77 175 1
77 178 1
77 193 1
77 195 1
77 196 1
77 213 1
77 218 1
77 227 1
77 228 1
77 230 1
77 231 1
77 237 1
77 241 1
77 242 1
77 259 1
77 265 1
77 272 1
77 273 1
77 278 1
77 281 1
77 294 1
77 298 1
77 318 1
78 166 1
78 169 1
78 177 1
78 180 1
78 195 1
78 197 1
78 198 1
78 215 1
78 220 1
78 229 1
78 230 1
78 232 1
78 233 1
78 239 1
78 243 1
78 244 1
78 261 1
78 267 1
78 274 1
78 275 1
78 280 1
78 283 1
78 296 1
78 300 1
78 320 1
79 168 1
79 171 1
79 179 1
79 182 1
79 197 1
79 199 1
79 200 1
79 201 1
79 217 1
79 222 1
79 231 1
79 232 1
79 234 1
79 235 1
79 242 1
79 245 1
79 246 1
79 263 1
79 269 1
79 276 1
79 277 1
79 282 1
79 285 1
79 298 1
79 302 1
80 161 1
80 162 1
80 170 1
80 173 1
80 181 1
80 184 1
80 199 1
80 203 1
80 219 1
80 224 1
80 233 1
80 234 1
80 236 1
80 237 1
80 244 1
80 247 1
80 248 1
80 265 1
80 271 1
80 278 1
80 279 1
80 284 1
80 287 1
80 300 1
80 304 1
