%%MatrixMarket matrix coordinate integer general
% GF(4) labels 0,1,2=omega,3=omega+1; arithmetic is NOT integer arithmetic.
% Coordinate indices are 1-based; omitted entries are zero.
40 160 920
1 63 2
1 67 2
1 71 3
1 75 2
1 77 3
1 79 1
1 82 1
1 84 1
1 86 2
1 90 2
1 92 1
1 94 3
1 98 1
1 100 1
1 107 2
1 109 2
1 111 3
1 119 1
1 121 2
1 125 3
1 129 1
1 131 1
1 133 1
1 139 2
2 64 2
2 68 2
2 72 3
2 76 2
2 78 3
2 80 1
2 81 1
2 83 1
2 85 1
2 87 2
2 91 2
2 93 1
2 95 3
2 99 1
2 108 2
2 110 2
2 112 3
2 120 1
2 122 2
2 126 3
2 130 1
2 132 1
2 134 1
2 140 2
3 61 1
3 65 2
3 69 2
3 73 3
3 77 2
3 79 3
3 82 1
3 84 1
3 86 1
3 88 2
3 92 2
3 94 1
3 96 3
3 100 1
3 101 1
3 109 2
3 111 2
3 113 3
3 121 2
3 123 2
3 127 3
3 131 1
3 133 1
3 135 1
4 62 1
4 66 2
4 70 2
4 74 3
4 78 2
4 80 3
4 81 1
4 83 1
4 85 1
4 87 1
4 89 2
4 93 2
4 95 1
4 97 3
4 102 1
4 110 2
4 112 2
4 114 3
4 122 2
4 124 2
4 128 3
4 132 1
4 134 1
4 136 1
5 61 3
5 63 1
5 67 2
5 71 2
5 75 3
5 79 2
5 82 1
5 84 1
5 86 1
5 88 1
5 90 2
5 94 2
5 96 1
5 98 3
5 103 1
5 111 2
5 113 2
5 115 3
5 123 2
5 125 2
5 129 3
5 133 1
5 135 1
5 137 1
6 62 3
6 64 1
6 68 2
6 72 2
6 76 3
6 80 2
6 83 1
6 85 1
6 87 1
6 89 1
6 91 2
6 95 2
6 97 1
6 99 3
6 104 1
6 112 2
6 114 2
6 116 3
6 124 2
6 126 2
6 130 3
6 134 1
6 136 1
6 138 1
7 61 2
7 63 3
7 65 1
7 69 2
7 73 2
7 77 3
7 84 1
7 86 1
7 88 1
7 90 1
7 92 2
7 96 2
7 98 1
7 100 3
7 105 1
7 113 2
7 115 2
7 117 3
7 125 2
7 127 2
7 131 3
7 135 1
7 137 1
7 139 1
8 62 2
8 64 3
8 66 1
8 70 2
8 74 2
8 78 3
8 81 3
8 85 1
8 87 1
8 89 1
8 91 1
8 93 2
8 97 2
8 99 1
8 106 1
8 114 2
8 116 2
8 118 3
8 126 2
8 128 2
8 132 3
8 136 1
8 138 1
8 140 1
9 63 2
9 65 3
9 67 1
9 71 2
9 75 2
9 79 3
9 82 3
9 86 1
9 88 1
9 90 1
9 92 1
9 94 2
9 98 2
9 100 1
9 107 1
9 115 2
9 117 2
9 119 3
9 121 1
9 127 2
9 129 2
9 133 3
9 137 1
9 139 1
10 64 2
10 66 3
10 68 1
10 72 2
10 76 2
10 80 3
10 81 1
10 83 3
10 87 1
10 89 1
10 91 1
10 93 1
10 95 2
10 99 2
10 108 1
10 116 2
10 118 2
10 120 3
10 122 1
10 128 2
10 130 2
10 134 3
10 138 1
10 140 1
11 61 3
11 65 2
11 67 3
11 69 1
11 73 2
11 77 2
11 82 1
11 84 3
11 88 1
11 90 1
11 92 1
11 94 1
11 96 2
11 100 2
11 101 3
11 109 1
11 117 2
11 119 2
11 121 1
11 123 1
11 129 2
11 131 2
11 135 3
11 139 1
12 62 3
12 66 2
12 68 3
12 70 1
12 74 2
12 78 2
12 81 2
12 83 1
12 85 3
12 89 1
12 91 1
12 93 1
12 95 1
12 97 2
12 102 3
12 110 1
12 118 2
12 120 2
12 122 1
12 124 1
12 130 2
12 132 2
12 136 3
12 140 1
13 63 3
13 67 2
13 69 3
13 71 1
13 75 2
13 79 2
13 82 2
13 84 1
13 86 3
13 90 1
13 92 1
13 94 1
13 96 1
13 98 2
13 101 2
13 103 3
13 111 1
13 119 2
13 121 1
13 123 1
13 125 1
13 131 2
13 133 2
13 137 3
14 64 3
14 68 2
14 70 3
14 72 1
14 76 2
14 80 2
14 83 2
14 85 1
14 87 3
14 91 1
14 93 1
14 95 1
14 97 1
14 99 2
14 102 2
14 104 3
14 112 1
14 120 2
14 122 1
14 124 1
14 126 1
14 132 2
14 134 2
14 138 3
15 61 2
15 65 3
15 69 2
15 71 3
15 73 1
15 77 2
15 84 2
15 86 1
15 88 3
15 92 1
15 94 1
15 96 1
15 98 1
15 100 2
15 101 2
15 103 2
15 105 3
15 113 1
15 123 1
15 125 1
15 127 1
15 133 2
15 135 2
15 139 3
16 62 2
16 66 3
16 70 2
16 72 3
16 74 1
16 78 2
16 81 2
16 85 2
16 87 1
16 89 3
16 93 1
16 95 1
16 97 1
16 99 1
16 102 2
16 104 2
16 106 3
16 114 1
16 124 1
16 126 1
16 128 1
16 134 2
16 136 2
16 140 3
17 63 2
17 67 3
17 71 2
17 73 3
17 75 1
17 79 2
17 82 2
17 86 2
17 88 1
17 90 3
17 94 1
17 96 1
17 98 1
17 100 1
17 103 2
17 105 2
17 107 3
17 115 1
17 121 3
17 125 1
17 127 1
17 129 1
17 135 2
17 137 2
18 64 2
18 68 3
18 72 2
18 74 3
18 76 1
18 80 2
18 81 1
18 83 2
18 87 2
18 89 1
18 91 3
18 95 1
18 97 1
18 99 1
18 104 2
18 106 2
18 108 3
18 116 1
18 122 3
18 126 1
18 128 1
18 130 1
18 136 2
18 138 2
19 61 2
19 65 2
19 69 3
19 73 2
19 75 3
19 77 1
19 82 1
19 84 2
19 88 2
19 90 1
19 92 3
19 96 1
19 98 1
19 100 1
19 105 2
19 107 2
19 109 3
19 117 1
19 123 3
19 127 1
19 129 1
19 131 1
19 137 2
19 139 2
20 62 2
20 66 2
20 70 3
20 74 2
20 76 3
20 78 1
20 81 1
20 83 1
20 85 2
20 89 2
20 91 1
20 93 3
20 97 1
20 99 1
20 106 2
20 108 2
20 110 3
20 118 1
20 124 3
20 128 1
20 130 1
20 132 1
20 138 2
20 140 2
21 81 3
21 82 2
21 86 1
21 88 3
21 92 3
21 93 1
21 103 3
21 111 3
21 113 1
21 118 2
21 119 1
21 120 3
21 121 3
21 123 1
21 125 2
21 134 3
21 137 3
21 140 1
21 143 1
21 145 3
21 151 1
21 153 1
22 82 3
22 83 2
22 87 1
22 89 3
22 93 3
22 94 1
22 101 3
22 104 3
22 112 3
22 114 1
22 119 2
22 120 1
22 121 1
22 122 3
22 124 1
22 126 2
22 135 3
22 138 3
22 144 1
22 146 3
22 152 1
22 154 1
23 83 3
23 84 2
23 88 1
23 90 3
23 94 3
23 95 1
23 101 1
23 102 3
23 105 3
23 113 3
23 115 1
23 120 2
23 122 1
23 123 3
23 125 1
23 127 2
23 136 3
23 139 3
23 145 1
23 147 3
23 153 1
23 155 1
24 84 3
24 85 2
24 89 1
24 91 3
24 95 3
24 96 1
24 101 2
24 102 1
24 103 3
24 106 3
24 114 3
24 116 1
24 123 1
24 124 3
24 126 1
24 128 2
24 137 3
24 140 3
24 146 1
24 148 3
24 154 1
24 156 1
25 85 3
25 86 2
25 90 1
25 92 3
25 96 3
25 97 1
25 102 2
25 103 1
25 104 3
25 107 3
25 115 3
25 117 1
25 121 3
25 124 1
25 125 3
25 127 1
25 129 2
25 138 3
25 147 1
25 149 3
25 155 1
25 157 1
26 86 3
26 87 2
26 91 1
26 93 3
26 97 3
26 98 1
26 103 2
26 104 1
26 105 3
26 108 3
26 116 3
26 118 1
26 122 3
26 125 1
26 126 3
26 128 1
26 130 2
26 139 3
26 148 1
26 150 3
26 156 1
26 158 1
27 87 3
27 88 2
27 92 1
27 94 3
27 98 3
27 99 1
27 104 2
27 105 1
27 106 3
27 109 3
27 117 3
27 119 1
27 123 3
27 126 1
27 127 3
27 129 1
27 131 2
27 140 3
27 149 1
27 151 3
27 157 1
27 159 1
28 88 3
28 89 2
28 93 1
28 95 3
28 99 3
28 100 1
28 105 2
28 106 1
28 107 3
28 110 3
28 118 3
28 120 1
28 121 3
28 124 3
28 127 1
28 128 3
28 130 1
28 132 2
28 150 1
28 152 3
28 158 1
28 160 1
29 81 1
29 89 3
29 90 2
29 94 1
29 96 3
29 100 3
29 101 1
29 106 2
29 107 1
29 108 3
29 111 3
29 119 3
29 122 3
29 125 3
29 128 1
29 129 3
29 131 1
29 133 2
29 141 1
29 151 1
29 153 3
29 159 1
30 81 3
30 82 1
30 90 3
30 91 2
30 95 1
30 97 3
30 102 1
30 107 2
30 108 1
30 109 3
30 112 3
30 120 3
30 123 3
30 126 3
30 129 1
30 130 3
30 132 1
30 134 2
30 142 1
30 152 1
30 154 3
30 160 1
31 82 3
31 83 1
31 91 3
31 92 2
31 96 1
31 98 3
31 101 3
31 103 1
31 108 2
31 109 1
31 110 3
31 113 3
31 124 3
31 127 3
31 130 1
31 131 3
31 133 1
31 135 2
31 141 1
31 143 1
31 153 1
31 155 3
32 83 3
32 84 1
32 92 3
32 93 2
32 97 1
32 99 3
32 102 3
32 104 1
32 109 2
32 110 1
32 111 3
32 114 3
32 125 3
32 128 3
32 131 1
32 132 3
32 134 1
32 136 2
32 142 1
32 144 1
32 154 1
32 156 3
33 84 3
33 85 1
33 93 3
33 94 2
33 98 1
33 100 3
33 103 3
33 105 1
33 110 2
33 111 1
33 112 3
33 115 3
33 126 3
33 129 3
33 132 1
33 133 3
33 135 1
33 137 2
33 143 1
33 145 1
33 155 1
33 157 3
34 81 3
34 85 3
34 86 1
34 94 3
34 95 2
34 99 1
34 104 3
34 106 1
34 111 2
34 112 1
34 113 3
34 116 3
34 127 3
34 130 3
34 133 1
34 134 3
34 136 1
34 138 2
34 144 1
34 146 1
34 156 1
34 158 3
35 82 3
35 86 3
35 87 1
35 95 3
35 96 2
35 100 1
35 105 3
35 107 1
35 112 2
35 113 1
35 114 3
35 117 3
35 128 3
35 131 3
35 134 1
35 135 3
35 137 1
35 139 2
35 145 1
35 147 1
35 157 1
35 159 3
36 81 1
36 83 3
36 87 3
36 88 1
36 96 3
36 97 2
36 106 3
36 108 1
36 113 2
36 114 1
36 115 3
36 118 3
36 129 3
36 132 3
36 135 1
36 136 3
36 138 1
36 140 2
36 146 1
36 148 1
36 158 1
36 160 3
37 82 1
37 84 3
37 88 3
37 89 1
37 97 3
37 98 2
37 107 3
37 109 1
37 114 2
37 115 1
37 116 3
37 119 3
37 121 2
37 130 3
37 133 3
37 136 1
37 137 3
37 139 1
37 141 3
37 147 1
37 149 1
37 159 1
38 83 1
38 85 3
38 89 3
38 90 1
38 98 3
38 99 2
38 108 3
38 110 1
38 115 2
38 116 1
38 117 3
38 120 3
38 122 2
38 131 3
38 134 3
38 137 1
38 138 3
38 140 1
38 142 3
38 148 1
38 150 1
38 160 1
39 84 1
39 86 3
39 90 3
39 91 1
39 99 3
39 100 2
39 101 3
39 109 3
39 111 1
39 116 2
39 117 1
39 118 3
39 121 1
39 123 2
39 132 3
39 135 3
39 138 1
39 139 3
39 141 1
39 143 3
39 149 1
39 151 1
40 81 2
40 85 1
40 87 3
40 91 3
40 92 1
40 100 3
40 102 3
40 110 3
40 112 1
40 117 2
40 118 1
40 119 3
40 122 1
40 124 2
40 133 3
40 136 3
40 139 1
40 140 3
40 142 1
40 144 3
40 150 1
40 152 1
