%%MatrixMarket matrix coordinate integer general
% Binary matrix over GF(2).
% Coordinate indices are 1-based; omitted entries are zero.
80 320 2380
1 1 1
1 2 1
1 7 1
1 8 1
1 26 1
1 29 1
1 33 1
1 34 1
1 35 1
1 47 1
1 49 1
1 50 1
1 57 1
1 58 1
1 61 1
1 70 1
1 71 1
1 72 1
1 85 1
1 89 1
1 90 1
1 105 1
1 106 1
1 111 1
1 112 1
1 113 1
1 116 1
1 121 1
1 125 1
1 137 1
1 138 1
1 141 1
2 3 1
2 4 1
2 9 1
2 10 1
2 28 1
2 31 1
2 35 1
2 36 1
2 37 1
2 49 1
2 51 1
2 52 1
2 59 1
2 60 1
2 63 1
2 72 1
2 73 1
2 74 1
2 87 1
2 91 1
2 92 1
2 107 1
2 108 1
2 113 1
2 114 1
2 115 1
2 118 1
2 123 1
2 127 1
2 139 1
2 140 1
2 143 1
3 5 1
3 6 1
3 11 1
3 12 1
3 30 1
3 33 1
3 37 1
3 38 1
3 39 1
3 51 1
3 53 1
3 54 1
3 61 1
3 62 1
3 65 1
3 74 1
3 75 1
3 76 1
3 89 1
3 93 1
3 94 1
3 109 1
3 110 1
3 115 1
3 116 1
3 117 1
3 120 1
3 125 1
3 129 1
3 141 1
3 142 1
3 145 1
4 1 1
4 7 1
4 8 1
4 13 1
4 14 1
4 32 1
4 35 1
4 39 1
4 40 1
4 53 1
4 55 1
4 56 1
4 63 1
4 64 1
4 67 1
4 76 1
4 77 1
4 78 1
4 82 1
4 91 1
4 95 1
4 96 1
4 111 1
4 112 1
4 117 1
4 118 1
4 119 1
4 127 1
4 131 1
4 143 1
4 144 1
4 147 1
5 1 1
5 2 1
5 3 1
5 9 1
5 10 1
5 15 1
5 16 1
5 34 1
5 37 1
5 55 1
5 57 1
5 58 1
5 65 1
5 66 1
5 69 1
5 78 1
5 79 1
5 80 1
5 81 1
5 84 1
5 93 1
5 97 1
5 98 1
5 113 1
5 114 1
5 119 1
5 120 1
5 129 1
5 133 1
5 145 1
5 146 1
5 149 1
6 3 1
6 4 1
6 5 1
6 11 1
6 12 1
6 17 1
6 18 1
6 36 1
6 39 1
6 41 1
6 42 1
6 57 1
6 59 1
6 60 1
6 67 1
6 68 1
6 71 1
6 80 1
6 81 1
6 82 1
6 83 1
6 86 1
6 95 1
6 99 1
6 100 1
6 115 1
6 116 1
6 131 1
6 135 1
6 147 1
6 148 1
6 151 1
7 1 1
7 5 1
7 6 1
7 7 1
7 13 1
7 14 1
7 19 1
7 20 1
7 38 1
7 42 1
7 43 1
7 44 1
7 59 1
7 61 1
7 62 1
7 69 1
7 70 1
7 73 1
7 83 1
7 84 1
7 85 1
7 88 1
7 97 1
7 101 1
7 102 1
7 117 1
7 118 1
7 133 1
7 137 1
7 149 1
7 150 1
7 153 1
8 3 1
8 7 1
8 8 1
8 9 1
8 15 1
8 16 1
8 21 1
8 22 1
8 40 1
8 44 1
8 45 1
8 46 1
8 61 1
8 63 1
8 64 1
8 71 1
8 72 1
8 75 1
8 85 1
8 86 1
8 87 1
8 90 1
8 99 1
8 103 1
8 104 1
8 119 1
8 120 1
8 135 1
8 139 1
8 151 1
8 152 1
8 155 1
9 2 1
9 5 1
9 9 1
9 10 1
9 11 1
9 17 1
9 18 1
9 23 1
9 24 1
9 46 1
9 47 1
9 48 1
9 63 1
9 65 1
9 66 1
9 73 1
9 74 1
9 77 1
9 81 1
9 82 1
9 87 1
9 88 1
9 89 1
9 92 1
9 101 1
9 105 1
9 106 1
9 137 1
9 141 1
9 153 1
9 154 1
9 157 1
10 4 1
10 7 1
10 11 1
10 12 1
10 13 1
10 19 1
10 20 1
10 25 1
10 26 1
10 48 1
10 49 1
10 50 1
10 65 1
10 67 1
10 68 1
10 75 1
10 76 1
10 79 1
10 83 1
10 84 1
10 89 1
10 90 1
10 91 1
10 94 1
10 103 1
10 107 1
10 108 1
10 139 1
10 143 1
10 155 1
10 156 1
10 159 1
11 6 1
11 9 1
11 13 1
11 14 1
11 15 1
11 21 1
11 22 1
11 27 1
11 28 1
11 41 1
11 50 1
11 51 1
11 52 1
11 67 1
11 69 1
11 70 1
11 77 1
11 78 1
11 85 1
11 86 1
11 91 1
11 92 1
11 93 1
11 96 1
11 105 1
11 109 1
11 110 1
11 121 1
11 141 1
11 145 1
11 157 1
11 158 1
12 8 1
12 11 1
12 15 1
12 16 1
12 17 1
12 23 1
12 24 1
12 29 1
12 30 1
12 43 1
12 52 1
12 53 1
12 54 1
12 69 1
12 71 1
12 72 1
12 79 1
12 80 1
12 87 1
12 88 1
12 93 1
12 94 1
12 95 1
12 98 1
12 107 1
12 111 1
12 112 1
12 123 1
12 143 1
12 147 1
12 159 1
12 160 1
13 10 1
13 13 1
13 17 1
13 18 1
13 19 1
13 25 1
13 26 1
13 31 1
13 32 1
13 41 1
13 42 1
13 45 1
13 54 1
13 55 1
13 56 1
13 71 1
13 73 1
13 74 1
13 89 1
13 90 1
13 95 1
13 96 1
13 97 1
13 100 1
13 109 1
13 113 1
13 114 1
13 121 1
13 122 1
13 125 1
13 145 1
13 149 1
14 12 1
14 15 1
14 19 1
14 20 1
14 21 1
14 27 1
14 28 1
14 33 1
14 34 1
14 43 1
14 44 1
14 47 1
14 56 1
14 57 1
14 58 1
14 73 1
14 75 1
14 76 1
14 91 1
14 92 1
14 97 1
14 98 1
14 99 1
14 102 1
14 111 1
14 115 1
14 116 1
14 123 1
14 124 1
14 127 1
14 147 1
14 151 1
15 14 1
15 17 1
15 21 1
15 22 1
15 23 1
15 29 1
15 30 1
15 35 1
15 36 1
15 45 1
15 46 1
15 49 1
15 58 1
15 59 1
15 60 1
15 75 1
15 77 1
15 78 1
15 93 1
15 94 1
15 99 1
15 100 1
15 101 1
15 104 1
15 113 1
15 117 1
15 118 1
15 125 1
15 126 1
15 129 1
15 149 1
15 153 1
16 16 1
16 19 1
16 23 1
16 24 1
16 25 1
16 31 1
16 32 1
16 37 1
16 38 1
16 47 1
16 48 1
16 51 1
16 60 1
16 61 1
16 62 1
16 77 1
16 79 1
16 80 1
16 95 1
16 96 1
16 101 1
16 102 1
16 103 1
16 106 1
16 115 1
16 119 1
16 120 1
16 127 1
16 128 1
16 131 1
16 151 1
16 155 1
17 18 1
17 21 1
17 25 1
17 26 1
17 27 1
17 33 1
17 34 1
17 39 1
17 40 1
17 41 1
17 42 1
17 49 1
17 50 1
17 53 1
17 62 1
17 63 1
17 64 1
17 79 1
17 81 1
17 82 1
17 97 1
17 98 1
17 103 1
17 104 1
17 105 1
17 108 1
17 117 1
17 129 1
17 130 1
17 133 1
17 153 1
17 157 1
18 1 1
18 2 1
18 20 1
18 23 1
18 27 1
18 28 1
18 29 1
18 35 1
18 36 1
18 41 1
18 43 1
18 44 1
18 51 1
18 52 1
18 55 1
18 64 1
18 65 1
18 66 1
18 83 1
18 84 1
18 99 1
18 100 1
18 105 1
18 106 1
18 107 1
18 110 1
18 119 1
18 131 1
18 132 1
18 135 1
18 155 1
18 159 1
19 3 1
19 4 1
19 22 1
19 25 1
19 29 1
19 30 1
19 31 1
19 37 1
19 38 1
19 43 1
19 45 1
19 46 1
19 53 1
19 54 1
19 57 1
19 66 1
19 67 1
19 68 1
19 81 1
19 85 1
19 86 1
19 101 1
19 102 1
19 107 1
19 108 1
19 109 1
19 112 1
19 121 1
19 133 1
19 134 1
19 137 1
19 157 1
20 5 1
20 6 1
20 24 1
20 27 1
20 31 1
20 32 1
20 33 1
20 39 1
20 40 1
20 45 1
20 47 1
20 48 1
20 55 1
20 56 1
20 59 1
20 68 1
20 69 1
20 70 1
20 83 1
20 87 1
20 88 1
20 103 1
20 104 1
20 109 1
20 110 1
20 111 1
20 114 1
20 123 1
20 135 1
20 136 1
20 139 1
20 159 1
21 1 1
21 7 1
21 25 1
21 26 1
21 30 1
21 33 1
21 36 1
21 48 1
21 49 1
21 57 1
21 62 1
21 69 1
21 70 1
21 71 1
21 86 1
21 89 1
21 105 1
21 111 1
21 114 1
21 115 1
21 116 1
21 122 1
21 126 1
21 137 1
21 142 1
22 3 1
22 9 1
22 27 1
22 28 1
22 32 1
22 35 1
22 38 1
22 50 1
22 51 1
22 59 1
22 64 1
22 71 1
22 72 1
22 73 1
22 88 1
22 91 1
22 107 1
22 113 1
22 116 1
22 117 1
22 118 1
22 124 1
22 128 1
22 139 1
22 144 1
23 5 1
23 11 1
23 29 1
23 30 1
23 34 1
23 37 1
23 40 1
23 52 1
23 53 1
23 61 1
23 66 1
23 73 1
23 74 1
23 75 1
23 90 1
23 93 1
23 109 1
23 115 1
23 118 1
23 119 1
23 120 1
23 126 1
23 130 1
23 141 1
23 146 1
24 2 1
24 7 1
24 13 1
24 31 1
24 32 1
24 36 1
24 39 1
24 54 1
24 55 1
24 63 1
24 68 1
24 75 1
24 76 1
24 77 1
24 81 1
24 82 1
24 92 1
24 95 1
24 111 1
24 117 1
24 120 1
24 128 1
24 132 1
24 143 1
24 148 1
25 1 1
25 4 1
25 9 1
25 15 1
25 33 1
25 34 1
25 38 1
25 56 1
25 57 1
25 65 1
25 70 1
25 77 1
25 78 1
25 79 1
25 82 1
25 83 1
25 84 1
25 94 1
25 97 1
25 113 1
25 119 1
25 130 1
25 134 1
25 145 1
25 150 1
26 3 1
26 6 1
26 11 1
26 17 1
26 35 1
26 36 1
26 40 1
26 41 1
26 58 1
26 59 1
26 67 1
26 72 1
26 79 1
26 80 1
26 81 1
26 84 1
26 85 1
26 86 1
26 96 1
26 99 1
26 115 1
26 132 1
26 136 1
26 147 1
26 152 1
27 2 1
27 5 1
27 8 1
27 13 1
27 19 1
27 37 1
27 38 1
27 41 1
27 42 1
27 43 1
27 60 1
27 61 1
27 69 1
27 74 1
27 83 1
27 86 1
27 87 1
27 88 1
27 98 1
27 101 1
27 117 1
27 134 1
27 138 1
27 149 1
27 154 1
28 4 1
28 7 1
28 10 1
28 15 1
28 21 1
28 39 1
28 40 1
28 43 1
28 44 1
28 45 1
28 62 1
28 63 1
28 71 1
28 76 1
28 85 1
28 88 1
28 89 1
28 90 1
28 100 1
28 103 1
28 119 1
28 136 1
28 140 1
28 151 1
28 156 1
29 1 1
29 2 1
29 6 1
29 9 1
29 12 1
29 17 1
29 23 1
29 45 1
29 46 1
29 47 1
29 64 1
29 65 1
29 73 1
29 78 1
29 81 1
29 87 1
29 90 1
29 91 1
29 92 1
29 102 1
29 105 1
29 138 1
29 142 1
29 153 1
29 158 1
30 3 1
30 4 1
30 8 1
30 11 1
30 14 1
30 19 1
30 25 1
30 47 1
30 48 1
30 49 1
30 66 1
30 67 1
30 75 1
30 80 1
30 83 1
30 89 1
30 92 1
30 93 1
30 94 1
30 104 1
30 107 1
30 140 1
30 144 1
30 155 1
30 160 1
31 5 1
31 6 1
31 10 1
31 13 1
31 16 1
31 21 1
31 27 1
31 42 1
31 49 1
31 50 1
31 51 1
31 68 1
31 69 1
31 77 1
31 85 1
31 91 1
31 94 1
31 95 1
31 96 1
31 106 1
31 109 1
31 122 1
31 142 1
31 146 1
31 157 1
32 7 1
32 8 1
32 12 1
32 15 1
32 18 1
32 23 1
32 29 1
32 44 1
32 51 1
32 52 1
32 53 1
32 70 1
32 71 1
32 79 1
32 87 1
32 93 1
32 96 1
32 97 1
32 98 1
32 108 1
32 111 1
32 124 1
32 144 1
32 148 1
32 159 1
33 9 1
33 10 1
33 14 1
33 17 1
33 20 1
33 25 1
33 31 1
33 41 1
33 46 1
33 53 1
33 54 1
33 55 1
33 72 1
33 73 1
33 89 1
33 95 1
33 98 1
33 99 1
33 100 1
33 110 1
33 113 1
33 121 1
33 126 1
33 146 1
33 150 1
34 11 1
34 12 1
34 16 1
34 19 1
34 22 1
34 27 1
34 33 1
34 43 1
34 48 1
34 55 1
34 56 1
34 57 1
34 74 1
34 75 1
34 91 1
34 97 1
34 100 1
34 101 1
34 102 1
34 112 1
34 115 1
34 123 1
34 128 1
34 148 1
34 152 1
35 13 1
35 14 1
35 18 1
35 21 1
35 24 1
35 29 1
35 35 1
35 45 1
35 50 1
35 57 1
35 58 1
35 59 1
35 76 1
35 77 1
35 93 1
35 99 1
35 102 1
35 103 1
35 104 1
35 114 1
35 117 1
35 125 1
35 130 1
35 150 1
35 154 1
36 15 1
36 16 1
36 20 1
36 23 1
36 26 1
36 31 1
36 37 1
36 47 1
36 52 1
36 59 1
36 60 1
36 61 1
36 78 1
36 79 1
36 95 1
36 101 1
36 104 1
36 105 1
36 106 1
36 116 1
36 119 1
36 127 1
36 132 1
36 152 1
36 156 1
37 17 1
37 18 1
37 22 1
37 25 1
37 28 1
37 33 1
37 39 1
37 41 1
37 49 1
37 54 1
37 61 1
37 62 1
37 63 1
37 80 1
37 81 1
37 97 1
37 103 1
37 106 1
37 107 1
37 108 1
37 118 1
37 129 1
37 134 1
37 154 1
37 158 1
38 1 1
38 19 1
38 20 1
38 24 1
38 27 1
38 30 1
38 35 1
38 42 1
38 43 1
38 51 1
38 56 1
38 63 1
38 64 1
38 65 1
38 83 1
38 99 1
38 105 1
38 108 1
38 109 1
38 110 1
38 120 1
38 131 1
38 136 1
38 156 1
38 160 1
39 3 1
39 21 1
39 22 1
39 26 1
39 29 1
39 32 1
39 37 1
39 44 1
39 45 1
39 53 1
39 58 1
39 65 1
39 66 1
39 67 1
39 82 1
39 85 1
39 101 1
39 107 1
39 110 1
39 111 1
39 112 1
39 122 1
39 133 1
39 138 1
39 158 1
40 5 1
40 23 1
40 24 1
40 28 1
40 31 1
40 34 1
40 39 1
40 46 1
40 47 1
40 55 1
40 60 1
40 67 1
40 68 1
40 69 1
40 84 1
40 87 1
40 103 1
40 109 1
40 112 1
40 113 1
40 114 1
40 124 1
40 135 1
40 140 1
40 160 1
41 9 1
41 13 1
41 17 1
41 25 1
41 26 1
41 34 1
41 38 1
41 45 1
41 46 1
41 49 1
41 54 1
41 62 1
41 65 1
41 69 1
41 73 1
41 77 1
41 89 1
41 90 1
41 94 1
41 98 1
41 113 1
41 285 1
41 286 1
41 294 1
41 302 1
41 309 1
41 313 1
41 314 1
41 318 1
42 11 1
42 15 1
42 19 1
42 27 1
42 28 1
42 36 1
42 40 1
42 47 1
42 48 1
42 51 1
42 56 1
42 64 1
42 67 1
42 71 1
42 75 1
42 79 1
42 91 1
42 92 1
42 96 1
42 100 1
42 115 1
42 287 1
42 288 1
42 296 1
42 304 1
42 311 1
42 315 1
42 316 1
42 320 1
43 2 1
43 13 1
43 17 1
43 21 1
43 29 1
43 30 1
43 38 1
43 41 1
43 49 1
43 50 1
43 53 1
43 58 1
43 66 1
43 69 1
43 73 1
43 77 1
43 93 1
43 94 1
43 98 1
43 102 1
43 117 1
43 282 1
43 289 1
43 290 1
43 298 1
43 306 1
43 313 1
43 317 1
43 318 1
44 4 1
44 15 1
44 19 1
44 23 1
44 31 1
44 32 1
44 40 1
44 43 1
44 51 1
44 52 1
44 55 1
44 60 1
44 68 1
44 71 1
44 75 1
44 79 1
44 95 1
44 96 1
44 100 1
44 104 1
44 119 1
44 284 1
44 291 1
44 292 1
44 300 1
44 308 1
44 315 1
44 319 1
44 320 1
45 2 1
45 6 1
45 17 1
45 21 1
45 25 1
45 33 1
45 34 1
45 41 1
45 45 1
45 53 1
45 54 1
45 57 1
45 62 1
45 70 1
45 73 1
45 77 1
45 81 1
45 97 1
45 98 1
45 102 1
45 106 1
45 281 1
45 282 1
45 286 1
45 293 1
45 294 1
45 302 1
45 310 1
45 317 1
46 4 1
46 8 1
46 19 1
46 23 1
46 27 1
46 35 1
46 36 1
46 43 1
46 47 1
46 55 1
46 56 1
46 59 1
46 64 1
46 72 1
46 75 1
46 79 1
46 83 1
46 99 1
46 100 1
46 104 1
46 108 1
46 283 1
46 284 1
46 288 1
46 295 1
46 296 1
46 304 1
46 312 1
46 319 1
47 6 1
47 10 1
47 21 1
47 25 1
47 29 1
47 37 1
47 38 1
47 41 1
47 45 1
47 49 1
47 57 1
47 58 1
47 61 1
47 66 1
47 74 1
47 77 1
47 85 1
47 101 1
47 102 1
47 106 1
47 110 1
47 281 1
47 285 1
47 286 1
47 290 1
47 297 1
47 298 1
47 306 1
47 314 1
48 8 1
48 12 1
48 23 1
48 27 1
48 31 1
48 39 1
48 40 1
48 43 1
48 47 1
48 51 1
48 59 1
48 60 1
48 63 1
48 68 1
48 76 1
48 79 1
48 87 1
48 103 1
48 104 1
48 108 1
48 112 1
48 283 1
48 287 1
48 288 1
48 292 1
48 299 1
48 300 1
48 308 1
48 316 1
49 1 1
49 2 1
49 10 1
49 14 1
49 25 1
49 29 1
49 33 1
49 41 1
49 45 1
49 49 1
49 53 1
49 61 1
49 62 1
49 65 1
49 70 1
49 78 1
49 89 1
49 105 1
49 106 1
49 110 1
49 114 1
49 285 1
49 289 1
49 290 1
49 294 1
49 301 1
49 302 1
49 310 1
49 318 1
50 3 1
50 4 1
50 12 1
50 16 1
50 27 1
50 31 1
50 35 1
50 43 1
50 47 1
50 51 1
50 55 1
50 63 1
50 64 1
50 67 1
50 72 1
50 80 1
50 91 1
50 107 1
50 108 1
50 112 1
50 116 1
50 287 1
50 291 1
50 292 1
50 296 1
50 303 1
50 304 1
50 312 1
50 320 1
51 5 1
51 6 1
51 14 1
51 18 1
51 29 1
51 33 1
51 37 1
51 42 1
51 45 1
51 49 1
51 53 1
51 57 1
51 65 1
51 66 1
51 69 1
51 74 1
51 93 1
51 109 1
51 110 1
51 114 1
51 118 1
51 282 1
51 289 1
51 293 1
51 294 1
51 298 1
51 305 1
51 306 1
51 314 1
52 7 1
52 8 1
52 16 1
52 20 1
52 31 1
52 35 1
52 39 1
52 44 1
52 47 1
52 51 1
52 55 1
52 59 1
52 67 1
52 68 1
52 71 1
52 76 1
52 95 1
52 111 1
52 112 1
52 116 1
52 120 1
52 284 1
52 291 1
52 295 1
52 296 1
52 300 1
52 307 1
52 308 1
52 316 1
53 1 1
53 9 1
53 10 1
53 18 1
53 22 1
53 33 1
53 37 1
53 46 1
53 49 1
53 53 1
53 57 1
53 61 1
53 69 1
53 70 1
53 73 1
53 78 1
53 82 1
53 97 1
53 113 1
53 114 1
53 118 1
53 286 1
53 293 1
53 297 1
53 298 1
53 302 1
53 309 1
53 310 1
53 318 1
54 3 1
54 11 1
54 12 1
54 20 1
54 24 1
54 35 1
54 39 1
54 48 1
54 51 1
54 55 1
54 59 1
54 63 1
54 71 1
54 72 1
54 75 1
54 80 1
54 84 1
54 99 1
54 115 1
54 116 1
54 120 1
54 288 1
54 295 1
54 299 1
54 300 1
54 304 1
54 311 1
54 312 1
54 320 1
55 1 1
55 5 1
55 13 1
55 14 1
55 22 1
55 26 1
55 37 1
55 42 1
55 50 1
55 53 1
55 57 1
55 61 1
55 65 1
55 73 1
55 74 1
55 77 1
55 82 1
55 86 1
55 101 1
55 117 1
55 118 1
55 282 1
55 290 1
55 297 1
55 301 1
55 302 1
55 306 1
55 313 1
55 314 1
56 3 1
56 7 1
56 15 1
56 16 1
56 24 1
56 28 1
56 39 1
56 44 1
56 52 1
56 55 1
56 59 1
56 63 1
56 67 1
56 75 1
56 76 1
56 79 1
56 84 1
56 88 1
56 103 1
56 119 1
56 120 1
56 284 1
56 292 1
56 299 1
56 303 1
56 304 1
56 308 1
56 315 1
56 316 1
57 1 1
57 5 1
57 9 1
57 17 1
57 18 1
57 26 1
57 30 1
57 41 1
57 46 1
57 54 1
57 57 1
57 61 1
57 65 1
57 69 1
57 77 1
57 78 1
57 81 1
57 82 1
57 86 1
57 90 1
57 105 1
57 286 1
57 294 1
57 301 1
57 305 1
57 306 1
57 310 1
57 317 1
57 318 1
58 3 1
58 7 1
58 11 1
58 19 1
58 20 1
58 28 1
58 32 1
58 43 1
58 48 1
58 56 1
58 59 1
58 63 1
58 67 1
58 71 1
58 79 1
58 80 1
58 83 1
58 84 1
58 88 1
58 92 1
58 107 1
58 288 1
58 296 1
58 303 1
58 307 1
58 308 1
58 312 1
58 319 1
58 320 1
59 5 1
59 9 1
59 13 1
59 21 1
59 22 1
59 30 1
59 34 1
59 41 1
59 42 1
59 45 1
59 50 1
59 58 1
59 61 1
59 65 1
59 69 1
59 73 1
59 85 1
59 86 1
59 90 1
59 94 1
59 109 1
59 281 1
59 282 1
59 290 1
59 298 1
59 305 1
59 309 1
59 310 1
59 314 1
60 7 1
60 11 1
60 15 1
60 23 1
60 24 1
60 32 1
60 36 1
60 43 1
60 44 1
60 47 1
60 52 1
60 60 1
60 63 1
60 67 1
60 71 1
60 75 1
60 87 1
60 88 1
60 92 1
60 96 1
60 111 1
60 283 1
60 284 1
60 292 1
60 300 1
60 307 1
60 311 1
60 312 1
60 316 1
61 10 1
61 14 1
61 18 1
61 25 1
61 33 1
61 34 1
61 37 1
61 38 1
61 45 1
61 50 1
61 53 1
61 54 1
61 61 1
61 62 1
61 66 1
61 70 1
61 74 1
61 78 1
61 89 1
61 93 1
61 94 1
61 97 1
61 98 1
61 114 1
61 285 1
61 293 1
61 294 1
61 301 1
61 302 1
61 310 1
61 313 1
61 317 1
61 318 1
62 12 1
62 16 1
62 20 1
62 27 1
62 35 1
62 36 1
62 39 1
62 40 1
62 47 1
62 52 1
62 55 1
62 56 1
62 63 1
62 64 1
62 68 1
62 72 1
62 76 1
62 80 1
62 91 1
62 95 1
62 96 1
62 99 1
62 100 1
62 116 1
62 287 1
62 295 1
62 296 1
62 303 1
62 304 1
62 312 1
62 315 1
62 319 1
62 320 1
63 1 1
63 2 1
63 14 1
63 18 1
63 22 1
63 29 1
63 37 1
63 38 1
63 42 1
63 49 1
63 54 1
63 57 1
63 58 1
63 65 1
63 66 1
63 70 1
63 74 1
63 78 1
63 93 1
63 97 1
63 98 1
63 101 1
63 102 1
63 118 1
63 281 1
63 282 1
63 289 1
63 297 1
63 298 1
63 305 1
63 306 1
63 314 1
63 317 1
64 3 1
64 4 1
64 16 1
64 20 1
64 24 1
64 31 1
64 39 1
64 40 1
64 44 1
64 51 1
64 56 1
64 59 1
64 60 1
64 67 1
64 68 1
64 72 1
64 76 1
64 80 1
64 95 1
64 99 1
64 100 1
64 103 1
64 104 1
64 120 1
64 283 1
64 284 1
64 291 1
64 299 1
64 300 1
64 307 1
64 308 1
64 316 1
64 319 1
65 1 1
65 2 1
65 5 1
65 6 1
65 18 1
65 22 1
65 26 1
65 33 1
65 42 1
65 46 1
65 53 1
65 58 1
65 61 1
65 62 1
65 69 1
65 70 1
65 74 1
65 78 1
65 82 1
65 97 1
65 101 1
65 102 1
65 105 1
65 106 1
65 281 1
65 285 1
65 286 1
65 293 1
65 301 1
65 302 1
65 309 1
65 310 1
65 318 1
66 3 1
66 4 1
66 7 1
66 8 1
66 20 1
66 24 1
66 28 1
66 35 1
66 44 1
66 48 1
66 55 1
66 60 1
66 63 1
66 64 1
66 71 1
66 72 1
66 76 1
66 80 1
66 84 1
66 99 1
66 103 1
66 104 1
66 107 1
66 108 1
66 283 1
66 287 1
66 288 1
66 295 1
66 303 1
66 304 1
66 311 1
66 312 1
66 320 1
67 5 1
67 6 1
67 9 1
67 10 1
67 22 1
67 26 1
67 30 1
67 37 1
67 42 1
67 46 1
67 50 1
67 57 1
67 62 1
67 65 1
67 66 1
67 73 1
67 74 1
67 78 1
67 86 1
67 101 1
67 105 1
67 106 1
67 109 1
67 110 1
67 282 1
67 285 1
67 289 1
67 290 1
67 297 1
67 305 1
67 306 1
67 313 1
67 314 1
68 7 1
68 8 1
68 11 1
68 12 1
68 24 1
68 28 1
68 32 1
68 39 1
68 44 1
68 48 1
68 52 1
68 59 1
68 64 1
68 67 1
68 68 1
68 75 1
68 76 1
68 80 1
68 88 1
68 103 1
68 107 1
68 108 1
68 111 1
68 112 1
68 284 1
68 287 1
68 291 1
68 292 1
68 299 1
68 307 1
68 308 1
68 315 1
68 316 1
69 1 1
69 9 1
69 10 1
69 13 1
69 14 1
69 26 1
69 30 1
69 34 1
69 42 1
69 46 1
69 50 1
69 54 1
69 61 1
69 66 1
69 69 1
69 70 1
69 77 1
69 78 1
69 90 1
69 105 1
69 109 1
69 110 1
69 113 1
69 114 1
69 286 1
69 289 1
69 293 1
69 294 1
69 301 1
69 309 1
69 310 1
69 317 1
69 318 1
70 3 1
70 11 1
70 12 1
70 15 1
70 16 1
70 28 1
70 32 1
70 36 1
70 44 1
70 48 1
70 52 1
70 56 1
70 63 1
70 68 1
70 71 1
70 72 1
70 79 1
70 80 1
70 92 1
70 107 1
70 111 1
70 112 1
70 115 1
70 116 1
70 288 1
70 291 1
70 295 1
70 296 1
70 303 1
70 311 1
70 312 1
70 319 1
70 320 1
71 5 1
71 13 1
71 14 1
71 17 1
71 18 1
71 30 1
71 34 1
71 38 1
71 41 1
71 42 1
71 46 1
71 50 1
71 54 1
71 58 1
71 65 1
71 70 1
71 73 1
71 74 1
71 94 1
71 109 1
71 113 1
71 114 1
71 117 1
71 118 1
71 281 1
71 282 1
71 290 1
71 293 1
71 297 1
71 298 1
71 305 1
71 313 1
71 314 1
72 7 1
72 15 1
72 16 1
72 19 1
72 20 1
72 32 1
72 36 1
72 40 1
72 43 1
72 44 1
72 48 1
72 52 1
72 56 1
72 60 1
72 67 1
72 72 1
72 75 1
72 76 1
72 96 1
72 111 1
72 115 1
72 116 1
72 119 1
72 120 1
72 283 1
72 284 1
72 292 1
72 295 1
72 299 1
72 300 1
72 307 1
72 315 1
72 316 1
73 2 1
73 9 1
73 17 1
73 18 1
73 21 1
73 22 1
73 34 1
73 38 1
73 45 1
73 46 1
73 50 1
73 54 1
73 58 1
73 62 1
73 69 1
73 74 1
73 77 1
73 78 1
73 81 1
73 82 1
73 98 1
73 113 1
73 117 1
73 118 1
73 285 1
73 286 1
73 294 1
73 297 1
73 301 1
73 302 1
73 309 1
73 317 1
73 318 1
74 4 1
74 11 1
74 19 1
74 20 1
74 23 1
74 24 1
74 36 1
74 40 1
74 47 1
74 48 1
74 52 1
74 56 1
74 60 1
74 64 1
74 71 1
74 76 1
74 79 1
74 80 1
74 83 1
74 84 1
74 100 1
74 115 1
74 119 1
74 120 1
74 287 1
74 288 1
74 296 1
74 299 1
74 303 1
74 304 1
74 311 1
74 319 1
74 320 1
75 2 1
75 6 1
75 13 1
75 21 1
75 22 1
75 25 1
75 26 1
75 38 1
75 41 1
75 42 1
75 49 1
75 50 1
75 54 1
75 58 1
75 62 1
75 66 1
75 73 1
75 78 1
75 81 1
75 82 1
75 85 1
75 86 1
75 102 1
75 117 1
75 281 1
75 282 1
75 289 1
75 290 1
75 298 1
75 301 1
75 305 1
75 306 1
75 313 1
76 4 1
76 8 1
76 15 1
76 23 1
76 24 1
76 27 1
76 28 1
76 40 1
76 43 1
76 44 1
76 51 1
76 52 1
76 56 1
76 60 1
76 64 1
76 68 1
76 75 1
76 80 1
76 83 1
76 84 1
76 87 1
76 88 1
76 104 1
76 119 1
76 283 1
76 284 1
76 291 1
76 292 1
76 300 1
76 303 1
76 307 1
76 308 1
76 315 1
77 2 1
77 6 1
77 10 1
77 17 1
77 25 1
77 26 1
77 29 1
77 30 1
77 42 1
77 45 1
77 46 1
77 53 1
77 54 1
77 58 1
77 62 1
77 66 1
77 70 1
77 77 1
77 81 1
77 85 1
77 86 1
77 89 1
77 90 1
77 106 1
77 285 1
77 286 1
77 293 1
77 294 1
77 302 1
77 305 1
77 309 1
77 310 1
77 317 1
78 4 1
78 8 1
78 12 1
78 19 1
78 27 1
78 28 1
78 31 1
78 32 1
78 44 1
78 47 1
78 48 1
78 55 1
78 56 1
78 60 1
78 64 1
78 68 1
78 72 1
78 79 1
78 83 1
78 87 1
78 88 1
78 91 1
78 92 1
78 108 1
78 287 1
78 288 1
78 295 1
78 296 1
78 304 1
78 307 1
78 311 1
78 312 1
78 319 1
79 6 1
79 10 1
79 14 1
79 21 1
79 29 1
79 30 1
79 33 1
79 34 1
79 41 1
79 46 1
79 49 1
79 50 1
79 57 1
79 58 1
79 62 1
79 66 1
79 70 1
79 74 1
79 85 1
79 89 1
79 90 1
79 93 1
79 94 1
79 110 1
79 281 1
79 289 1
79 290 1
79 297 1
79 298 1
79 306 1
79 309 1
79 313 1
79 314 1
80 8 1
80 12 1
80 16 1
80 23 1
80 31 1
80 32 1
80 35 1
80 36 1
80 43 1
80 48 1
80 51 1
80 52 1
80 59 1
80 60 1
80 64 1
80 68 1
80 72 1
80 76 1
80 87 1
80 91 1
80 92 1
80 95 1
80 96 1
80 112 1
80 283 1
80 291 1
80 292 1
80 299 1
80 300 1
80 308 1
80 311 1
80 315 1
80 316 1
