%%MatrixMarket matrix coordinate integer general
% GF(4) labels 0,1,2=omega,3=omega+1; arithmetic is NOT integer arithmetic.
% Coordinate indices are 1-based; omitted entries are zero.
40 160 920
1 1 3
1 4 3
1 13 2
1 15 1
1 17 3
1 18 1
1 24 1
1 25 3
1 29 3
1 31 1
1 35 2
1 36 3
1 43 1
1 45 3
1 53 3
1 56 3
1 57 1
1 58 2
1 61 1
1 63 1
1 69 3
1 71 1
2 2 3
2 5 3
2 14 2
2 16 1
2 18 3
2 19 1
2 25 1
2 26 3
2 30 3
2 32 1
2 36 2
2 37 3
2 44 1
2 46 3
2 54 3
2 57 3
2 58 1
2 59 2
2 62 1
2 64 1
2 70 3
2 72 1
3 3 3
3 6 3
3 15 2
3 17 1
3 19 3
3 20 1
3 26 1
3 27 3
3 31 3
3 33 1
3 37 2
3 38 3
3 45 1
3 47 3
3 55 3
3 58 3
3 59 1
3 60 2
3 63 1
3 65 1
3 71 3
3 73 1
4 1 1
4 4 3
4 7 3
4 16 2
4 18 1
4 20 3
4 27 1
4 28 3
4 32 3
4 34 1
4 38 2
4 39 3
4 41 2
4 46 1
4 48 3
4 56 3
4 59 3
4 60 1
4 64 1
4 66 1
4 72 3
4 74 1
5 1 3
5 2 1
5 5 3
5 8 3
5 17 2
5 19 1
5 28 1
5 29 3
5 33 3
5 35 1
5 39 2
5 40 3
5 41 1
5 42 2
5 47 1
5 49 3
5 57 3
5 60 3
5 65 1
5 67 1
5 73 3
5 75 1
6 2 3
6 3 1
6 6 3
6 9 3
6 18 2
6 20 1
6 21 3
6 29 1
6 30 3
6 34 3
6 36 1
6 40 2
6 41 3
6 42 1
6 43 2
6 48 1
6 50 3
6 58 3
6 66 1
6 68 1
6 74 3
6 76 1
7 1 1
7 3 3
7 4 1
7 7 3
7 10 3
7 19 2
7 21 2
7 22 3
7 30 1
7 31 3
7 35 3
7 37 1
7 42 3
7 43 1
7 44 2
7 49 1
7 51 3
7 59 3
7 67 1
7 69 1
7 75 3
7 77 1
8 2 1
8 4 3
8 5 1
8 8 3
8 11 3
8 20 2
8 22 2
8 23 3
8 31 1
8 32 3
8 36 3
8 38 1
8 43 3
8 44 1
8 45 2
8 50 1
8 52 3
8 60 3
8 68 1
8 70 1
8 76 3
8 78 1
9 1 2
9 3 1
9 5 3
9 6 1
9 9 3
9 12 3
9 23 2
9 24 3
9 32 1
9 33 3
9 37 3
9 39 1
9 41 3
9 44 3
9 45 1
9 46 2
9 51 1
9 53 3
9 69 1
9 71 1
9 77 3
9 79 1
10 2 2
10 4 1
10 6 3
10 7 1
10 10 3
10 13 3
10 24 2
10 25 3
10 33 1
10 34 3
10 38 3
10 40 1
10 42 3
10 45 3
10 46 1
10 47 2
10 52 1
10 54 3
10 70 1
10 72 1
10 78 3
10 80 1
11 3 2
11 5 1
11 7 3
11 8 1
11 11 3
11 14 3
11 21 1
11 25 2
11 26 3
11 34 1
11 35 3
11 39 3
11 43 3
11 46 3
11 47 1
11 48 2
11 53 1
11 55 3
11 61 1
11 71 1
11 73 1
11 79 3
12 4 2
12 6 1
12 8 3
12 9 1
12 12 3
12 15 3
12 22 1
12 26 2
12 27 3
12 35 1
12 36 3
12 40 3
12 44 3
12 47 3
12 48 1
12 49 2
12 54 1
12 56 3
12 62 1
12 72 1
12 74 1
12 80 3
13 5 2
13 7 1
13 9 3
13 10 1
13 13 3
13 16 3
13 21 3
13 23 1
13 27 2
13 28 3
13 36 1
13 37 3
13 45 3
13 48 3
13 49 1
13 50 2
13 55 1
13 57 3
13 61 3
13 63 1
13 73 1
13 75 1
14 6 2
14 8 1
14 10 3
14 11 1
14 14 3
14 17 3
14 22 3
14 24 1
14 28 2
14 29 3
14 37 1
14 38 3
14 46 3
14 49 3
14 50 1
14 51 2
14 56 1
14 58 3
14 62 3
14 64 1
14 74 1
14 76 1
15 7 2
15 9 1
15 11 3
15 12 1
15 15 3
15 18 3
15 23 3
15 25 1
15 29 2
15 30 3
15 38 1
15 39 3
15 47 3
15 50 3
15 51 1
15 52 2
15 57 1
15 59 3
15 63 3
15 65 1
15 75 1
15 77 1
16 8 2
16 10 1
16 12 3
16 13 1
16 16 3
16 19 3
16 24 3
16 26 1
16 30 2
16 31 3
16 39 1
16 40 3
16 48 3
16 51 3
16 52 1
16 53 2
16 58 1
16 60 3
16 64 3
16 66 1
16 76 1
16 78 1
17 9 2
17 11 1
17 13 3
17 14 1
17 17 3
17 20 3
17 21 3
17 25 3
17 27 1
17 31 2
17 32 3
17 40 1
17 41 3
17 49 3
17 52 3
17 53 1
17 54 2
17 59 1
17 65 3
17 67 1
17 77 1
17 79 1
18 1 3
18 10 2
18 12 1
18 14 3
18 15 1
18 18 3
18 21 1
18 22 3
18 26 3
18 28 1
18 32 2
18 33 3
18 42 3
18 50 3
18 53 3
18 54 1
18 55 2
18 60 1
18 66 3
18 68 1
18 78 1
18 80 1
19 2 3
19 11 2
19 13 1
19 15 3
19 16 1
19 19 3
19 22 1
19 23 3
19 27 3
19 29 1
19 33 2
19 34 3
19 41 1
19 43 3
19 51 3
19 54 3
19 55 1
19 56 2
19 61 1
19 67 3
19 69 1
19 79 1
20 3 3
20 12 2
20 14 1
20 16 3
20 17 1
20 20 3
20 23 1
20 24 3
20 28 3
20 30 1
20 34 2
20 35 3
20 42 1
20 44 3
20 52 3
20 55 3
20 56 1
20 57 2
20 62 1
20 68 3
20 70 1
20 80 1
21 5 1
21 7 1
21 9 1
21 13 3
21 17 2
21 19 2
21 23 3
21 25 1
21 27 2
21 31 2
21 33 1
21 35 1
21 37 1
21 39 1
21 45 3
21 47 2
21 49 2
21 57 1
21 143 3
21 147 2
21 151 2
21 155 1
21 157 3
21 159 2
22 6 1
22 8 1
22 10 1
22 14 3
22 18 2
22 20 2
22 24 3
22 26 1
22 28 2
22 32 2
22 34 1
22 36 1
22 38 1
22 40 1
22 46 3
22 48 2
22 50 2
22 58 1
22 144 3
22 148 2
22 152 2
22 156 1
22 158 3
22 160 2
23 1 2
23 7 1
23 9 1
23 11 1
23 15 3
23 19 2
23 21 1
23 25 3
23 27 1
23 29 2
23 33 2
23 35 1
23 37 1
23 39 1
23 47 3
23 49 2
23 51 2
23 59 1
23 141 2
23 145 3
23 149 2
23 153 2
23 157 1
23 159 3
24 2 2
24 8 1
24 10 1
24 12 1
24 16 3
24 20 2
24 22 1
24 26 3
24 28 1
24 30 2
24 34 2
24 36 1
24 38 1
24 40 1
24 48 3
24 50 2
24 52 2
24 60 1
24 142 2
24 146 3
24 150 2
24 154 2
24 158 1
24 160 3
25 1 2
25 3 2
25 9 1
25 11 1
25 13 1
25 17 3
25 21 1
25 23 1
25 27 3
25 29 1
25 31 2
25 35 2
25 37 1
25 39 1
25 41 1
25 49 3
25 51 2
25 53 2
25 141 3
25 143 2
25 147 3
25 151 2
25 155 2
25 159 1
26 2 2
26 4 2
26 10 1
26 12 1
26 14 1
26 18 3
26 22 1
26 24 1
26 28 3
26 30 1
26 32 2
26 36 2
26 38 1
26 40 1
26 42 1
26 50 3
26 52 2
26 54 2
26 142 3
26 144 2
26 148 3
26 152 2
26 156 2
26 160 1
27 3 2
27 5 2
27 11 1
27 13 1
27 15 1
27 19 3
27 21 1
27 23 1
27 25 1
27 29 3
27 31 1
27 33 2
27 37 2
27 39 1
27 43 1
27 51 3
27 53 2
27 55 2
27 141 1
27 143 3
27 145 2
27 149 3
27 153 2
27 157 2
28 4 2
28 6 2
28 12 1
28 14 1
28 16 1
28 20 3
28 22 1
28 24 1
28 26 1
28 30 3
28 32 1
28 34 2
28 38 2
28 40 1
28 44 1
28 52 3
28 54 2
28 56 2
28 142 1
28 144 3
28 146 2
28 150 3
28 154 2
28 158 2
29 1 3
29 5 2
29 7 2
29 13 1
29 15 1
29 17 1
29 21 1
29 23 1
29 25 1
29 27 1
29 31 3
29 33 1
29 35 2
29 39 2
29 45 1
29 53 3
29 55 2
29 57 2
29 143 1
29 145 3
29 147 2
29 151 3
29 155 2
29 159 2
30 2 3
30 6 2
30 8 2
30 14 1
30 16 1
30 18 1
30 22 1
30 24 1
30 26 1
30 28 1
30 32 3
30 34 1
30 36 2
30 40 2
30 46 1
30 54 3
30 56 2
30 58 2
30 144 1
30 146 3
30 148 2
30 152 3
30 156 2
30 160 2
31 3 3
31 7 2
31 9 2
31 15 1
31 17 1
31 19 1
31 21 2
31 23 1
31 25 1
31 27 1
31 29 1
31 33 3
31 35 1
31 37 2
31 47 1
31 55 3
31 57 2
31 59 2
31 141 2
31 145 1
31 147 3
31 149 2
31 153 3
31 157 2
32 4 3
32 8 2
32 10 2
32 16 1
32 18 1
32 20 1
32 22 2
32 24 1
32 26 1
32 28 1
32 30 1
32 34 3
32 36 1
32 38 2
32 48 1
32 56 3
32 58 2
32 60 2
32 142 2
32 146 1
32 148 3
32 150 2
32 154 3
32 158 2
33 1 1
33 5 3
33 9 2
33 11 2
33 17 1
33 19 1
33 23 2
33 25 1
33 27 1
33 29 1
33 31 1
33 35 3
33 37 1
33 39 2
33 41 2
33 49 1
33 57 3
33 59 2
33 143 2
33 147 1
33 149 3
33 151 2
33 155 3
33 159 2
34 2 1
34 6 3
34 10 2
34 12 2
34 18 1
34 20 1
34 24 2
34 26 1
34 28 1
34 30 1
34 32 1
34 36 3
34 38 1
34 40 2
34 42 2
34 50 1
34 58 3
34 60 2
34 144 2
34 148 1
34 150 3
34 152 2
34 156 3
34 160 2
35 1 1
35 3 1
35 7 3
35 11 2
35 13 2
35 19 1
35 21 2
35 25 2
35 27 1
35 29 1
35 31 1
35 33 1
35 37 3
35 39 1
35 41 2
35 43 2
35 51 1
35 59 3
35 141 2
35 145 2
35 149 1
35 151 3
35 153 2
35 157 3
36 2 1
36 4 1
36 8 3
36 12 2
36 14 2
36 20 1
36 22 2
36 26 2
36 28 1
36 30 1
36 32 1
36 34 1
36 38 3
36 40 1
36 42 2
36 44 2
36 52 1
36 60 3
36 142 2
36 146 2
36 150 1
36 152 3
36 154 2
36 158 3
37 1 1
37 3 1
37 5 1
37 9 3
37 13 2
37 15 2
37 21 1
37 23 2
37 27 2
37 29 1
37 31 1
37 33 1
37 35 1
37 39 3
37 41 3
37 43 2
37 45 2
37 53 1
37 143 2
37 147 2
37 151 1
37 153 3
37 155 2
37 159 3
38 2 1
38 4 1
38 6 1
38 10 3
38 14 2
38 16 2
38 22 1
38 24 2
38 28 2
38 30 1
38 32 1
38 34 1
38 36 1
38 40 3
38 42 3
38 44 2
38 46 2
38 54 1
38 144 2
38 148 2
38 152 1
38 154 3
38 156 2
38 160 3
39 3 1
39 5 1
39 7 1
39 11 3
39 15 2
39 17 2
39 21 3
39 23 1
39 25 2
39 29 2
39 31 1
39 33 1
39 35 1
39 37 1
39 43 3
39 45 2
39 47 2
39 55 1
39 141 3
39 145 2
39 149 2
39 153 1
39 155 3
39 157 2
40 4 1
40 6 1
40 8 1
40 12 3
40 16 2
40 18 2
40 22 3
40 24 1
40 26 2
40 30 2
40 32 1
40 34 1
40 36 1
40 38 1
40 44 3
40 46 2
40 48 2
40 56 1
40 142 3
40 146 2
40 150 2
40 154 1
40 156 3
40 158 2
