%%MatrixMarket matrix coordinate integer general
% Binary matrix over GF(2).
% Coordinate indices are 1-based; omitted entries are zero.
264 704 2244
1 2 1
1 89 1
1 177 1
1 265 1
1 353 1
1 441 1
1 529 1
1 617 1
2 1 1
2 2 1
2 90 1
2 178 1
2 266 1
2 354 1
2 442 1
2 530 1
2 618 1
3 4 1
3 91 1
3 179 1
3 267 1
3 355 1
3 443 1
3 531 1
3 619 1
4 3 1
4 4 1
4 92 1
4 180 1
4 268 1
4 356 1
4 444 1
4 532 1
4 620 1
5 6 1
5 93 1
5 181 1
5 269 1
5 357 1
5 445 1
5 533 1
5 621 1
6 5 1
6 6 1
6 94 1
6 182 1
6 270 1
6 358 1
6 446 1
6 534 1
6 622 1
7 8 1
7 95 1
7 183 1
7 271 1
7 359 1
7 447 1
7 535 1
7 623 1
8 7 1
8 8 1
8 96 1
8 184 1
8 272 1
8 360 1
8 448 1
8 536 1
8 624 1
9 10 1
9 97 1
9 185 1
9 273 1
9 361 1
9 449 1
9 537 1
9 625 1
10 9 1
10 10 1
10 98 1
10 186 1
10 274 1
10 362 1
10 450 1
10 538 1
10 626 1
11 12 1
11 99 1
11 187 1
11 275 1
11 363 1
11 451 1
11 539 1
11 627 1
12 11 1
12 12 1
12 100 1
12 188 1
12 276 1
12 364 1
12 452 1
12 540 1
12 628 1
13 14 1
13 101 1
13 189 1
13 277 1
13 365 1
13 453 1
13 541 1
13 629 1
14 13 1
14 14 1
14 102 1
14 190 1
14 278 1
14 366 1
14 454 1
14 542 1
14 630 1
15 16 1
15 103 1
15 191 1
15 279 1
15 367 1
15 455 1
15 543 1
15 631 1
16 15 1
16 16 1
16 104 1
16 192 1
16 280 1
16 368 1
16 456 1
16 544 1
16 632 1
17 18 1
17 105 1
17 193 1
17 281 1
17 369 1
17 457 1
17 545 1
17 633 1
18 17 1
18 18 1
18 106 1
18 194 1
18 282 1
18 370 1
18 458 1
18 546 1
18 634 1
19 20 1
19 107 1
19 195 1
19 283 1
19 371 1
19 459 1
19 547 1
19 635 1
20 19 1
20 20 1
20 108 1
20 196 1
20 284 1
20 372 1
20 460 1
20 548 1
20 636 1
21 22 1
21 109 1
21 197 1
21 285 1
21 373 1
21 461 1
21 549 1
21 637 1
22 21 1
22 22 1
22 110 1
22 198 1
22 286 1
22 374 1
22 462 1
22 550 1
22 638 1
23 24 1
23 111 1
23 199 1
23 287 1
23 375 1
23 463 1
23 551 1
23 639 1
24 23 1
24 24 1
24 112 1
24 200 1
24 288 1
24 376 1
24 464 1
24 552 1
24 640 1
25 26 1
25 113 1
25 201 1
25 289 1
25 377 1
25 465 1
25 553 1
25 641 1
26 25 1
26 26 1
26 114 1
26 202 1
26 290 1
26 378 1
26 466 1
26 554 1
26 642 1
27 28 1
27 115 1
27 203 1
27 291 1
27 379 1
27 467 1
27 555 1
27 643 1
28 27 1
28 28 1
28 116 1
28 204 1
28 292 1
28 380 1
28 468 1
28 556 1
28 644 1
29 30 1
29 117 1
29 205 1
29 293 1
29 381 1
29 469 1
29 557 1
29 645 1
30 29 1
30 30 1
30 118 1
30 206 1
30 294 1
30 382 1
30 470 1
30 558 1
30 646 1
31 32 1
31 119 1
31 207 1
31 295 1
31 383 1
31 471 1
31 559 1
31 647 1
32 31 1
32 32 1
32 120 1
32 208 1
32 296 1
32 384 1
32 472 1
32 560 1
32 648 1
33 34 1
33 121 1
33 209 1
33 297 1
33 385 1
33 473 1
33 561 1
33 649 1
34 33 1
34 34 1
34 122 1
34 210 1
34 298 1
34 386 1
34 474 1
34 562 1
34 650 1
35 36 1
35 123 1
35 211 1
35 299 1
35 387 1
35 475 1
35 563 1
35 651 1
36 35 1
36 36 1
36 124 1
36 212 1
36 300 1
36 388 1
36 476 1
36 564 1
36 652 1
37 38 1
37 125 1
37 213 1
37 301 1
37 389 1
37 477 1
37 565 1
37 653 1
38 37 1
38 38 1
38 126 1
38 214 1
38 302 1
38 390 1
38 478 1
38 566 1
38 654 1
39 40 1
39 127 1
39 215 1
39 303 1
39 391 1
39 479 1
39 567 1
39 655 1
40 39 1
40 40 1
40 128 1
40 216 1
40 304 1
40 392 1
40 480 1
40 568 1
40 656 1
41 42 1
41 129 1
41 217 1
41 305 1
41 393 1
41 481 1
41 569 1
41 657 1
42 41 1
42 42 1
42 130 1
42 218 1
42 306 1
42 394 1
42 482 1
42 570 1
42 658 1
43 44 1
43 131 1
43 219 1
43 307 1
43 395 1
43 483 1
43 571 1
43 659 1
44 43 1
44 44 1
44 132 1
44 220 1
44 308 1
44 396 1
44 484 1
44 572 1
44 660 1
45 46 1
45 133 1
45 221 1
45 309 1
45 397 1
45 485 1
45 573 1
45 661 1
46 45 1
46 46 1
46 134 1
46 222 1
46 310 1
46 398 1
46 486 1
46 574 1
46 662 1
47 48 1
47 135 1
47 223 1
47 311 1
47 399 1
47 487 1
47 575 1
47 663 1
48 47 1
48 48 1
48 136 1
48 224 1
48 312 1
48 400 1
48 488 1
48 576 1
48 664 1
49 50 1
49 137 1
49 225 1
49 313 1
49 401 1
49 489 1
49 577 1
49 665 1
50 49 1
50 50 1
50 138 1
50 226 1
50 314 1
50 402 1
50 490 1
50 578 1
50 666 1
51 52 1
51 139 1
51 227 1
51 315 1
51 403 1
51 491 1
51 579 1
51 667 1
52 51 1
52 52 1
52 140 1
52 228 1
52 316 1
52 404 1
52 492 1
52 580 1
52 668 1
53 54 1
53 141 1
53 229 1
53 317 1
53 405 1
53 493 1
53 581 1
53 669 1
54 53 1
54 54 1
54 142 1
54 230 1
54 318 1
54 406 1
54 494 1
54 582 1
54 670 1
55 56 1
55 143 1
55 231 1
55 319 1
55 407 1
55 495 1
55 583 1
55 671 1
56 55 1
56 56 1
56 144 1
56 232 1
56 320 1
56 408 1
56 496 1
56 584 1
56 672 1
57 58 1
57 145 1
57 233 1
57 321 1
57 409 1
57 497 1
57 585 1
57 673 1
58 57 1
58 58 1
58 146 1
58 234 1
58 322 1
58 410 1
58 498 1
58 586 1
58 674 1
59 60 1
59 147 1
59 235 1
59 323 1
59 411 1
59 499 1
59 587 1
59 675 1
60 59 1
60 60 1
60 148 1
60 236 1
60 324 1
60 412 1
60 500 1
60 588 1
60 676 1
61 62 1
61 149 1
61 237 1
61 325 1
61 413 1
61 501 1
61 589 1
61 677 1
62 61 1
62 62 1
62 150 1
62 238 1
62 326 1
62 414 1
62 502 1
62 590 1
62 678 1
63 64 1
63 151 1
63 239 1
63 327 1
63 415 1
63 503 1
63 591 1
63 679 1
64 63 1
64 64 1
64 152 1
64 240 1
64 328 1
64 416 1
64 504 1
64 592 1
64 680 1
65 66 1
65 153 1
65 241 1
65 329 1
65 417 1
65 505 1
65 593 1
65 681 1
66 65 1
66 66 1
66 154 1
66 242 1
66 330 1
66 418 1
66 506 1
66 594 1
66 682 1
67 68 1
67 155 1
67 243 1
67 331 1
67 419 1
67 507 1
67 595 1
67 683 1
68 67 1
68 68 1
68 156 1
68 244 1
68 332 1
68 420 1
68 508 1
68 596 1
68 684 1
69 70 1
69 157 1
69 245 1
69 333 1
69 421 1
69 509 1
69 597 1
69 685 1
70 69 1
70 70 1
70 158 1
70 246 1
70 334 1
70 422 1
70 510 1
70 598 1
70 686 1
71 72 1
71 159 1
71 247 1
71 335 1
71 423 1
71 511 1
71 599 1
71 687 1
72 71 1
72 72 1
72 160 1
72 248 1
72 336 1
72 424 1
72 512 1
72 600 1
72 688 1
73 74 1
73 161 1
73 249 1
73 337 1
73 425 1
73 513 1
73 601 1
73 689 1
74 73 1
74 74 1
74 162 1
74 250 1
74 338 1
74 426 1
74 514 1
74 602 1
74 690 1
75 76 1
75 163 1
75 251 1
75 339 1
75 427 1
75 515 1
75 603 1
75 691 1
76 75 1
76 76 1
76 164 1
76 252 1
76 340 1
76 428 1
76 516 1
76 604 1
76 692 1
77 78 1
77 165 1
77 253 1
77 341 1
77 429 1
77 517 1
77 605 1
77 693 1
78 77 1
78 78 1
78 166 1
78 254 1
78 342 1
78 430 1
78 518 1
78 606 1
78 694 1
79 80 1
79 167 1
79 255 1
79 343 1
79 431 1
79 519 1
79 607 1
79 695 1
80 79 1
80 80 1
80 168 1
80 256 1
80 344 1
80 432 1
80 520 1
80 608 1
80 696 1
81 82 1
81 169 1
81 257 1
81 345 1
81 433 1
81 521 1
81 609 1
81 697 1
82 81 1
82 82 1
82 170 1
82 258 1
82 346 1
82 434 1
82 522 1
82 610 1
82 698 1
83 84 1
83 171 1
83 259 1
83 347 1
83 435 1
83 523 1
83 611 1
83 699 1
84 83 1
84 84 1
84 172 1
84 260 1
84 348 1
84 436 1
84 524 1
84 612 1
84 700 1
85 86 1
85 173 1
85 261 1
85 349 1
85 437 1
85 525 1
85 613 1
85 701 1
86 85 1
86 86 1
86 174 1
86 262 1
86 350 1
86 438 1
86 526 1
86 614 1
86 702 1
87 88 1
87 175 1
87 263 1
87 351 1
87 439 1
87 527 1
87 615 1
87 703 1
88 87 1
88 88 1
88 176 1
88 264 1
88 352 1
88 440 1
88 528 1
88 616 1
88 704 1
89 1 1
89 134 1
89 209 1
89 341 1
89 439 1
89 447 1
89 591 1
89 683 1
90 2 1
90 133 1
90 134 1
90 210 1
90 342 1
90 440 1
90 448 1
90 592 1
90 684 1
91 3 1
91 136 1
91 211 1
91 343 1
91 353 1
91 449 1
91 593 1
91 685 1
92 4 1
92 135 1
92 136 1
92 212 1
92 344 1
92 354 1
92 450 1
92 594 1
92 686 1
93 5 1
93 138 1
93 213 1
93 345 1
93 355 1
93 451 1
93 595 1
93 687 1
94 6 1
94 137 1
94 138 1
94 214 1
94 346 1
94 356 1
94 452 1
94 596 1
94 688 1
95 7 1
95 140 1
95 215 1
95 347 1
95 357 1
95 453 1
95 597 1
95 689 1
96 8 1
96 139 1
96 140 1
96 216 1
96 348 1
96 358 1
96 454 1
96 598 1
96 690 1
97 9 1
97 142 1
97 217 1
97 349 1
97 359 1
97 455 1
97 599 1
97 691 1
98 10 1
98 141 1
98 142 1
98 218 1
98 350 1
98 360 1
98 456 1
98 600 1
98 692 1
99 11 1
99 144 1
99 219 1
99 351 1
99 361 1
99 457 1
99 601 1
99 693 1
100 12 1
100 143 1
100 144 1
100 220 1
100 352 1
100 362 1
100 458 1
100 602 1
100 694 1
101 13 1
101 146 1
101 221 1
101 265 1
101 363 1
101 459 1
101 603 1
101 695 1
102 14 1
102 145 1
102 146 1
102 222 1
102 266 1
102 364 1
102 460 1
102 604 1
102 696 1
103 15 1
103 148 1
103 223 1
103 267 1
103 365 1
103 461 1
103 605 1
103 697 1
104 16 1
104 147 1
104 148 1
104 224 1
104 268 1
104 366 1
104 462 1
104 606 1
104 698 1
105 17 1
105 150 1
105 225 1
105 269 1
105 367 1
105 463 1
105 607 1
105 699 1
106 18 1
106 149 1
106 150 1
106 226 1
106 270 1
106 368 1
106 464 1
106 608 1
106 700 1
107 19 1
107 152 1
107 227 1
107 271 1
107 369 1
107 465 1
107 609 1
107 701 1
108 20 1
108 151 1
108 152 1
108 228 1
108 272 1
108 370 1
108 466 1
108 610 1
108 702 1
109 21 1
109 154 1
109 229 1
109 273 1
109 371 1
109 467 1
109 611 1
109 703 1
110 22 1
110 153 1
110 154 1
110 230 1
110 274 1
110 372 1
110 468 1
110 612 1
110 704 1
111 23 1
111 156 1
111 231 1
111 275 1
111 373 1
111 469 1
111 613 1
111 617 1
112 24 1
112 155 1
112 156 1
112 232 1
112 276 1
112 374 1
112 470 1
112 614 1
112 618 1
113 25 1
113 158 1
113 233 1
113 277 1
113 375 1
113 471 1
113 615 1
113 619 1
114 26 1
114 157 1
114 158 1
114 234 1
114 278 1
114 376 1
114 472 1
114 616 1
114 620 1
115 27 1
115 160 1
115 235 1
115 279 1
115 377 1
115 473 1
115 529 1
115 621 1
116 28 1
116 159 1
116 160 1
116 236 1
116 280 1
116 378 1
116 474 1
116 530 1
116 622 1
117 29 1
117 162 1
117 237 1
117 281 1
117 379 1
117 475 1
117 531 1
117 623 1
118 30 1
118 161 1
118 162 1
118 238 1
118 282 1
118 380 1
118 476 1
118 532 1
118 624 1
119 31 1
119 164 1
119 239 1
119 283 1
119 381 1
119 477 1
119 533 1
119 625 1
120 32 1
120 163 1
120 164 1
120 240 1
120 284 1
120 382 1
120 478 1
120 534 1
120 626 1
121 33 1
121 166 1
121 241 1
121 285 1
121 383 1
121 479 1
121 535 1
121 627 1
122 34 1
122 165 1
122 166 1
122 242 1
122 286 1
122 384 1
122 480 1
122 536 1
122 628 1
123 35 1
123 168 1
123 243 1
123 287 1
123 385 1
123 481 1
123 537 1
123 629 1
124 36 1
124 167 1
124 168 1
124 244 1
124 288 1
124 386 1
124 482 1
124 538 1
124 630 1
125 37 1
125 170 1
125 245 1
125 289 1
125 387 1
125 483 1
125 539 1
125 631 1
126 38 1
126 169 1
126 170 1
126 246 1
126 290 1
126 388 1
126 484 1
126 540 1
126 632 1
127 39 1
127 172 1
127 247 1
127 291 1
127 389 1
127 485 1
127 541 1
127 633 1
128 40 1
128 171 1
128 172 1
128 248 1
128 292 1
128 390 1
128 486 1
128 542 1
128 634 1
129 41 1
129 174 1
129 249 1
129 293 1
129 391 1
129 487 1
129 543 1
129 635 1
130 42 1
130 173 1
130 174 1
130 250 1
130 294 1
130 392 1
130 488 1
130 544 1
130 636 1
131 43 1
131 176 1
131 251 1
131 295 1
131 393 1
131 489 1
131 545 1
131 637 1
132 44 1
132 175 1
132 176 1
132 252 1
132 296 1
132 394 1
132 490 1
132 546 1
132 638 1
133 45 1
133 90 1
133 253 1
133 297 1
133 395 1
133 491 1
133 547 1
133 639 1
134 46 1
134 89 1
134 90 1
134 254 1
134 298 1
134 396 1
134 492 1
134 548 1
134 640 1
135 47 1
135 92 1
135 255 1
135 299 1
135 397 1
135 493 1
135 549 1
135 641 1
136 48 1
136 91 1
136 92 1
136 256 1
136 300 1
136 398 1
136 494 1
136 550 1
136 642 1
137 49 1
137 94 1
137 257 1
137 301 1
137 399 1
137 495 1
137 551 1
137 643 1
138 50 1
138 93 1
138 94 1
138 258 1
138 302 1
138 400 1
138 496 1
138 552 1
138 644 1
139 51 1
139 96 1
139 259 1
139 303 1
139 401 1
139 497 1
139 553 1
139 645 1
140 52 1
140 95 1
140 96 1
140 260 1
140 304 1
140 402 1
140 498 1
140 554 1
140 646 1
141 53 1
141 98 1
141 261 1
141 305 1
141 403 1
141 499 1
141 555 1
141 647 1
142 54 1
142 97 1
142 98 1
142 262 1
142 306 1
142 404 1
142 500 1
142 556 1
142 648 1
143 55 1
143 100 1
143 263 1
143 307 1
143 405 1
143 501 1
143 557 1
143 649 1
144 56 1
144 99 1
144 100 1
144 264 1
144 308 1
144 406 1
144 502 1
144 558 1
144 650 1
145 57 1
145 102 1
145 177 1
145 309 1
145 407 1
145 503 1
145 559 1
145 651 1
146 58 1
146 101 1
146 102 1
146 178 1
146 310 1
146 408 1
146 504 1
146 560 1
146 652 1
147 59 1
147 104 1
147 179 1
147 311 1
147 409 1
147 505 1
147 561 1
147 653 1
148 60 1
148 103 1
148 104 1
148 180 1
148 312 1
148 410 1
148 506 1
148 562 1
148 654 1
149 61 1
149 106 1
149 181 1
149 313 1
149 411 1
149 507 1
149 563 1
149 655 1
150 62 1
150 105 1
150 106 1
150 182 1
150 314 1
150 412 1
150 508 1
150 564 1
150 656 1
151 63 1
151 108 1
151 183 1
151 315 1
151 413 1
151 509 1
151 565 1
151 657 1
152 64 1
152 107 1
152 108 1
152 184 1
152 316 1
152 414 1
152 510 1
152 566 1
152 658 1
153 65 1
153 110 1
153 185 1
153 317 1
153 415 1
153 511 1
153 567 1
153 659 1
154 66 1
154 109 1
154 110 1
154 186 1
154 318 1
154 416 1
154 512 1
154 568 1
154 660 1
155 67 1
155 112 1
155 187 1
155 319 1
155 417 1
155 513 1
155 569 1
155 661 1
156 68 1
156 111 1
156 112 1
156 188 1
156 320 1
156 418 1
156 514 1
156 570 1
156 662 1
157 69 1
157 114 1
157 189 1
157 321 1
157 419 1
157 515 1
157 571 1
157 663 1
158 70 1
158 113 1
158 114 1
158 190 1
158 322 1
158 420 1
158 516 1
158 572 1
158 664 1
159 71 1
159 116 1
159 191 1
159 323 1
159 421 1
159 517 1
159 573 1
159 665 1
160 72 1
160 115 1
160 116 1
160 192 1
160 324 1
160 422 1
160 518 1
160 574 1
160 666 1
161 73 1
161 118 1
161 193 1
161 325 1
161 423 1
161 519 1
161 575 1
161 667 1
162 74 1
162 117 1
162 118 1
162 194 1
162 326 1
162 424 1
162 520 1
162 576 1
162 668 1
163 75 1
163 120 1
163 195 1
163 327 1
163 425 1
163 521 1
163 577 1
163 669 1
164 76 1
164 119 1
164 120 1
164 196 1
164 328 1
164 426 1
164 522 1
164 578 1
164 670 1
165 77 1
165 122 1
165 197 1
165 329 1
165 427 1
165 523 1
165 579 1
165 671 1
166 78 1
166 121 1
166 122 1
166 198 1
166 330 1
166 428 1
166 524 1
166 580 1
166 672 1
167 79 1
167 124 1
167 199 1
167 331 1
167 429 1
167 525 1
167 581 1
167 673 1
168 80 1
168 123 1
168 124 1
168 200 1
168 332 1
168 430 1
168 526 1
168 582 1
168 674 1
169 81 1
169 126 1
169 201 1
169 333 1
169 431 1
169 527 1
169 583 1
169 675 1
170 82 1
170 125 1
170 126 1
170 202 1
170 334 1
170 432 1
170 528 1
170 584 1
170 676 1
171 83 1
171 128 1
171 203 1
171 335 1
171 433 1
171 441 1
171 585 1
171 677 1
172 84 1
172 127 1
172 128 1
172 204 1
172 336 1
172 434 1
172 442 1
172 586 1
172 678 1
173 85 1
173 130 1
173 205 1
173 337 1
173 435 1
173 443 1
173 587 1
173 679 1
174 86 1
174 129 1
174 130 1
174 206 1
174 338 1
174 436 1
174 444 1
174 588 1
174 680 1
175 87 1
175 132 1
175 207 1
175 339 1
175 437 1
175 445 1
175 589 1
175 681 1
176 88 1
176 131 1
176 132 1
176 208 1
176 340 1
176 438 1
176 446 1
176 590 1
176 682 1
177 1 1
177 111 1
177 222 1
177 267 1
177 391 1
177 511 1
177 609 1
177 653 1
178 2 1
178 112 1
178 221 1
178 222 1
178 268 1
178 392 1
178 512 1
178 610 1
178 654 1
179 3 1
179 113 1
179 224 1
179 269 1
179 393 1
179 513 1
179 611 1
179 655 1
180 4 1
180 114 1
180 223 1
180 224 1
180 270 1
180 394 1
180 514 1
180 612 1
180 656 1
181 5 1
181 115 1
181 226 1
181 271 1
181 395 1
181 515 1
181 613 1
181 657 1
182 6 1
182 116 1
182 225 1
182 226 1
182 272 1
182 396 1
182 516 1
182 614 1
182 658 1
183 7 1
183 117 1
183 228 1
183 273 1
183 397 1
183 517 1
183 615 1
183 659 1
184 8 1
184 118 1
184 227 1
184 228 1
184 274 1
184 398 1
184 518 1
184 616 1
184 660 1
185 9 1
185 119 1
185 230 1
185 275 1
185 399 1
185 519 1
185 529 1
185 661 1
186 10 1
186 120 1
186 229 1
186 230 1
186 276 1
186 400 1
186 520 1
186 530 1
186 662 1
187 11 1
187 121 1
187 232 1
187 277 1
187 401 1
187 521 1
187 531 1
187 663 1
188 12 1
188 122 1
188 231 1
188 232 1
188 278 1
188 402 1
188 522 1
188 532 1
188 664 1
189 13 1
189 123 1
189 234 1
189 279 1
189 403 1
189 523 1
189 533 1
189 665 1
190 14 1
190 124 1
190 233 1
190 234 1
190 280 1
190 404 1
190 524 1
190 534 1
190 666 1
191 15 1
191 125 1
191 236 1
191 281 1
191 405 1
191 525 1
191 535 1
191 667 1
192 16 1
192 126 1
192 235 1
192 236 1
192 282 1
192 406 1
192 526 1
192 536 1
192 668 1
193 17 1
193 127 1
193 238 1
193 283 1
193 407 1
193 527 1
193 537 1
193 669 1
194 18 1
194 128 1
194 237 1
194 238 1
194 284 1
194 408 1
194 528 1
194 538 1
194 670 1
195 19 1
195 129 1
195 240 1
195 285 1
195 409 1
195 441 1
195 539 1
195 671 1
196 20 1
196 130 1
196 239 1
196 240 1
196 286 1
196 410 1
196 442 1
196 540 1
196 672 1
197 21 1
197 131 1
197 242 1
197 287 1
197 411 1
197 443 1
197 541 1
197 673 1
198 22 1
198 132 1
198 241 1
198 242 1
198 288 1
198 412 1
198 444 1
198 542 1
198 674 1
199 23 1
199 133 1
199 244 1
199 289 1
199 413 1
199 445 1
199 543 1
199 675 1
200 24 1
200 134 1
200 243 1
200 244 1
200 290 1
200 414 1
200 446 1
200 544 1
200 676 1
201 25 1
201 135 1
201 246 1
201 291 1
201 415 1
201 447 1
201 545 1
201 677 1
202 26 1
202 136 1
202 245 1
202 246 1
202 292 1
202 416 1
202 448 1
202 546 1
202 678 1
203 27 1
203 137 1
203 248 1
203 293 1
203 417 1
203 449 1
203 547 1
203 679 1
204 28 1
204 138 1
204 247 1
204 248 1
204 294 1
204 418 1
204 450 1
204 548 1
204 680 1
205 29 1
205 139 1
205 250 1
205 295 1
205 419 1
205 451 1
205 549 1
205 681 1
206 30 1
206 140 1
206 249 1
206 250 1
206 296 1
206 420 1
206 452 1
206 550 1
206 682 1
207 31 1
207 141 1
207 252 1
207 297 1
207 421 1
207 453 1
207 551 1
207 683 1
208 32 1
208 142 1
208 251 1
208 252 1
208 298 1
208 422 1
208 454 1
208 552 1
208 684 1
209 33 1
209 143 1
209 254 1
209 299 1
209 423 1
209 455 1
209 553 1
209 685 1
210 34 1
210 144 1
210 253 1
210 254 1
210 300 1
210 424 1
210 456 1
210 554 1
210 686 1
211 35 1
211 145 1
211 256 1
211 301 1
211 425 1
211 457 1
211 555 1
211 687 1
212 36 1
212 146 1
212 255 1
212 256 1
212 302 1
212 426 1
212 458 1
212 556 1
212 688 1
213 37 1
213 147 1
213 258 1
213 303 1
213 427 1
213 459 1
213 557 1
213 689 1
214 38 1
214 148 1
214 257 1
214 258 1
214 304 1
214 428 1
214 460 1
214 558 1
214 690 1
215 39 1
215 149 1
215 260 1
215 305 1
215 429 1
215 461 1
215 559 1
215 691 1
216 40 1
216 150 1
216 259 1
216 260 1
216 306 1
216 430 1
216 462 1
216 560 1
216 692 1
217 41 1
217 151 1
217 262 1
217 307 1
217 431 1
217 463 1
217 561 1
217 693 1
218 42 1
218 152 1
218 261 1
218 262 1
218 308 1
218 432 1
218 464 1
218 562 1
218 694 1
219 43 1
219 153 1
219 264 1
219 309 1
219 433 1
219 465 1
219 563 1
219 695 1
220 44 1
220 154 1
220 263 1
220 264 1
220 310 1
220 434 1
220 466 1
220 564 1
220 696 1
221 45 1
221 155 1
221 178 1
221 311 1
221 435 1
221 467 1
221 565 1
221 697 1
222 46 1
222 156 1
222 177 1
222 178 1
222 312 1
222 436 1
222 468 1
222 566 1
222 698 1
223 47 1
223 157 1
223 180 1
223 313 1
223 437 1
223 469 1
223 567 1
223 699 1
224 48 1
224 158 1
224 179 1
224 180 1
224 314 1
224 438 1
224 470 1
224 568 1
224 700 1
225 49 1
225 159 1
225 182 1
225 315 1
225 439 1
225 471 1
225 569 1
225 701 1
226 50 1
226 160 1
226 181 1
226 182 1
226 316 1
226 440 1
226 472 1
226 570 1
226 702 1
227 51 1
227 161 1
227 184 1
227 317 1
227 353 1
227 473 1
227 571 1
227 703 1
228 52 1
228 162 1
228 183 1
228 184 1
228 318 1
228 354 1
228 474 1
228 572 1
228 704 1
229 53 1
229 163 1
229 186 1
229 319 1
229 355 1
229 475 1
229 573 1
229 617 1
230 54 1
230 164 1
230 185 1
230 186 1
230 320 1
230 356 1
230 476 1
230 574 1
230 618 1
231 55 1
231 165 1
231 188 1
231 321 1
231 357 1
231 477 1
231 575 1
231 619 1
232 56 1
232 166 1
232 187 1
232 188 1
232 322 1
232 358 1
232 478 1
232 576 1
232 620 1
233 57 1
233 167 1
233 190 1
233 323 1
233 359 1
233 479 1
233 577 1
233 621 1
234 58 1
234 168 1
234 189 1
234 190 1
234 324 1
234 360 1
234 480 1
234 578 1
234 622 1
235 59 1
235 169 1
235 192 1
235 325 1
235 361 1
235 481 1
235 579 1
235 623 1
236 60 1
236 170 1
236 191 1
236 192 1
236 326 1
236 362 1
236 482 1
236 580 1
236 624 1
237 61 1
237 171 1
237 194 1
237 327 1
237 363 1
237 483 1
237 581 1
237 625 1
238 62 1
238 172 1
238 193 1
238 194 1
238 328 1
238 364 1
238 484 1
238 582 1
238 626 1
239 63 1
239 173 1
239 196 1
239 329 1
239 365 1
239 485 1
239 583 1
239 627 1
240 64 1
240 174 1
240 195 1
240 196 1
240 330 1
240 366 1
240 486 1
240 584 1
240 628 1
241 65 1
241 175 1
241 198 1
241 331 1
241 367 1
241 487 1
241 585 1
241 629 1
242 66 1
242 176 1
242 197 1
242 198 1
242 332 1
242 368 1
242 488 1
242 586 1
242 630 1
243 67 1
243 89 1
243 200 1
243 333 1
243 369 1
243 489 1
243 587 1
243 631 1
244 68 1
244 90 1
244 199 1
244 200 1
244 334 1
244 370 1
244 490 1
244 588 1
244 632 1
245 69 1
245 91 1
245 202 1
245 335 1
245 371 1
245 491 1
245 589 1
245 633 1
246 70 1
246 92 1
246 201 1
246 202 1
246 336 1
246 372 1
246 492 1
246 590 1
246 634 1
247 71 1
247 93 1
247 204 1
247 337 1
247 373 1
247 493 1
247 591 1
247 635 1
248 72 1
248 94 1
248 203 1
248 204 1
248 338 1
248 374 1
248 494 1
248 592 1
248 636 1
249 73 1
249 95 1
249 206 1
249 339 1
249 375 1
249 495 1
249 593 1
249 637 1
250 74 1
250 96 1
250 205 1
250 206 1
250 340 1
250 376 1
250 496 1
250 594 1
250 638 1
251 75 1
251 97 1
251 208 1
251 341 1
251 377 1
251 497 1
251 595 1
251 639 1
252 76 1
252 98 1
252 207 1
252 208 1
252 342 1
252 378 1
252 498 1
252 596 1
252 640 1
253 77 1
253 99 1
253 210 1
253 343 1
253 379 1
253 499 1
253 597 1
253 641 1
254 78 1
254 100 1
254 209 1
254 210 1
254 344 1
254 380 1
254 500 1
254 598 1
254 642 1
255 79 1
255 101 1
255 212 1
255 345 1
255 381 1
255 501 1
255 599 1
255 643 1
256 80 1
256 102 1
256 211 1
256 212 1
256 346 1
256 382 1
256 502 1
256 600 1
256 644 1
257 81 1
257 103 1
257 214 1
257 347 1
257 383 1
257 503 1
257 601 1
257 645 1
258 82 1
258 104 1
258 213 1
258 214 1
258 348 1
258 384 1
258 504 1
258 602 1
258 646 1
259 83 1
259 105 1
259 216 1
259 349 1
259 385 1
259 505 1
259 603 1
259 647 1
260 84 1
260 106 1
260 215 1
260 216 1
260 350 1
260 386 1
260 506 1
260 604 1
260 648 1
261 85 1
261 107 1
261 218 1
261 351 1
261 387 1
261 507 1
261 605 1
261 649 1
262 86 1
262 108 1
262 217 1
262 218 1
262 352 1
262 388 1
262 508 1
262 606 1
262 650 1
263 87 1
263 109 1
263 220 1
263 265 1
263 389 1
263 509 1
263 607 1
263 651 1
264 88 1
264 110 1
264 219 1
264 220 1
264 266 1
264 390 1
264 510 1
264 608 1
264 652 1
