%%MatrixMarket matrix coordinate integer general
% GF(4) labels 0,1,2=omega,3=omega+1; arithmetic is NOT integer arithmetic.
% Coordinate indices are 1-based; omitted entries are zero.
132 352 1056
1 1 2
1 45 1
1 89 1
1 133 1
1 177 1
1 221 1
1 265 1
1 309 1
2 2 2
2 46 1
2 90 1
2 134 1
2 178 1
2 222 1
2 266 1
2 310 1
3 3 2
3 47 1
3 91 1
3 135 1
3 179 1
3 223 1
3 267 1
3 311 1
4 4 2
4 48 1
4 92 1
4 136 1
4 180 1
4 224 1
4 268 1
4 312 1
5 5 2
5 49 1
5 93 1
5 137 1
5 181 1
5 225 1
5 269 1
5 313 1
6 6 2
6 50 1
6 94 1
6 138 1
6 182 1
6 226 1
6 270 1
6 314 1
7 7 2
7 51 1
7 95 1
7 139 1
7 183 1
7 227 1
7 271 1
7 315 1
8 8 2
8 52 1
8 96 1
8 140 1
8 184 1
8 228 1
8 272 1
8 316 1
9 9 2
9 53 1
9 97 1
9 141 1
9 185 1
9 229 1
9 273 1
9 317 1
10 10 2
10 54 1
10 98 1
10 142 1
10 186 1
10 230 1
10 274 1
10 318 1
11 11 2
11 55 1
11 99 1
11 143 1
11 187 1
11 231 1
11 275 1
11 319 1
12 12 2
12 56 1
12 100 1
12 144 1
12 188 1
12 232 1
12 276 1
12 320 1
13 13 2
13 57 1
13 101 1
13 145 1
13 189 1
13 233 1
13 277 1
13 321 1
14 14 2
14 58 1
14 102 1
14 146 1
14 190 1
14 234 1
14 278 1
14 322 1
15 15 2
15 59 1
15 103 1
15 147 1
15 191 1
15 235 1
15 279 1
15 323 1
16 16 2
16 60 1
16 104 1
16 148 1
16 192 1
16 236 1
16 280 1
16 324 1
17 17 2
17 61 1
17 105 1
17 149 1
17 193 1
17 237 1
17 281 1
17 325 1
18 18 2
18 62 1
18 106 1
18 150 1
18 194 1
18 238 1
18 282 1
18 326 1
19 19 2
19 63 1
19 107 1
19 151 1
19 195 1
19 239 1
19 283 1
19 327 1
20 20 2
20 64 1
20 108 1
20 152 1
20 196 1
20 240 1
20 284 1
20 328 1
21 21 2
21 65 1
21 109 1
21 153 1
21 197 1
21 241 1
21 285 1
21 329 1
22 22 2
22 66 1
22 110 1
22 154 1
22 198 1
22 242 1
22 286 1
22 330 1
23 23 2
23 67 1
23 111 1
23 155 1
23 199 1
23 243 1
23 287 1
23 331 1
24 24 2
24 68 1
24 112 1
24 156 1
24 200 1
24 244 1
24 288 1
24 332 1
25 25 2
25 69 1
25 113 1
25 157 1
25 201 1
25 245 1
25 289 1
25 333 1
26 26 2
26 70 1
26 114 1
26 158 1
26 202 1
26 246 1
26 290 1
26 334 1
27 27 2
27 71 1
27 115 1
27 159 1
27 203 1
27 247 1
27 291 1
27 335 1
28 28 2
28 72 1
28 116 1
28 160 1
28 204 1
28 248 1
28 292 1
28 336 1
29 29 2
29 73 1
29 117 1
29 161 1
29 205 1
29 249 1
29 293 1
29 337 1
30 30 2
30 74 1
30 118 1
30 162 1
30 206 1
30 250 1
30 294 1
30 338 1
31 31 2
31 75 1
31 119 1
31 163 1
31 207 1
31 251 1
31 295 1
31 339 1
32 32 2
32 76 1
32 120 1
32 164 1
32 208 1
32 252 1
32 296 1
32 340 1
33 33 2
33 77 1
33 121 1
33 165 1
33 209 1
33 253 1
33 297 1
33 341 1
34 34 2
34 78 1
34 122 1
34 166 1
34 210 1
34 254 1
34 298 1
34 342 1
35 35 2
35 79 1
35 123 1
35 167 1
35 211 1
35 255 1
35 299 1
35 343 1
36 36 2
36 80 1
36 124 1
36 168 1
36 212 1
36 256 1
36 300 1
36 344 1
37 37 2
37 81 1
37 125 1
37 169 1
37 213 1
37 257 1
37 301 1
37 345 1
38 38 2
38 82 1
38 126 1
38 170 1
38 214 1
38 258 1
38 302 1
38 346 1
39 39 2
39 83 1
39 127 1
39 171 1
39 215 1
39 259 1
39 303 1
39 347 1
40 40 2
40 84 1
40 128 1
40 172 1
40 216 1
40 260 1
40 304 1
40 348 1
41 41 2
41 85 1
41 129 1
41 173 1
41 217 1
41 261 1
41 305 1
41 349 1
42 42 2
42 86 1
42 130 1
42 174 1
42 218 1
42 262 1
42 306 1
42 350 1
43 43 2
43 87 1
43 131 1
43 175 1
43 219 1
43 263 1
43 307 1
43 351 1
44 44 2
44 88 1
44 132 1
44 176 1
44 220 1
44 264 1
44 308 1
44 352 1
45 1 1
45 67 2
45 105 1
45 171 1
45 220 1
45 224 1
45 296 1
45 342 1
46 2 1
46 68 2
46 106 1
46 172 1
46 177 1
46 225 1
46 297 1
46 343 1
47 3 1
47 69 2
47 107 1
47 173 1
47 178 1
47 226 1
47 298 1
47 344 1
48 4 1
48 70 2
48 108 1
48 174 1
48 179 1
48 227 1
48 299 1
48 345 1
49 5 1
49 71 2
49 109 1
49 175 1
49 180 1
49 228 1
49 300 1
49 346 1
50 6 1
50 72 2
50 110 1
50 176 1
50 181 1
50 229 1
50 301 1
50 347 1
51 7 1
51 73 2
51 111 1
51 133 1
51 182 1
51 230 1
51 302 1
51 348 1
52 8 1
52 74 2
52 112 1
52 134 1
52 183 1
52 231 1
52 303 1
52 349 1
53 9 1
53 75 2
53 113 1
53 135 1
53 184 1
53 232 1
53 304 1
53 350 1
54 10 1
54 76 2
54 114 1
54 136 1
54 185 1
54 233 1
54 305 1
54 351 1
55 11 1
55 77 2
55 115 1
55 137 1
55 186 1
55 234 1
55 306 1
55 352 1
56 12 1
56 78 2
56 116 1
56 138 1
56 187 1
56 235 1
56 307 1
56 309 1
57 13 1
57 79 2
57 117 1
57 139 1
57 188 1
57 236 1
57 308 1
57 310 1
58 14 1
58 80 2
58 118 1
58 140 1
58 189 1
58 237 1
58 265 1
58 311 1
59 15 1
59 81 2
59 119 1
59 141 1
59 190 1
59 238 1
59 266 1
59 312 1
60 16 1
60 82 2
60 120 1
60 142 1
60 191 1
60 239 1
60 267 1
60 313 1
61 17 1
61 83 2
61 121 1
61 143 1
61 192 1
61 240 1
61 268 1
61 314 1
62 18 1
62 84 2
62 122 1
62 144 1
62 193 1
62 241 1
62 269 1
62 315 1
63 19 1
63 85 2
63 123 1
63 145 1
63 194 1
63 242 1
63 270 1
63 316 1
64 20 1
64 86 2
64 124 1
64 146 1
64 195 1
64 243 1
64 271 1
64 317 1
65 21 1
65 87 2
65 125 1
65 147 1
65 196 1
65 244 1
65 272 1
65 318 1
66 22 1
66 88 2
66 126 1
66 148 1
66 197 1
66 245 1
66 273 1
66 319 1
67 23 1
67 45 2
67 127 1
67 149 1
67 198 1
67 246 1
67 274 1
67 320 1
68 24 1
68 46 2
68 128 1
68 150 1
68 199 1
68 247 1
68 275 1
68 321 1
69 25 1
69 47 2
69 129 1
69 151 1
69 200 1
69 248 1
69 276 1
69 322 1
70 26 1
70 48 2
70 130 1
70 152 1
70 201 1
70 249 1
70 277 1
70 323 1
71 27 1
71 49 2
71 131 1
71 153 1
71 202 1
71 250 1
71 278 1
71 324 1
72 28 1
72 50 2
72 132 1
72 154 1
72 203 1
72 251 1
72 279 1
72 325 1
73 29 1
73 51 2
73 89 1
73 155 1
73 204 1
73 252 1
73 280 1
73 326 1
74 30 1
74 52 2
74 90 1
74 156 1
74 205 1
74 253 1
74 281 1
74 327 1
75 31 1
75 53 2
75 91 1
75 157 1
75 206 1
75 254 1
75 282 1
75 328 1
76 32 1
76 54 2
76 92 1
76 158 1
76 207 1
76 255 1
76 283 1
76 329 1
77 33 1
77 55 2
77 93 1
77 159 1
77 208 1
77 256 1
77 284 1
77 330 1
78 34 1
78 56 2
78 94 1
78 160 1
78 209 1
78 257 1
78 285 1
78 331 1
79 35 1
79 57 2
79 95 1
79 161 1
79 210 1
79 258 1
79 286 1
79 332 1
80 36 1
80 58 2
80 96 1
80 162 1
80 211 1
80 259 1
80 287 1
80 333 1
81 37 1
81 59 2
81 97 1
81 163 1
81 212 1
81 260 1
81 288 1
81 334 1
82 38 1
82 60 2
82 98 1
82 164 1
82 213 1
82 261 1
82 289 1
82 335 1
83 39 1
83 61 2
83 99 1
83 165 1
83 214 1
83 262 1
83 290 1
83 336 1
84 40 1
84 62 2
84 100 1
84 166 1
84 215 1
84 263 1
84 291 1
84 337 1
85 41 1
85 63 2
85 101 1
85 167 1
85 216 1
85 264 1
85 292 1
85 338 1
86 42 1
86 64 2
86 102 1
86 168 1
86 217 1
86 221 1
86 293 1
86 339 1
87 43 1
87 65 2
87 103 1
87 169 1
87 218 1
87 222 1
87 294 1
87 340 1
88 44 1
88 66 2
88 104 1
88 170 1
88 219 1
88 223 1
88 295 1
88 341 1
89 1 1
89 56 1
89 111 2
89 134 1
89 196 1
89 256 1
89 305 1
89 327 1
90 2 1
90 57 1
90 112 2
90 135 1
90 197 1
90 257 1
90 306 1
90 328 1
91 3 1
91 58 1
91 113 2
91 136 1
91 198 1
91 258 1
91 307 1
91 329 1
92 4 1
92 59 1
92 114 2
92 137 1
92 199 1
92 259 1
92 308 1
92 330 1
93 5 1
93 60 1
93 115 2
93 138 1
93 200 1
93 260 1
93 265 1
93 331 1
94 6 1
94 61 1
94 116 2
94 139 1
94 201 1
94 261 1
94 266 1
94 332 1
95 7 1
95 62 1
95 117 2
95 140 1
95 202 1
95 262 1
95 267 1
95 333 1
96 8 1
96 63 1
96 118 2
96 141 1
96 203 1
96 263 1
96 268 1
96 334 1
97 9 1
97 64 1
97 119 2
97 142 1
97 204 1
97 264 1
97 269 1
97 335 1
98 10 1
98 65 1
98 120 2
98 143 1
98 205 1
98 221 1
98 270 1
98 336 1
99 11 1
99 66 1
99 121 2
99 144 1
99 206 1
99 222 1
99 271 1
99 337 1
100 12 1
100 67 1
100 122 2
100 145 1
100 207 1
100 223 1
100 272 1
100 338 1
101 13 1
101 68 1
101 123 2
101 146 1
101 208 1
101 224 1
101 273 1
101 339 1
102 14 1
102 69 1
102 124 2
102 147 1
102 209 1
102 225 1
102 274 1
102 340 1
103 15 1
103 70 1
103 125 2
103 148 1
103 210 1
103 226 1
103 275 1
103 341 1
104 16 1
104 71 1
104 126 2
104 149 1
104 211 1
104 227 1
104 276 1
104 342 1
105 17 1
105 72 1
105 127 2
105 150 1
105 212 1
105 228 1
105 277 1
105 343 1
106 18 1
106 73 1
106 128 2
106 151 1
106 213 1
106 229 1
106 278 1
106 344 1
107 19 1
107 74 1
107 129 2
107 152 1
107 214 1
107 230 1
107 279 1
107 345 1
108 20 1
108 75 1
108 130 2
108 153 1
108 215 1
108 231 1
108 280 1
108 346 1
109 21 1
109 76 1
109 131 2
109 154 1
109 216 1
109 232 1
109 281 1
109 347 1
110 22 1
110 77 1
110 132 2
110 155 1
110 217 1
110 233 1
110 282 1
110 348 1
111 23 1
111 78 1
111 89 2
111 156 1
111 218 1
111 234 1
111 283 1
111 349 1
112 24 1
112 79 1
112 90 2
112 157 1
112 219 1
112 235 1
112 284 1
112 350 1
113 25 1
113 80 1
113 91 2
113 158 1
113 220 1
113 236 1
113 285 1
113 351 1
114 26 1
114 81 1
114 92 2
114 159 1
114 177 1
114 237 1
114 286 1
114 352 1
115 27 1
115 82 1
115 93 2
115 160 1
115 178 1
115 238 1
115 287 1
115 309 1
116 28 1
116 83 1
116 94 2
116 161 1
116 179 1
116 239 1
116 288 1
116 310 1
117 29 1
117 84 1
117 95 2
117 162 1
117 180 1
117 240 1
117 289 1
117 311 1
118 30 1
118 85 1
118 96 2
118 163 1
118 181 1
118 241 1
118 290 1
118 312 1
119 31 1
119 86 1
119 97 2
119 164 1
119 182 1
119 242 1
119 291 1
119 313 1
120 32 1
120 87 1
120 98 2
120 165 1
120 183 1
120 243 1
120 292 1
120 314 1
121 33 1
121 88 1
121 99 2
121 166 1
121 184 1
121 244 1
121 293 1
121 315 1
122 34 1
122 45 1
122 100 2
122 167 1
122 185 1
122 245 1
122 294 1
122 316 1
123 35 1
123 46 1
123 101 2
123 168 1
123 186 1
123 246 1
123 295 1
123 317 1
124 36 1
124 47 1
124 102 2
124 169 1
124 187 1
124 247 1
124 296 1
124 318 1
125 37 1
125 48 1
125 103 2
125 170 1
125 188 1
125 248 1
125 297 1
125 319 1
126 38 1
126 49 1
126 104 2
126 171 1
126 189 1
126 249 1
126 298 1
126 320 1
127 39 1
127 50 1
127 105 2
127 172 1
127 190 1
127 250 1
127 299 1
127 321 1
128 40 1
128 51 1
128 106 2
128 173 1
128 191 1
128 251 1
128 300 1
128 322 1
129 41 1
129 52 1
129 107 2
129 174 1
129 192 1
129 252 1
129 301 1
129 323 1
130 42 1
130 53 1
130 108 2
130 175 1
130 193 1
130 253 1
130 302 1
130 324 1
131 43 1
131 54 1
131 109 2
131 176 1
131 194 1
131 254 1
131 303 1
131 325 1
132 44 1
132 55 1
132 110 2
132 133 1
132 195 1
132 255 1
132 304 1
132 326 1
