%%MatrixMarket matrix coordinate integer general
% Binary matrix over GF(2).
% Coordinate indices are 1-based; omitted entries are zero.
264 704 2244
1 1 1
1 135 1
1 183 1
1 311 1
1 354 1
1 447 1
1 565 1
1 653 1
2 2 1
2 136 1
2 184 1
2 312 1
2 353 1
2 354 1
2 448 1
2 566 1
2 654 1
3 3 1
3 137 1
3 185 1
3 313 1
3 356 1
3 449 1
3 567 1
3 655 1
4 4 1
4 138 1
4 186 1
4 314 1
4 355 1
4 356 1
4 450 1
4 568 1
4 656 1
5 5 1
5 139 1
5 187 1
5 315 1
5 358 1
5 451 1
5 569 1
5 657 1
6 6 1
6 140 1
6 188 1
6 316 1
6 357 1
6 358 1
6 452 1
6 570 1
6 658 1
7 7 1
7 141 1
7 189 1
7 317 1
7 360 1
7 453 1
7 571 1
7 659 1
8 8 1
8 142 1
8 190 1
8 318 1
8 359 1
8 360 1
8 454 1
8 572 1
8 660 1
9 9 1
9 143 1
9 191 1
9 319 1
9 362 1
9 455 1
9 573 1
9 661 1
10 10 1
10 144 1
10 192 1
10 320 1
10 361 1
10 362 1
10 456 1
10 574 1
10 662 1
11 11 1
11 145 1
11 193 1
11 321 1
11 364 1
11 457 1
11 575 1
11 663 1
12 12 1
12 146 1
12 194 1
12 322 1
12 363 1
12 364 1
12 458 1
12 576 1
12 664 1
13 13 1
13 147 1
13 195 1
13 323 1
13 366 1
13 459 1
13 577 1
13 665 1
14 14 1
14 148 1
14 196 1
14 324 1
14 365 1
14 366 1
14 460 1
14 578 1
14 666 1
15 15 1
15 149 1
15 197 1
15 325 1
15 368 1
15 461 1
15 579 1
15 667 1
16 16 1
16 150 1
16 198 1
16 326 1
16 367 1
16 368 1
16 462 1
16 580 1
16 668 1
17 17 1
17 151 1
17 199 1
17 327 1
17 370 1
17 463 1
17 581 1
17 669 1
18 18 1
18 152 1
18 200 1
18 328 1
18 369 1
18 370 1
18 464 1
18 582 1
18 670 1
19 19 1
19 153 1
19 201 1
19 329 1
19 372 1
19 465 1
19 583 1
19 671 1
20 20 1
20 154 1
20 202 1
20 330 1
20 371 1
20 372 1
20 466 1
20 584 1
20 672 1
21 21 1
21 155 1
21 203 1
21 331 1
21 374 1
21 467 1
21 585 1
21 673 1
22 22 1
22 156 1
22 204 1
22 332 1
22 373 1
22 374 1
22 468 1
22 586 1
22 674 1
23 23 1
23 157 1
23 205 1
23 333 1
23 376 1
23 469 1
23 587 1
23 675 1
24 24 1
24 158 1
24 206 1
24 334 1
24 375 1
24 376 1
24 470 1
24 588 1
24 676 1
25 25 1
25 159 1
25 207 1
25 335 1
25 378 1
25 471 1
25 589 1
25 677 1
26 26 1
26 160 1
26 208 1
26 336 1
26 377 1
26 378 1
26 472 1
26 590 1
26 678 1
27 27 1
27 161 1
27 209 1
27 337 1
27 380 1
27 473 1
27 591 1
27 679 1
28 28 1
28 162 1
28 210 1
28 338 1
28 379 1
28 380 1
28 474 1
28 592 1
28 680 1
29 29 1
29 163 1
29 211 1
29 339 1
29 382 1
29 475 1
29 593 1
29 681 1
30 30 1
30 164 1
30 212 1
30 340 1
30 381 1
30 382 1
30 476 1
30 594 1
30 682 1
31 31 1
31 165 1
31 213 1
31 341 1
31 384 1
31 477 1
31 595 1
31 683 1
32 32 1
32 166 1
32 214 1
32 342 1
32 383 1
32 384 1
32 478 1
32 596 1
32 684 1
33 33 1
33 167 1
33 215 1
33 343 1
33 386 1
33 479 1
33 597 1
33 685 1
34 34 1
34 168 1
34 216 1
34 344 1
34 385 1
34 386 1
34 480 1
34 598 1
34 686 1
35 35 1
35 169 1
35 217 1
35 345 1
35 388 1
35 481 1
35 599 1
35 687 1
36 36 1
36 170 1
36 218 1
36 346 1
36 387 1
36 388 1
36 482 1
36 600 1
36 688 1
37 37 1
37 171 1
37 219 1
37 347 1
37 390 1
37 483 1
37 601 1
37 689 1
38 38 1
38 172 1
38 220 1
38 348 1
38 389 1
38 390 1
38 484 1
38 602 1
38 690 1
39 39 1
39 173 1
39 221 1
39 349 1
39 392 1
39 485 1
39 603 1
39 691 1
40 40 1
40 174 1
40 222 1
40 350 1
40 391 1
40 392 1
40 486 1
40 604 1
40 692 1
41 41 1
41 175 1
41 223 1
41 351 1
41 394 1
41 487 1
41 605 1
41 693 1
42 42 1
42 176 1
42 224 1
42 352 1
42 393 1
42 394 1
42 488 1
42 606 1
42 694 1
43 43 1
43 89 1
43 225 1
43 265 1
43 396 1
43 489 1
43 607 1
43 695 1
44 44 1
44 90 1
44 226 1
44 266 1
44 395 1
44 396 1
44 490 1
44 608 1
44 696 1
45 45 1
45 91 1
45 227 1
45 267 1
45 398 1
45 491 1
45 609 1
45 697 1
46 46 1
46 92 1
46 228 1
46 268 1
46 397 1
46 398 1
46 492 1
46 610 1
46 698 1
47 47 1
47 93 1
47 229 1
47 269 1
47 400 1
47 493 1
47 611 1
47 699 1
48 48 1
48 94 1
48 230 1
48 270 1
48 399 1
48 400 1
48 494 1
48 612 1
48 700 1
49 49 1
49 95 1
49 231 1
49 271 1
49 402 1
49 495 1
49 613 1
49 701 1
50 50 1
50 96 1
50 232 1
50 272 1
50 401 1
50 402 1
50 496 1
50 614 1
50 702 1
51 51 1
51 97 1
51 233 1
51 273 1
51 404 1
51 497 1
51 615 1
51 703 1
52 52 1
52 98 1
52 234 1
52 274 1
52 403 1
52 404 1
52 498 1
52 616 1
52 704 1
53 53 1
53 99 1
53 235 1
53 275 1
53 406 1
53 499 1
53 529 1
53 617 1
54 54 1
54 100 1
54 236 1
54 276 1
54 405 1
54 406 1
54 500 1
54 530 1
54 618 1
55 55 1
55 101 1
55 237 1
55 277 1
55 408 1
55 501 1
55 531 1
55 619 1
56 56 1
56 102 1
56 238 1
56 278 1
56 407 1
56 408 1
56 502 1
56 532 1
56 620 1
57 57 1
57 103 1
57 239 1
57 279 1
57 410 1
57 503 1
57 533 1
57 621 1
58 58 1
58 104 1
58 240 1
58 280 1
58 409 1
58 410 1
58 504 1
58 534 1
58 622 1
59 59 1
59 105 1
59 241 1
59 281 1
59 412 1
59 505 1
59 535 1
59 623 1
60 60 1
60 106 1
60 242 1
60 282 1
60 411 1
60 412 1
60 506 1
60 536 1
60 624 1
61 61 1
61 107 1
61 243 1
61 283 1
61 414 1
61 507 1
61 537 1
61 625 1
62 62 1
62 108 1
62 244 1
62 284 1
62 413 1
62 414 1
62 508 1
62 538 1
62 626 1
63 63 1
63 109 1
63 245 1
63 285 1
63 416 1
63 509 1
63 539 1
63 627 1
64 64 1
64 110 1
64 246 1
64 286 1
64 415 1
64 416 1
64 510 1
64 540 1
64 628 1
65 65 1
65 111 1
65 247 1
65 287 1
65 418 1
65 511 1
65 541 1
65 629 1
66 66 1
66 112 1
66 248 1
66 288 1
66 417 1
66 418 1
66 512 1
66 542 1
66 630 1
67 67 1
67 113 1
67 249 1
67 289 1
67 420 1
67 513 1
67 543 1
67 631 1
68 68 1
68 114 1
68 250 1
68 290 1
68 419 1
68 420 1
68 514 1
68 544 1
68 632 1
69 69 1
69 115 1
69 251 1
69 291 1
69 422 1
69 515 1
69 545 1
69 633 1
70 70 1
70 116 1
70 252 1
70 292 1
70 421 1
70 422 1
70 516 1
70 546 1
70 634 1
71 71 1
71 117 1
71 253 1
71 293 1
71 424 1
71 517 1
71 547 1
71 635 1
72 72 1
72 118 1
72 254 1
72 294 1
72 423 1
72 424 1
72 518 1
72 548 1
72 636 1
73 73 1
73 119 1
73 255 1
73 295 1
73 426 1
73 519 1
73 549 1
73 637 1
74 74 1
74 120 1
74 256 1
74 296 1
74 425 1
74 426 1
74 520 1
74 550 1
74 638 1
75 75 1
75 121 1
75 257 1
75 297 1
75 428 1
75 521 1
75 551 1
75 639 1
76 76 1
76 122 1
76 258 1
76 298 1
76 427 1
76 428 1
76 522 1
76 552 1
76 640 1
77 77 1
77 123 1
77 259 1
77 299 1
77 430 1
77 523 1
77 553 1
77 641 1
78 78 1
78 124 1
78 260 1
78 300 1
78 429 1
78 430 1
78 524 1
78 554 1
78 642 1
79 79 1
79 125 1
79 261 1
79 301 1
79 432 1
79 525 1
79 555 1
79 643 1
80 80 1
80 126 1
80 262 1
80 302 1
80 431 1
80 432 1
80 526 1
80 556 1
80 644 1
81 81 1
81 127 1
81 263 1
81 303 1
81 434 1
81 527 1
81 557 1
81 645 1
82 82 1
82 128 1
82 264 1
82 304 1
82 433 1
82 434 1
82 528 1
82 558 1
82 646 1
83 83 1
83 129 1
83 177 1
83 305 1
83 436 1
83 441 1
83 559 1
83 647 1
84 84 1
84 130 1
84 178 1
84 306 1
84 435 1
84 436 1
84 442 1
84 560 1
84 648 1
85 85 1
85 131 1
85 179 1
85 307 1
85 438 1
85 443 1
85 561 1
85 649 1
86 86 1
86 132 1
86 180 1
86 308 1
86 437 1
86 438 1
86 444 1
86 562 1
86 650 1
87 87 1
87 133 1
87 181 1
87 309 1
87 440 1
87 445 1
87 563 1
87 651 1
88 88 1
88 134 1
88 182 1
88 310 1
88 439 1
88 440 1
88 446 1
88 564 1
88 652 1
89 1 1
89 127 1
89 239 1
89 283 1
89 391 1
89 442 1
89 591 1
89 635 1
90 2 1
90 128 1
90 240 1
90 284 1
90 392 1
90 441 1
90 442 1
90 592 1
90 636 1
91 3 1
91 129 1
91 241 1
91 285 1
91 393 1
91 444 1
91 593 1
91 637 1
92 4 1
92 130 1
92 242 1
92 286 1
92 394 1
92 443 1
92 444 1
92 594 1
92 638 1
93 5 1
93 131 1
93 243 1
93 287 1
93 395 1
93 446 1
93 595 1
93 639 1
94 6 1
94 132 1
94 244 1
94 288 1
94 396 1
94 445 1
94 446 1
94 596 1
94 640 1
95 7 1
95 133 1
95 245 1
95 289 1
95 397 1
95 448 1
95 597 1
95 641 1
96 8 1
96 134 1
96 246 1
96 290 1
96 398 1
96 447 1
96 448 1
96 598 1
96 642 1
97 9 1
97 135 1
97 247 1
97 291 1
97 399 1
97 450 1
97 599 1
97 643 1
98 10 1
98 136 1
98 248 1
98 292 1
98 400 1
98 449 1
98 450 1
98 600 1
98 644 1
99 11 1
99 137 1
99 249 1
99 293 1
99 401 1
99 452 1
99 601 1
99 645 1
100 12 1
100 138 1
100 250 1
100 294 1
100 402 1
100 451 1
100 452 1
100 602 1
100 646 1
101 13 1
101 139 1
101 251 1
101 295 1
101 403 1
101 454 1
101 603 1
101 647 1
102 14 1
102 140 1
102 252 1
102 296 1
102 404 1
102 453 1
102 454 1
102 604 1
102 648 1
103 15 1
103 141 1
103 253 1
103 297 1
103 405 1
103 456 1
103 605 1
103 649 1
104 16 1
104 142 1
104 254 1
104 298 1
104 406 1
104 455 1
104 456 1
104 606 1
104 650 1
105 17 1
105 143 1
105 255 1
105 299 1
105 407 1
105 458 1
105 607 1
105 651 1
106 18 1
106 144 1
106 256 1
106 300 1
106 408 1
106 457 1
106 458 1
106 608 1
106 652 1
107 19 1
107 145 1
107 257 1
107 301 1
107 409 1
107 460 1
107 609 1
107 653 1
108 20 1
108 146 1
108 258 1
108 302 1
108 410 1
108 459 1
108 460 1
108 610 1
108 654 1
109 21 1
109 147 1
109 259 1
109 303 1
109 411 1
109 462 1
109 611 1
109 655 1
110 22 1
110 148 1
110 260 1
110 304 1
110 412 1
110 461 1
110 462 1
110 612 1
110 656 1
111 23 1
111 149 1
111 261 1
111 305 1
111 413 1
111 464 1
111 613 1
111 657 1
112 24 1
112 150 1
112 262 1
112 306 1
112 414 1
112 463 1
112 464 1
112 614 1
112 658 1
113 25 1
113 151 1
113 263 1
113 307 1
113 415 1
113 466 1
113 615 1
113 659 1
114 26 1
114 152 1
114 264 1
114 308 1
114 416 1
114 465 1
114 466 1
114 616 1
114 660 1
115 27 1
115 153 1
115 177 1
115 309 1
115 417 1
115 468 1
115 529 1
115 661 1
116 28 1
116 154 1
116 178 1
116 310 1
116 418 1
116 467 1
116 468 1
116 530 1
116 662 1
117 29 1
117 155 1
117 179 1
117 311 1
117 419 1
117 470 1
117 531 1
117 663 1
118 30 1
118 156 1
118 180 1
118 312 1
118 420 1
118 469 1
118 470 1
118 532 1
118 664 1
119 31 1
119 157 1
119 181 1
119 313 1
119 421 1
119 472 1
119 533 1
119 665 1
120 32 1
120 158 1
120 182 1
120 314 1
120 422 1
120 471 1
120 472 1
120 534 1
120 666 1
121 33 1
121 159 1
121 183 1
121 315 1
121 423 1
121 474 1
121 535 1
121 667 1
122 34 1
122 160 1
122 184 1
122 316 1
122 424 1
122 473 1
122 474 1
122 536 1
122 668 1
123 35 1
123 161 1
123 185 1
123 317 1
123 425 1
123 476 1
123 537 1
123 669 1
124 36 1
124 162 1
124 186 1
124 318 1
124 426 1
124 475 1
124 476 1
124 538 1
124 670 1
125 37 1
125 163 1
125 187 1
125 319 1
125 427 1
125 478 1
125 539 1
125 671 1
126 38 1
126 164 1
126 188 1
126 320 1
126 428 1
126 477 1
126 478 1
126 540 1
126 672 1
127 39 1
127 165 1
127 189 1
127 321 1
127 429 1
127 480 1
127 541 1
127 673 1
128 40 1
128 166 1
128 190 1
128 322 1
128 430 1
128 479 1
128 480 1
128 542 1
128 674 1
129 41 1
129 167 1
129 191 1
129 323 1
129 431 1
129 482 1
129 543 1
129 675 1
130 42 1
130 168 1
130 192 1
130 324 1
130 432 1
130 481 1
130 482 1
130 544 1
130 676 1
131 43 1
131 169 1
131 193 1
131 325 1
131 433 1
131 484 1
131 545 1
131 677 1
132 44 1
132 170 1
132 194 1
132 326 1
132 434 1
132 483 1
132 484 1
132 546 1
132 678 1
133 45 1
133 171 1
133 195 1
133 327 1
133 435 1
133 486 1
133 547 1
133 679 1
134 46 1
134 172 1
134 196 1
134 328 1
134 436 1
134 485 1
134 486 1
134 548 1
134 680 1
135 47 1
135 173 1
135 197 1
135 329 1
135 437 1
135 488 1
135 549 1
135 681 1
136 48 1
136 174 1
136 198 1
136 330 1
136 438 1
136 487 1
136 488 1
136 550 1
136 682 1
137 49 1
137 175 1
137 199 1
137 331 1
137 439 1
137 490 1
137 551 1
137 683 1
138 50 1
138 176 1
138 200 1
138 332 1
138 440 1
138 489 1
138 490 1
138 552 1
138 684 1
139 51 1
139 89 1
139 201 1
139 333 1
139 353 1
139 492 1
139 553 1
139 685 1
140 52 1
140 90 1
140 202 1
140 334 1
140 354 1
140 491 1
140 492 1
140 554 1
140 686 1
141 53 1
141 91 1
141 203 1
141 335 1
141 355 1
141 494 1
141 555 1
141 687 1
142 54 1
142 92 1
142 204 1
142 336 1
142 356 1
142 493 1
142 494 1
142 556 1
142 688 1
143 55 1
143 93 1
143 205 1
143 337 1
143 357 1
143 496 1
143 557 1
143 689 1
144 56 1
144 94 1
144 206 1
144 338 1
144 358 1
144 495 1
144 496 1
144 558 1
144 690 1
145 57 1
145 95 1
145 207 1
145 339 1
145 359 1
145 498 1
145 559 1
145 691 1
146 58 1
146 96 1
146 208 1
146 340 1
146 360 1
146 497 1
146 498 1
146 560 1
146 692 1
147 59 1
147 97 1
147 209 1
147 341 1
147 361 1
147 500 1
147 561 1
147 693 1
148 60 1
148 98 1
148 210 1
148 342 1
148 362 1
148 499 1
148 500 1
148 562 1
148 694 1
149 61 1
149 99 1
149 211 1
149 343 1
149 363 1
149 502 1
149 563 1
149 695 1
150 62 1
150 100 1
150 212 1
150 344 1
150 364 1
150 501 1
150 502 1
150 564 1
150 696 1
151 63 1
151 101 1
151 213 1
151 345 1
151 365 1
151 504 1
151 565 1
151 697 1
152 64 1
152 102 1
152 214 1
152 346 1
152 366 1
152 503 1
152 504 1
152 566 1
152 698 1
153 65 1
153 103 1
153 215 1
153 347 1
153 367 1
153 506 1
153 567 1
153 699 1
154 66 1
154 104 1
154 216 1
154 348 1
154 368 1
154 505 1
154 506 1
154 568 1
154 700 1
155 67 1
155 105 1
155 217 1
155 349 1
155 369 1
155 508 1
155 569 1
155 701 1
156 68 1
156 106 1
156 218 1
156 350 1
156 370 1
156 507 1
156 508 1
156 570 1
156 702 1
157 69 1
157 107 1
157 219 1
157 351 1
157 371 1
157 510 1
157 571 1
157 703 1
158 70 1
158 108 1
158 220 1
158 352 1
158 372 1
158 509 1
158 510 1
158 572 1
158 704 1
159 71 1
159 109 1
159 221 1
159 265 1
159 373 1
159 512 1
159 573 1
159 617 1
160 72 1
160 110 1
160 222 1
160 266 1
160 374 1
160 511 1
160 512 1
160 574 1
160 618 1
161 73 1
161 111 1
161 223 1
161 267 1
161 375 1
161 514 1
161 575 1
161 619 1
162 74 1
162 112 1
162 224 1
162 268 1
162 376 1
162 513 1
162 514 1
162 576 1
162 620 1
163 75 1
163 113 1
163 225 1
163 269 1
163 377 1
163 516 1
163 577 1
163 621 1
164 76 1
164 114 1
164 226 1
164 270 1
164 378 1
164 515 1
164 516 1
164 578 1
164 622 1
165 77 1
165 115 1
165 227 1
165 271 1
165 379 1
165 518 1
165 579 1
165 623 1
166 78 1
166 116 1
166 228 1
166 272 1
166 380 1
166 517 1
166 518 1
166 580 1
166 624 1
167 79 1
167 117 1
167 229 1
167 273 1
167 381 1
167 520 1
167 581 1
167 625 1
168 80 1
168 118 1
168 230 1
168 274 1
168 382 1
168 519 1
168 520 1
168 582 1
168 626 1
169 81 1
169 119 1
169 231 1
169 275 1
169 383 1
169 522 1
169 583 1
169 627 1
170 82 1
170 120 1
170 232 1
170 276 1
170 384 1
170 521 1
170 522 1
170 584 1
170 628 1
171 83 1
171 121 1
171 233 1
171 277 1
171 385 1
171 524 1
171 585 1
171 629 1
172 84 1
172 122 1
172 234 1
172 278 1
172 386 1
172 523 1
172 524 1
172 586 1
172 630 1
173 85 1
173 123 1
173 235 1
173 279 1
173 387 1
173 526 1
173 587 1
173 631 1
174 86 1
174 124 1
174 236 1
174 280 1
174 388 1
174 525 1
174 526 1
174 588 1
174 632 1
175 87 1
175 125 1
175 237 1
175 281 1
175 389 1
175 528 1
175 589 1
175 633 1
176 88 1
176 126 1
176 238 1
176 282 1
176 390 1
176 527 1
176 528 1
176 590 1
176 634 1
177 1 1
177 159 1
177 229 1
177 317 1
177 439 1
177 511 1
177 530 1
177 703 1
178 2 1
178 160 1
178 230 1
178 318 1
178 440 1
178 512 1
178 529 1
178 530 1
178 704 1
179 3 1
179 161 1
179 231 1
179 319 1
179 353 1
179 513 1
179 532 1
179 617 1
180 4 1
180 162 1
180 232 1
180 320 1
180 354 1
180 514 1
180 531 1
180 532 1
180 618 1
181 5 1
181 163 1
181 233 1
181 321 1
181 355 1
181 515 1
181 534 1
181 619 1
182 6 1
182 164 1
182 234 1
182 322 1
182 356 1
182 516 1
182 533 1
182 534 1
182 620 1
183 7 1
183 165 1
183 235 1
183 323 1
183 357 1
183 517 1
183 536 1
183 621 1
184 8 1
184 166 1
184 236 1
184 324 1
184 358 1
184 518 1
184 535 1
184 536 1
184 622 1
185 9 1
185 167 1
185 237 1
185 325 1
185 359 1
185 519 1
185 538 1
185 623 1
186 10 1
186 168 1
186 238 1
186 326 1
186 360 1
186 520 1
186 537 1
186 538 1
186 624 1
187 11 1
187 169 1
187 239 1
187 327 1
187 361 1
187 521 1
187 540 1
187 625 1
188 12 1
188 170 1
188 240 1
188 328 1
188 362 1
188 522 1
188 539 1
188 540 1
188 626 1
189 13 1
189 171 1
189 241 1
189 329 1
189 363 1
189 523 1
189 542 1
189 627 1
190 14 1
190 172 1
190 242 1
190 330 1
190 364 1
190 524 1
190 541 1
190 542 1
190 628 1
191 15 1
191 173 1
191 243 1
191 331 1
191 365 1
191 525 1
191 544 1
191 629 1
192 16 1
192 174 1
192 244 1
192 332 1
192 366 1
192 526 1
192 543 1
192 544 1
192 630 1
193 17 1
193 175 1
193 245 1
193 333 1
193 367 1
193 527 1
193 546 1
193 631 1
194 18 1
194 176 1
194 246 1
194 334 1
194 368 1
194 528 1
194 545 1
194 546 1
194 632 1
195 19 1
195 89 1
195 247 1
195 335 1
195 369 1
195 441 1
195 548 1
195 633 1
196 20 1
196 90 1
196 248 1
196 336 1
196 370 1
196 442 1
196 547 1
196 548 1
196 634 1
197 21 1
197 91 1
197 249 1
197 337 1
197 371 1
197 443 1
197 550 1
197 635 1
198 22 1
198 92 1
198 250 1
198 338 1
198 372 1
198 444 1
198 549 1
198 550 1
198 636 1
199 23 1
199 93 1
199 251 1
199 339 1
199 373 1
199 445 1
199 552 1
199 637 1
200 24 1
200 94 1
200 252 1
200 340 1
200 374 1
200 446 1
200 551 1
200 552 1
200 638 1
201 25 1
201 95 1
201 253 1
201 341 1
201 375 1
201 447 1
201 554 1
201 639 1
202 26 1
202 96 1
202 254 1
202 342 1
202 376 1
202 448 1
202 553 1
202 554 1
202 640 1
203 27 1
203 97 1
203 255 1
203 343 1
203 377 1
203 449 1
203 556 1
203 641 1
204 28 1
204 98 1
204 256 1
204 344 1
204 378 1
204 450 1
204 555 1
204 556 1
204 642 1
205 29 1
205 99 1
205 257 1
205 345 1
205 379 1
205 451 1
205 558 1
205 643 1
206 30 1
206 100 1
206 258 1
206 346 1
206 380 1
206 452 1
206 557 1
206 558 1
206 644 1
207 31 1
207 101 1
207 259 1
207 347 1
207 381 1
207 453 1
207 560 1
207 645 1
208 32 1
208 102 1
208 260 1
208 348 1
208 382 1
208 454 1
208 559 1
208 560 1
208 646 1
209 33 1
209 103 1
209 261 1
209 349 1
209 383 1
209 455 1
209 562 1
209 647 1
210 34 1
210 104 1
210 262 1
210 350 1
210 384 1
210 456 1
210 561 1
210 562 1
210 648 1
211 35 1
211 105 1
211 263 1
211 351 1
211 385 1
211 457 1
211 564 1
211 649 1
212 36 1
212 106 1
212 264 1
212 352 1
212 386 1
212 458 1
212 563 1
212 564 1
212 650 1
213 37 1
213 107 1
213 177 1
213 265 1
213 387 1
213 459 1
213 566 1
213 651 1
214 38 1
214 108 1
214 178 1
214 266 1
214 388 1
214 460 1
214 565 1
214 566 1
214 652 1
215 39 1
215 109 1
215 179 1
215 267 1
215 389 1
215 461 1
215 568 1
215 653 1
216 40 1
216 110 1
216 180 1
216 268 1
216 390 1
216 462 1
216 567 1
216 568 1
216 654 1
217 41 1
217 111 1
217 181 1
217 269 1
217 391 1
217 463 1
217 570 1
217 655 1
218 42 1
218 112 1
218 182 1
218 270 1
218 392 1
218 464 1
218 569 1
218 570 1
218 656 1
219 43 1
219 113 1
219 183 1
219 271 1
219 393 1
219 465 1
219 572 1
219 657 1
220 44 1
220 114 1
220 184 1
220 272 1
220 394 1
220 466 1
220 571 1
220 572 1
220 658 1
221 45 1
221 115 1
221 185 1
221 273 1
221 395 1
221 467 1
221 574 1
221 659 1
222 46 1
222 116 1
222 186 1
222 274 1
222 396 1
222 468 1
222 573 1
222 574 1
222 660 1
223 47 1
223 117 1
223 187 1
223 275 1
223 397 1
223 469 1
223 576 1
223 661 1
224 48 1
224 118 1
224 188 1
224 276 1
224 398 1
224 470 1
224 575 1
224 576 1
224 662 1
225 49 1
225 119 1
225 189 1
225 277 1
225 399 1
225 471 1
225 578 1
225 663 1
226 50 1
226 120 1
226 190 1
226 278 1
226 400 1
226 472 1
226 577 1
226 578 1
226 664 1
227 51 1
227 121 1
227 191 1
227 279 1
227 401 1
227 473 1
227 580 1
227 665 1
228 52 1
228 122 1
228 192 1
228 280 1
228 402 1
228 474 1
228 579 1
228 580 1
228 666 1
229 53 1
229 123 1
229 193 1
229 281 1
229 403 1
229 475 1
229 582 1
229 667 1
230 54 1
230 124 1
230 194 1
230 282 1
230 404 1
230 476 1
230 581 1
230 582 1
230 668 1
231 55 1
231 125 1
231 195 1
231 283 1
231 405 1
231 477 1
231 584 1
231 669 1
232 56 1
232 126 1
232 196 1
232 284 1
232 406 1
232 478 1
232 583 1
232 584 1
232 670 1
233 57 1
233 127 1
233 197 1
233 285 1
233 407 1
233 479 1
233 586 1
233 671 1
234 58 1
234 128 1
234 198 1
234 286 1
234 408 1
234 480 1
234 585 1
234 586 1
234 672 1
235 59 1
235 129 1
235 199 1
235 287 1
235 409 1
235 481 1
235 588 1
235 673 1
236 60 1
236 130 1
236 200 1
236 288 1
236 410 1
236 482 1
236 587 1
236 588 1
236 674 1
237 61 1
237 131 1
237 201 1
237 289 1
237 411 1
237 483 1
237 590 1
237 675 1
238 62 1
238 132 1
238 202 1
238 290 1
238 412 1
238 484 1
238 589 1
238 590 1
238 676 1
239 63 1
239 133 1
239 203 1
239 291 1
239 413 1
239 485 1
239 592 1
239 677 1
240 64 1
240 134 1
240 204 1
240 292 1
240 414 1
240 486 1
240 591 1
240 592 1
240 678 1
241 65 1
241 135 1
241 205 1
241 293 1
241 415 1
241 487 1
241 594 1
241 679 1
242 66 1
242 136 1
242 206 1
242 294 1
242 416 1
242 488 1
242 593 1
242 594 1
242 680 1
243 67 1
243 137 1
243 207 1
243 295 1
243 417 1
243 489 1
243 596 1
243 681 1
244 68 1
244 138 1
244 208 1
244 296 1
244 418 1
244 490 1
244 595 1
244 596 1
244 682 1
245 69 1
245 139 1
245 209 1
245 297 1
245 419 1
245 491 1
245 598 1
245 683 1
246 70 1
246 140 1
246 210 1
246 298 1
246 420 1
246 492 1
246 597 1
246 598 1
246 684 1
247 71 1
247 141 1
247 211 1
247 299 1
247 421 1
247 493 1
247 600 1
247 685 1
248 72 1
248 142 1
248 212 1
248 300 1
248 422 1
248 494 1
248 599 1
248 600 1
248 686 1
249 73 1
249 143 1
249 213 1
249 301 1
249 423 1
249 495 1
249 602 1
249 687 1
250 74 1
250 144 1
250 214 1
250 302 1
250 424 1
250 496 1
250 601 1
250 602 1
250 688 1
251 75 1
251 145 1
251 215 1
251 303 1
251 425 1
251 497 1
251 604 1
251 689 1
252 76 1
252 146 1
252 216 1
252 304 1
252 426 1
252 498 1
252 603 1
252 604 1
252 690 1
253 77 1
253 147 1
253 217 1
253 305 1
253 427 1
253 499 1
253 606 1
253 691 1
254 78 1
254 148 1
254 218 1
254 306 1
254 428 1
254 500 1
254 605 1
254 606 1
254 692 1
255 79 1
255 149 1
255 219 1
255 307 1
255 429 1
255 501 1
255 608 1
255 693 1
256 80 1
256 150 1
256 220 1
256 308 1
256 430 1
256 502 1
256 607 1
256 608 1
256 694 1
257 81 1
257 151 1
257 221 1
257 309 1
257 431 1
257 503 1
257 610 1
257 695 1
258 82 1
258 152 1
258 222 1
258 310 1
258 432 1
258 504 1
258 609 1
258 610 1
258 696 1
259 83 1
259 153 1
259 223 1
259 311 1
259 433 1
259 505 1
259 612 1
259 697 1
260 84 1
260 154 1
260 224 1
260 312 1
260 434 1
260 506 1
260 611 1
260 612 1
260 698 1
261 85 1
261 155 1
261 225 1
261 313 1
261 435 1
261 507 1
261 614 1
261 699 1
262 86 1
262 156 1
262 226 1
262 314 1
262 436 1
262 508 1
262 613 1
262 614 1
262 700 1
263 87 1
263 157 1
263 227 1
263 315 1
263 437 1
263 509 1
263 616 1
263 701 1
264 88 1
264 158 1
264 228 1
264 316 1
264 438 1
264 510 1
264 615 1
264 616 1
264 702 1
