%%MatrixMarket matrix coordinate integer general
% GF(4) labels 0,1,2=omega,3=omega+1; arithmetic is NOT integer arithmetic.
% Coordinate indices are 1-based; omitted entries are zero.
132 352 1056
1 1 1
1 68 1
1 92 1
1 156 1
1 177 2
1 224 1
1 283 1
1 327 1
2 2 1
2 69 1
2 93 1
2 157 1
2 178 2
2 225 1
2 284 1
2 328 1
3 3 1
3 70 1
3 94 1
3 158 1
3 179 2
3 226 1
3 285 1
3 329 1
4 4 1
4 71 1
4 95 1
4 159 1
4 180 2
4 227 1
4 286 1
4 330 1
5 5 1
5 72 1
5 96 1
5 160 1
5 181 2
5 228 1
5 287 1
5 331 1
6 6 1
6 73 1
6 97 1
6 161 1
6 182 2
6 229 1
6 288 1
6 332 1
7 7 1
7 74 1
7 98 1
7 162 1
7 183 2
7 230 1
7 289 1
7 333 1
8 8 1
8 75 1
8 99 1
8 163 1
8 184 2
8 231 1
8 290 1
8 334 1
9 9 1
9 76 1
9 100 1
9 164 1
9 185 2
9 232 1
9 291 1
9 335 1
10 10 1
10 77 1
10 101 1
10 165 1
10 186 2
10 233 1
10 292 1
10 336 1
11 11 1
11 78 1
11 102 1
11 166 1
11 187 2
11 234 1
11 293 1
11 337 1
12 12 1
12 79 1
12 103 1
12 167 1
12 188 2
12 235 1
12 294 1
12 338 1
13 13 1
13 80 1
13 104 1
13 168 1
13 189 2
13 236 1
13 295 1
13 339 1
14 14 1
14 81 1
14 105 1
14 169 1
14 190 2
14 237 1
14 296 1
14 340 1
15 15 1
15 82 1
15 106 1
15 170 1
15 191 2
15 238 1
15 297 1
15 341 1
16 16 1
16 83 1
16 107 1
16 171 1
16 192 2
16 239 1
16 298 1
16 342 1
17 17 1
17 84 1
17 108 1
17 172 1
17 193 2
17 240 1
17 299 1
17 343 1
18 18 1
18 85 1
18 109 1
18 173 1
18 194 2
18 241 1
18 300 1
18 344 1
19 19 1
19 86 1
19 110 1
19 174 1
19 195 2
19 242 1
19 301 1
19 345 1
20 20 1
20 87 1
20 111 1
20 175 1
20 196 2
20 243 1
20 302 1
20 346 1
21 21 1
21 88 1
21 112 1
21 176 1
21 197 2
21 244 1
21 303 1
21 347 1
22 22 1
22 45 1
22 113 1
22 133 1
22 198 2
22 245 1
22 304 1
22 348 1
23 23 1
23 46 1
23 114 1
23 134 1
23 199 2
23 246 1
23 305 1
23 349 1
24 24 1
24 47 1
24 115 1
24 135 1
24 200 2
24 247 1
24 306 1
24 350 1
25 25 1
25 48 1
25 116 1
25 136 1
25 201 2
25 248 1
25 307 1
25 351 1
26 26 1
26 49 1
26 117 1
26 137 1
26 202 2
26 249 1
26 308 1
26 352 1
27 27 1
27 50 1
27 118 1
27 138 1
27 203 2
27 250 1
27 265 1
27 309 1
28 28 1
28 51 1
28 119 1
28 139 1
28 204 2
28 251 1
28 266 1
28 310 1
29 29 1
29 52 1
29 120 1
29 140 1
29 205 2
29 252 1
29 267 1
29 311 1
30 30 1
30 53 1
30 121 1
30 141 1
30 206 2
30 253 1
30 268 1
30 312 1
31 31 1
31 54 1
31 122 1
31 142 1
31 207 2
31 254 1
31 269 1
31 313 1
32 32 1
32 55 1
32 123 1
32 143 1
32 208 2
32 255 1
32 270 1
32 314 1
33 33 1
33 56 1
33 124 1
33 144 1
33 209 2
33 256 1
33 271 1
33 315 1
34 34 1
34 57 1
34 125 1
34 145 1
34 210 2
34 257 1
34 272 1
34 316 1
35 35 1
35 58 1
35 126 1
35 146 1
35 211 2
35 258 1
35 273 1
35 317 1
36 36 1
36 59 1
36 127 1
36 147 1
36 212 2
36 259 1
36 274 1
36 318 1
37 37 1
37 60 1
37 128 1
37 148 1
37 213 2
37 260 1
37 275 1
37 319 1
38 38 1
38 61 1
38 129 1
38 149 1
38 214 2
38 261 1
38 276 1
38 320 1
39 39 1
39 62 1
39 130 1
39 150 1
39 215 2
39 262 1
39 277 1
39 321 1
40 40 1
40 63 1
40 131 1
40 151 1
40 216 2
40 263 1
40 278 1
40 322 1
41 41 1
41 64 1
41 132 1
41 152 1
41 217 2
41 264 1
41 279 1
41 323 1
42 42 1
42 65 1
42 89 1
42 153 1
42 218 2
42 221 1
42 280 1
42 324 1
43 43 1
43 66 1
43 90 1
43 154 1
43 219 2
43 222 1
43 281 1
43 325 1
44 44 1
44 67 1
44 91 1
44 155 1
44 220 2
44 223 1
44 282 1
44 326 1
45 1 1
45 64 1
45 120 1
45 142 1
45 196 1
45 221 2
45 296 1
45 318 1
46 2 1
46 65 1
46 121 1
46 143 1
46 197 1
46 222 2
46 297 1
46 319 1
47 3 1
47 66 1
47 122 1
47 144 1
47 198 1
47 223 2
47 298 1
47 320 1
48 4 1
48 67 1
48 123 1
48 145 1
48 199 1
48 224 2
48 299 1
48 321 1
49 5 1
49 68 1
49 124 1
49 146 1
49 200 1
49 225 2
49 300 1
49 322 1
50 6 1
50 69 1
50 125 1
50 147 1
50 201 1
50 226 2
50 301 1
50 323 1
51 7 1
51 70 1
51 126 1
51 148 1
51 202 1
51 227 2
51 302 1
51 324 1
52 8 1
52 71 1
52 127 1
52 149 1
52 203 1
52 228 2
52 303 1
52 325 1
53 9 1
53 72 1
53 128 1
53 150 1
53 204 1
53 229 2
53 304 1
53 326 1
54 10 1
54 73 1
54 129 1
54 151 1
54 205 1
54 230 2
54 305 1
54 327 1
55 11 1
55 74 1
55 130 1
55 152 1
55 206 1
55 231 2
55 306 1
55 328 1
56 12 1
56 75 1
56 131 1
56 153 1
56 207 1
56 232 2
56 307 1
56 329 1
57 13 1
57 76 1
57 132 1
57 154 1
57 208 1
57 233 2
57 308 1
57 330 1
58 14 1
58 77 1
58 89 1
58 155 1
58 209 1
58 234 2
58 265 1
58 331 1
59 15 1
59 78 1
59 90 1
59 156 1
59 210 1
59 235 2
59 266 1
59 332 1
60 16 1
60 79 1
60 91 1
60 157 1
60 211 1
60 236 2
60 267 1
60 333 1
61 17 1
61 80 1
61 92 1
61 158 1
61 212 1
61 237 2
61 268 1
61 334 1
62 18 1
62 81 1
62 93 1
62 159 1
62 213 1
62 238 2
62 269 1
62 335 1
63 19 1
63 82 1
63 94 1
63 160 1
63 214 1
63 239 2
63 270 1
63 336 1
64 20 1
64 83 1
64 95 1
64 161 1
64 215 1
64 240 2
64 271 1
64 337 1
65 21 1
65 84 1
65 96 1
65 162 1
65 216 1
65 241 2
65 272 1
65 338 1
66 22 1
66 85 1
66 97 1
66 163 1
66 217 1
66 242 2
66 273 1
66 339 1
67 23 1
67 86 1
67 98 1
67 164 1
67 218 1
67 243 2
67 274 1
67 340 1
68 24 1
68 87 1
68 99 1
68 165 1
68 219 1
68 244 2
68 275 1
68 341 1
69 25 1
69 88 1
69 100 1
69 166 1
69 220 1
69 245 2
69 276 1
69 342 1
70 26 1
70 45 1
70 101 1
70 167 1
70 177 1
70 246 2
70 277 1
70 343 1
71 27 1
71 46 1
71 102 1
71 168 1
71 178 1
71 247 2
71 278 1
71 344 1
72 28 1
72 47 1
72 103 1
72 169 1
72 179 1
72 248 2
72 279 1
72 345 1
73 29 1
73 48 1
73 104 1
73 170 1
73 180 1
73 249 2
73 280 1
73 346 1
74 30 1
74 49 1
74 105 1
74 171 1
74 181 1
74 250 2
74 281 1
74 347 1
75 31 1
75 50 1
75 106 1
75 172 1
75 182 1
75 251 2
75 282 1
75 348 1
76 32 1
76 51 1
76 107 1
76 173 1
76 183 1
76 252 2
76 283 1
76 349 1
77 33 1
77 52 1
77 108 1
77 174 1
77 184 1
77 253 2
77 284 1
77 350 1
78 34 1
78 53 1
78 109 1
78 175 1
78 185 1
78 254 2
78 285 1
78 351 1
79 35 1
79 54 1
79 110 1
79 176 1
79 186 1
79 255 2
79 286 1
79 352 1
80 36 1
80 55 1
80 111 1
80 133 1
80 187 1
80 256 2
80 287 1
80 309 1
81 37 1
81 56 1
81 112 1
81 134 1
81 188 1
81 257 2
81 288 1
81 310 1
82 38 1
82 57 1
82 113 1
82 135 1
82 189 1
82 258 2
82 289 1
82 311 1
83 39 1
83 58 1
83 114 1
83 136 1
83 190 1
83 259 2
83 290 1
83 312 1
84 40 1
84 59 1
84 115 1
84 137 1
84 191 1
84 260 2
84 291 1
84 313 1
85 41 1
85 60 1
85 116 1
85 138 1
85 192 1
85 261 2
85 292 1
85 314 1
86 42 1
86 61 1
86 117 1
86 139 1
86 193 1
86 262 2
86 293 1
86 315 1
87 43 1
87 62 1
87 118 1
87 140 1
87 194 1
87 263 2
87 294 1
87 316 1
88 44 1
88 63 1
88 119 1
88 141 1
88 195 1
88 264 2
88 295 1
88 317 1
89 1 1
89 80 1
89 115 1
89 159 1
89 220 1
89 256 1
89 265 2
89 352 1
90 2 1
90 81 1
90 116 1
90 160 1
90 177 1
90 257 1
90 266 2
90 309 1
91 3 1
91 82 1
91 117 1
91 161 1
91 178 1
91 258 1
91 267 2
91 310 1
92 4 1
92 83 1
92 118 1
92 162 1
92 179 1
92 259 1
92 268 2
92 311 1
93 5 1
93 84 1
93 119 1
93 163 1
93 180 1
93 260 1
93 269 2
93 312 1
94 6 1
94 85 1
94 120 1
94 164 1
94 181 1
94 261 1
94 270 2
94 313 1
95 7 1
95 86 1
95 121 1
95 165 1
95 182 1
95 262 1
95 271 2
95 314 1
96 8 1
96 87 1
96 122 1
96 166 1
96 183 1
96 263 1
96 272 2
96 315 1
97 9 1
97 88 1
97 123 1
97 167 1
97 184 1
97 264 1
97 273 2
97 316 1
98 10 1
98 45 1
98 124 1
98 168 1
98 185 1
98 221 1
98 274 2
98 317 1
99 11 1
99 46 1
99 125 1
99 169 1
99 186 1
99 222 1
99 275 2
99 318 1
100 12 1
100 47 1
100 126 1
100 170 1
100 187 1
100 223 1
100 276 2
100 319 1
101 13 1
101 48 1
101 127 1
101 171 1
101 188 1
101 224 1
101 277 2
101 320 1
102 14 1
102 49 1
102 128 1
102 172 1
102 189 1
102 225 1
102 278 2
102 321 1
103 15 1
103 50 1
103 129 1
103 173 1
103 190 1
103 226 1
103 279 2
103 322 1
104 16 1
104 51 1
104 130 1
104 174 1
104 191 1
104 227 1
104 280 2
104 323 1
105 17 1
105 52 1
105 131 1
105 175 1
105 192 1
105 228 1
105 281 2
105 324 1
106 18 1
106 53 1
106 132 1
106 176 1
106 193 1
106 229 1
106 282 2
106 325 1
107 19 1
107 54 1
107 89 1
107 133 1
107 194 1
107 230 1
107 283 2
107 326 1
108 20 1
108 55 1
108 90 1
108 134 1
108 195 1
108 231 1
108 284 2
108 327 1
109 21 1
109 56 1
109 91 1
109 135 1
109 196 1
109 232 1
109 285 2
109 328 1
110 22 1
110 57 1
110 92 1
110 136 1
110 197 1
110 233 1
110 286 2
110 329 1
111 23 1
111 58 1
111 93 1
111 137 1
111 198 1
111 234 1
111 287 2
111 330 1
112 24 1
112 59 1
112 94 1
112 138 1
112 199 1
112 235 1
112 288 2
112 331 1
113 25 1
113 60 1
113 95 1
113 139 1
113 200 1
113 236 1
113 289 2
113 332 1
114 26 1
114 61 1
114 96 1
114 140 1
114 201 1
114 237 1
114 290 2
114 333 1
115 27 1
115 62 1
115 97 1
115 141 1
115 202 1
115 238 1
115 291 2
115 334 1
116 28 1
116 63 1
116 98 1
116 142 1
116 203 1
116 239 1
116 292 2
116 335 1
117 29 1
117 64 1
117 99 1
117 143 1
117 204 1
117 240 1
117 293 2
117 336 1
118 30 1
118 65 1
118 100 1
118 144 1
118 205 1
118 241 1
118 294 2
118 337 1
119 31 1
119 66 1
119 101 1
119 145 1
119 206 1
119 242 1
119 295 2
119 338 1
120 32 1
120 67 1
120 102 1
120 146 1
120 207 1
120 243 1
120 296 2
120 339 1
121 33 1
121 68 1
121 103 1
121 147 1
121 208 1
121 244 1
121 297 2
121 340 1
122 34 1
122 69 1
122 104 1
122 148 1
122 209 1
122 245 1
122 298 2
122 341 1
123 35 1
123 70 1
123 105 1
123 149 1
123 210 1
123 246 1
123 299 2
123 342 1
124 36 1
124 71 1
124 106 1
124 150 1
124 211 1
124 247 1
124 300 2
124 343 1
125 37 1
125 72 1
125 107 1
125 151 1
125 212 1
125 248 1
125 301 2
125 344 1
126 38 1
126 73 1
126 108 1
126 152 1
126 213 1
126 249 1
126 302 2
126 345 1
127 39 1
127 74 1
127 109 1
127 153 1
127 214 1
127 250 1
127 303 2
127 346 1
128 40 1
128 75 1
128 110 1
128 154 1
128 215 1
128 251 1
128 304 2
128 347 1
129 41 1
129 76 1
129 111 1
129 155 1
129 216 1
129 252 1
129 305 2
129 348 1
130 42 1
130 77 1
130 112 1
130 156 1
130 217 1
130 253 1
130 306 2
130 349 1
131 43 1
131 78 1
131 113 1
131 157 1
131 218 1
131 254 1
131 307 2
131 350 1
132 44 1
132 79 1
132 114 1
132 158 1
132 219 1
132 255 1
132 308 2
132 351 1
