%%MatrixMarket matrix coordinate integer general
% Binary matrix over GF(2).
% Coordinate indices are 1-based; omitted entries are zero.
176 704 5236
1 178 1
1 199 1
1 213 1
1 214 1
1 222 1
1 243 1
1 257 1
1 287 1
1 301 1
1 302 1
1 310 1
1 327 1
1 345 1
1 350 1
1 365 1
1 384 1
1 409 1
1 432 1
1 435 1
1 439 1
1 460 1
1 481 1
1 504 1
1 507 1
1 511 1
1 521 1
2 180 1
2 201 1
2 215 1
2 216 1
2 224 1
2 245 1
2 259 1
2 289 1
2 303 1
2 304 1
2 312 1
2 329 1
2 347 1
2 352 1
2 353 1
2 367 1
2 386 1
2 411 1
2 434 1
2 437 1
2 462 1
2 483 1
2 506 1
2 509 1
2 513 1
2 523 1
3 182 1
3 203 1
3 217 1
3 218 1
3 226 1
3 247 1
3 261 1
3 266 1
3 291 1
3 305 1
3 306 1
3 314 1
3 331 1
3 349 1
3 355 1
3 369 1
3 388 1
3 413 1
3 436 1
3 439 1
3 464 1
3 485 1
3 508 1
3 511 1
3 515 1
3 525 1
4 184 1
4 205 1
4 219 1
4 220 1
4 228 1
4 249 1
4 263 1
4 268 1
4 293 1
4 307 1
4 308 1
4 316 1
4 333 1
4 351 1
4 353 1
4 357 1
4 371 1
4 390 1
4 415 1
4 438 1
4 466 1
4 487 1
4 510 1
4 513 1
4 517 1
4 527 1
5 177 1
5 186 1
5 207 1
5 221 1
5 222 1
5 230 1
5 251 1
5 265 1
5 270 1
5 295 1
5 309 1
5 310 1
5 318 1
5 335 1
5 355 1
5 359 1
5 373 1
5 392 1
5 417 1
5 440 1
5 441 1
5 468 1
5 489 1
5 512 1
5 515 1
5 519 1
6 179 1
6 188 1
6 209 1
6 223 1
6 224 1
6 232 1
6 253 1
6 267 1
6 272 1
6 297 1
6 311 1
6 312 1
6 320 1
6 337 1
6 354 1
6 357 1
6 361 1
6 375 1
6 394 1
6 419 1
6 443 1
6 470 1
6 491 1
6 514 1
6 517 1
6 521 1
7 181 1
7 190 1
7 211 1
7 225 1
7 226 1
7 234 1
7 255 1
7 269 1
7 274 1
7 299 1
7 313 1
7 314 1
7 322 1
7 339 1
7 356 1
7 359 1
7 363 1
7 377 1
7 396 1
7 421 1
7 445 1
7 472 1
7 493 1
7 516 1
7 519 1
7 523 1
8 183 1
8 192 1
8 213 1
8 227 1
8 228 1
8 236 1
8 257 1
8 271 1
8 276 1
8 301 1
8 315 1
8 316 1
8 324 1
8 341 1
8 358 1
8 361 1
8 365 1
8 379 1
8 398 1
8 423 1
8 447 1
8 474 1
8 495 1
8 518 1
8 521 1
8 525 1
9 185 1
9 194 1
9 215 1
9 229 1
9 230 1
9 238 1
9 259 1
9 273 1
9 278 1
9 303 1
9 317 1
9 318 1
9 326 1
9 343 1
9 360 1
9 363 1
9 367 1
9 381 1
9 400 1
9 425 1
9 449 1
9 476 1
9 497 1
9 520 1
9 523 1
9 527 1
10 187 1
10 196 1
10 217 1
10 231 1
10 232 1
10 240 1
10 261 1
10 275 1
10 280 1
10 305 1
10 319 1
10 320 1
10 328 1
10 345 1
10 362 1
10 365 1
10 369 1
10 383 1
10 402 1
10 427 1
10 441 1
10 451 1
10 478 1
10 499 1
10 522 1
10 525 1
11 189 1
11 198 1
11 219 1
11 233 1
11 234 1
11 242 1
11 263 1
11 277 1
11 282 1
11 307 1
11 321 1
11 322 1
11 330 1
11 347 1
11 364 1
11 367 1
11 371 1
11 385 1
11 404 1
11 429 1
11 443 1
11 453 1
11 480 1
11 501 1
11 524 1
11 527 1
12 177 1
12 191 1
12 200 1
12 221 1
12 235 1
12 236 1
12 244 1
12 279 1
12 284 1
12 309 1
12 323 1
12 324 1
12 332 1
12 349 1
12 366 1
12 369 1
12 373 1
12 387 1
12 406 1
12 431 1
12 441 1
12 445 1
12 455 1
12 482 1
12 503 1
12 526 1
13 179 1
13 193 1
13 202 1
13 223 1
13 237 1
13 238 1
13 246 1
13 281 1
13 286 1
13 311 1
13 325 1
13 326 1
13 334 1
13 351 1
13 368 1
13 371 1
13 375 1
13 389 1
13 408 1
13 433 1
13 443 1
13 447 1
13 457 1
13 484 1
13 505 1
13 528 1
14 181 1
14 195 1
14 204 1
14 225 1
14 239 1
14 240 1
14 248 1
14 265 1
14 283 1
14 288 1
14 313 1
14 327 1
14 328 1
14 336 1
14 370 1
14 373 1
14 377 1
14 391 1
14 410 1
14 435 1
14 442 1
14 445 1
14 449 1
14 459 1
14 486 1
14 507 1
15 183 1
15 197 1
15 206 1
15 227 1
15 241 1
15 242 1
15 250 1
15 267 1
15 285 1
15 290 1
15 315 1
15 329 1
15 330 1
15 338 1
15 372 1
15 375 1
15 379 1
15 393 1
15 412 1
15 437 1
15 444 1
15 447 1
15 451 1
15 461 1
15 488 1
15 509 1
16 185 1
16 199 1
16 208 1
16 229 1
16 243 1
16 244 1
16 252 1
16 269 1
16 287 1
16 292 1
16 317 1
16 331 1
16 332 1
16 340 1
16 374 1
16 377 1
16 381 1
16 395 1
16 414 1
16 439 1
16 446 1
16 449 1
16 453 1
16 463 1
16 490 1
16 511 1
17 187 1
17 201 1
17 210 1
17 231 1
17 245 1
17 246 1
17 254 1
17 271 1
17 289 1
17 294 1
17 319 1
17 333 1
17 334 1
17 342 1
17 353 1
17 376 1
17 379 1
17 383 1
17 397 1
17 416 1
17 448 1
17 451 1
17 455 1
17 465 1
17 492 1
17 513 1
18 189 1
18 203 1
18 212 1
18 233 1
18 247 1
18 248 1
18 256 1
18 273 1
18 291 1
18 296 1
18 321 1
18 335 1
18 336 1
18 344 1
18 355 1
18 378 1
18 381 1
18 385 1
18 399 1
18 418 1
18 450 1
18 453 1
18 457 1
18 467 1
18 494 1
18 515 1
19 191 1
19 205 1
19 214 1
19 235 1
19 249 1
19 250 1
19 258 1
19 275 1
19 293 1
19 298 1
19 323 1
19 337 1
19 338 1
19 346 1
19 357 1
19 380 1
19 383 1
19 387 1
19 401 1
19 420 1
19 452 1
19 455 1
19 459 1
19 469 1
19 496 1
19 517 1
20 193 1
20 207 1
20 216 1
20 237 1
20 251 1
20 252 1
20 260 1
20 277 1
20 295 1
20 300 1
20 325 1
20 339 1
20 340 1
20 348 1
20 359 1
20 382 1
20 385 1
20 389 1
20 403 1
20 422 1
20 454 1
20 457 1
20 461 1
20 471 1
20 498 1
20 519 1
21 195 1
21 209 1
21 218 1
21 239 1
21 253 1
21 254 1
21 262 1
21 279 1
21 297 1
21 302 1
21 327 1
21 341 1
21 342 1
21 350 1
21 361 1
21 384 1
21 387 1
21 391 1
21 405 1
21 424 1
21 456 1
21 459 1
21 463 1
21 473 1
21 500 1
21 521 1
22 197 1
22 211 1
22 220 1
22 241 1
22 255 1
22 256 1
22 264 1
22 281 1
22 299 1
22 304 1
22 329 1
22 343 1
22 344 1
22 352 1
22 363 1
22 386 1
22 389 1
22 393 1
22 407 1
22 426 1
22 458 1
22 461 1
22 465 1
22 475 1
22 502 1
22 523 1
23 178 1
23 199 1
23 213 1
23 222 1
23 243 1
23 257 1
23 258 1
23 266 1
23 283 1
23 301 1
23 306 1
23 331 1
23 345 1
23 346 1
23 365 1
23 388 1
23 391 1
23 395 1
23 409 1
23 428 1
23 460 1
23 463 1
23 467 1
23 477 1
23 504 1
23 525 1
24 180 1
24 201 1
24 215 1
24 224 1
24 245 1
24 259 1
24 260 1
24 268 1
24 285 1
24 303 1
24 308 1
24 333 1
24 347 1
24 348 1
24 367 1
24 390 1
24 393 1
24 397 1
24 411 1
24 430 1
24 462 1
24 465 1
24 469 1
24 479 1
24 506 1
24 527 1
25 182 1
25 203 1
25 217 1
25 226 1
25 247 1
25 261 1
25 262 1
25 270 1
25 287 1
25 305 1
25 310 1
25 335 1
25 349 1
25 350 1
25 369 1
25 392 1
25 395 1
25 399 1
25 413 1
25 432 1
25 441 1
25 464 1
25 467 1
25 471 1
25 481 1
25 508 1
26 184 1
26 205 1
26 219 1
26 228 1
26 249 1
26 263 1
26 264 1
26 272 1
26 289 1
26 307 1
26 312 1
26 337 1
26 351 1
26 352 1
26 371 1
26 394 1
26 397 1
26 401 1
26 415 1
26 434 1
26 443 1
26 466 1
26 469 1
26 473 1
26 483 1
26 510 1
27 177 1
27 178 1
27 186 1
27 207 1
27 221 1
27 230 1
27 251 1
27 265 1
27 266 1
27 274 1
27 291 1
27 309 1
27 314 1
27 339 1
27 373 1
27 396 1
27 399 1
27 403 1
27 417 1
27 436 1
27 445 1
27 468 1
27 471 1
27 475 1
27 485 1
27 512 1
28 179 1
28 180 1
28 188 1
28 209 1
28 223 1
28 232 1
28 253 1
28 267 1
28 268 1
28 276 1
28 293 1
28 311 1
28 316 1
28 341 1
28 375 1
28 398 1
28 401 1
28 405 1
28 419 1
28 438 1
28 447 1
28 470 1
28 473 1
28 477 1
28 487 1
28 514 1
29 181 1
29 182 1
29 190 1
29 211 1
29 225 1
29 234 1
29 255 1
29 269 1
29 270 1
29 278 1
29 295 1
29 313 1
29 318 1
29 343 1
29 377 1
29 400 1
29 403 1
29 407 1
29 421 1
29 440 1
29 449 1
29 472 1
29 475 1
29 479 1
29 489 1
29 516 1
30 183 1
30 184 1
30 192 1
30 213 1
30 227 1
30 236 1
30 257 1
30 271 1
30 272 1
30 280 1
30 297 1
30 315 1
30 320 1
30 345 1
30 354 1
30 379 1
30 402 1
30 405 1
30 409 1
30 423 1
30 451 1
30 474 1
30 477 1
30 481 1
30 491 1
30 518 1
31 185 1
31 186 1
31 194 1
31 215 1
31 229 1
31 238 1
31 259 1
31 273 1
31 274 1
31 282 1
31 299 1
31 317 1
31 322 1
31 347 1
31 356 1
31 381 1
31 404 1
31 407 1
31 411 1
31 425 1
31 453 1
31 476 1
31 479 1
31 483 1
31 493 1
31 520 1
32 187 1
32 188 1
32 196 1
32 217 1
32 231 1
32 240 1
32 261 1
32 275 1
32 276 1
32 284 1
32 301 1
32 319 1
32 324 1
32 349 1
32 358 1
32 383 1
32 406 1
32 409 1
32 413 1
32 427 1
32 455 1
32 478 1
32 481 1
32 485 1
32 495 1
32 522 1
33 189 1
33 190 1
33 198 1
33 219 1
33 233 1
33 242 1
33 263 1
33 277 1
33 278 1
33 286 1
33 303 1
33 321 1
33 326 1
33 351 1
33 360 1
33 385 1
33 408 1
33 411 1
33 415 1
33 429 1
33 457 1
33 480 1
33 483 1
33 487 1
33 497 1
33 524 1
34 177 1
34 191 1
34 192 1
34 200 1
34 221 1
34 235 1
34 244 1
34 265 1
34 279 1
34 280 1
34 288 1
34 305 1
34 323 1
34 328 1
34 362 1
34 387 1
34 410 1
34 413 1
34 417 1
34 431 1
34 459 1
34 482 1
34 485 1
34 489 1
34 499 1
34 526 1
35 179 1
35 193 1
35 194 1
35 202 1
35 223 1
35 237 1
35 246 1
35 267 1
35 281 1
35 282 1
35 290 1
35 307 1
35 325 1
35 330 1
35 364 1
35 389 1
35 412 1
35 415 1
35 419 1
35 433 1
35 461 1
35 484 1
35 487 1
35 491 1
35 501 1
35 528 1
36 181 1
36 195 1
36 196 1
36 204 1
36 225 1
36 239 1
36 248 1
36 269 1
36 283 1
36 284 1
36 292 1
36 309 1
36 327 1
36 332 1
36 366 1
36 391 1
36 414 1
36 417 1
36 421 1
36 435 1
36 442 1
36 463 1
36 486 1
36 489 1
36 493 1
36 503 1
37 183 1
37 197 1
37 198 1
37 206 1
37 227 1
37 241 1
37 250 1
37 271 1
37 285 1
37 286 1
37 294 1
37 311 1
37 329 1
37 334 1
37 368 1
37 393 1
37 416 1
37 419 1
37 423 1
37 437 1
37 444 1
37 465 1
37 488 1
37 491 1
37 495 1
37 505 1
38 185 1
38 199 1
38 200 1
38 208 1
38 229 1
38 243 1
38 252 1
38 273 1
38 287 1
38 288 1
38 296 1
38 313 1
38 331 1
38 336 1
38 370 1
38 395 1
38 418 1
38 421 1
38 425 1
38 439 1
38 446 1
38 467 1
38 490 1
38 493 1
38 497 1
38 507 1
39 187 1
39 201 1
39 202 1
39 210 1
39 231 1
39 245 1
39 254 1
39 275 1
39 289 1
39 290 1
39 298 1
39 315 1
39 333 1
39 338 1
39 353 1
39 372 1
39 397 1
39 420 1
39 423 1
39 427 1
39 448 1
39 469 1
39 492 1
39 495 1
39 499 1
39 509 1
40 189 1
40 203 1
40 204 1
40 212 1
40 233 1
40 247 1
40 256 1
40 277 1
40 291 1
40 292 1
40 300 1
40 317 1
40 335 1
40 340 1
40 355 1
40 374 1
40 399 1
40 422 1
40 425 1
40 429 1
40 450 1
40 471 1
40 494 1
40 497 1
40 501 1
40 511 1
41 191 1
41 205 1
41 206 1
41 214 1
41 235 1
41 249 1
41 258 1
41 279 1
41 293 1
41 294 1
41 302 1
41 319 1
41 337 1
41 342 1
41 357 1
41 376 1
41 401 1
41 424 1
41 427 1
41 431 1
41 452 1
41 473 1
41 496 1
41 499 1
41 503 1
41 513 1
42 193 1
42 207 1
42 208 1
42 216 1
42 237 1
42 251 1
42 260 1
42 281 1
42 295 1
42 296 1
42 304 1
42 321 1
42 339 1
42 344 1
42 359 1
42 378 1
42 403 1
42 426 1
42 429 1
42 433 1
42 454 1
42 475 1
42 498 1
42 501 1
42 505 1
42 515 1
43 195 1
43 209 1
43 210 1
43 218 1
43 239 1
43 253 1
43 262 1
43 283 1
43 297 1
43 298 1
43 306 1
43 323 1
43 341 1
43 346 1
43 361 1
43 380 1
43 405 1
43 428 1
43 431 1
43 435 1
43 456 1
43 477 1
43 500 1
43 503 1
43 507 1
43 517 1
44 197 1
44 211 1
44 212 1
44 220 1
44 241 1
44 255 1
44 264 1
44 285 1
44 299 1
44 300 1
44 308 1
44 325 1
44 343 1
44 348 1
44 363 1
44 382 1
44 407 1
44 430 1
44 433 1
44 437 1
44 458 1
44 479 1
44 502 1
44 505 1
44 509 1
44 519 1
45 177 1
45 178 1
45 200 1
45 213 1
45 221 1
45 222 1
45 244 1
45 258 1
45 288 1
45 301 1
45 309 1
45 310 1
45 328 1
45 346 1
45 349 1
45 350 1
45 366 1
45 383 1
45 384 1
45 410 1
45 431 1
45 432 1
45 436 1
45 440 1
45 459 1
45 460 1
45 482 1
45 503 1
45 504 1
45 508 1
45 512 1
45 522 1
46 179 1
46 180 1
46 202 1
46 215 1
46 223 1
46 224 1
46 246 1
46 260 1
46 290 1
46 303 1
46 311 1
46 312 1
46 330 1
46 348 1
46 351 1
46 352 1
46 354 1
46 368 1
46 385 1
46 386 1
46 412 1
46 433 1
46 434 1
46 438 1
46 461 1
46 462 1
46 484 1
46 505 1
46 506 1
46 510 1
46 514 1
46 524 1
47 181 1
47 182 1
47 204 1
47 217 1
47 225 1
47 226 1
47 248 1
47 262 1
47 265 1
47 266 1
47 292 1
47 305 1
47 313 1
47 314 1
47 332 1
47 350 1
47 356 1
47 370 1
47 387 1
47 388 1
47 414 1
47 435 1
47 436 1
47 440 1
47 463 1
47 464 1
47 486 1
47 507 1
47 508 1
47 512 1
47 516 1
47 526 1
48 183 1
48 184 1
48 206 1
48 219 1
48 227 1
48 228 1
48 250 1
48 264 1
48 267 1
48 268 1
48 294 1
48 307 1
48 315 1
48 316 1
48 334 1
48 352 1
48 354 1
48 358 1
48 372 1
48 389 1
48 390 1
48 416 1
48 437 1
48 438 1
48 465 1
48 466 1
48 488 1
48 509 1
48 510 1
48 514 1
48 518 1
48 528 1
49 178 1
49 185 1
49 186 1
49 208 1
49 221 1
49 229 1
49 230 1
49 252 1
49 266 1
49 269 1
49 270 1
49 296 1
49 309 1
49 317 1
49 318 1
49 336 1
49 356 1
49 360 1
49 374 1
49 391 1
49 392 1
49 418 1
49 439 1
49 440 1
49 442 1
49 467 1
49 468 1
49 490 1
49 511 1
49 512 1
49 516 1
49 520 1
50 180 1
50 187 1
50 188 1
50 210 1
50 223 1
50 231 1
50 232 1
50 254 1
50 268 1
50 271 1
50 272 1
50 298 1
50 311 1
50 319 1
50 320 1
50 338 1
50 353 1
50 354 1
50 358 1
50 362 1
50 376 1
50 393 1
50 394 1
50 420 1
50 444 1
50 469 1
50 470 1
50 492 1
50 513 1
50 514 1
50 518 1
50 522 1
51 182 1
51 189 1
51 190 1
51 212 1
51 225 1
51 233 1
51 234 1
51 256 1
51 270 1
51 273 1
51 274 1
51 300 1
51 313 1
51 321 1
51 322 1
51 340 1
51 355 1
51 356 1
51 360 1
51 364 1
51 378 1
51 395 1
51 396 1
51 422 1
51 446 1
51 471 1
51 472 1
51 494 1
51 515 1
51 516 1
51 520 1
51 524 1
52 184 1
52 191 1
52 192 1
52 214 1
52 227 1
52 235 1
52 236 1
52 258 1
52 272 1
52 275 1
52 276 1
52 302 1
52 315 1
52 323 1
52 324 1
52 342 1
52 357 1
52 358 1
52 362 1
52 366 1
52 380 1
52 397 1
52 398 1
52 424 1
52 448 1
52 473 1
52 474 1
52 496 1
52 517 1
52 518 1
52 522 1
52 526 1
53 186 1
53 193 1
53 194 1
53 216 1
53 229 1
53 237 1
53 238 1
53 260 1
53 274 1
53 277 1
53 278 1
53 304 1
53 317 1
53 325 1
53 326 1
53 344 1
53 359 1
53 360 1
53 364 1
53 368 1
53 382 1
53 399 1
53 400 1
53 426 1
53 450 1
53 475 1
53 476 1
53 498 1
53 519 1
53 520 1
53 524 1
53 528 1
54 188 1
54 195 1
54 196 1
54 218 1
54 231 1
54 239 1
54 240 1
54 262 1
54 276 1
54 279 1
54 280 1
54 306 1
54 319 1
54 327 1
54 328 1
54 346 1
54 361 1
54 362 1
54 366 1
54 370 1
54 384 1
54 401 1
54 402 1
54 428 1
54 442 1
54 452 1
54 477 1
54 478 1
54 500 1
54 521 1
54 522 1
54 526 1
55 190 1
55 197 1
55 198 1
55 220 1
55 233 1
55 241 1
55 242 1
55 264 1
55 278 1
55 281 1
55 282 1
55 308 1
55 321 1
55 329 1
55 330 1
55 348 1
55 363 1
55 364 1
55 368 1
55 372 1
55 386 1
55 403 1
55 404 1
55 430 1
55 444 1
55 454 1
55 479 1
55 480 1
55 502 1
55 523 1
55 524 1
55 528 1
56 178 1
56 192 1
56 199 1
56 200 1
56 222 1
56 235 1
56 243 1
56 244 1
56 280 1
56 283 1
56 284 1
56 310 1
56 323 1
56 331 1
56 332 1
56 350 1
56 365 1
56 366 1
56 370 1
56 374 1
56 388 1
56 405 1
56 406 1
56 432 1
56 442 1
56 446 1
56 456 1
56 481 1
56 482 1
56 504 1
56 525 1
56 526 1
57 180 1
57 194 1
57 201 1
57 202 1
57 224 1
57 237 1
57 245 1
57 246 1
57 282 1
57 285 1
57 286 1
57 312 1
57 325 1
57 333 1
57 334 1
57 352 1
57 367 1
57 368 1
57 372 1
57 376 1
57 390 1
57 407 1
57 408 1
57 434 1
57 444 1
57 448 1
57 458 1
57 483 1
57 484 1
57 506 1
57 527 1
57 528 1
58 182 1
58 196 1
58 203 1
58 204 1
58 226 1
58 239 1
58 247 1
58 248 1
58 266 1
58 284 1
58 287 1
58 288 1
58 314 1
58 327 1
58 335 1
58 336 1
58 369 1
58 370 1
58 374 1
58 378 1
58 392 1
58 409 1
58 410 1
58 436 1
58 441 1
58 442 1
58 446 1
58 450 1
58 460 1
58 485 1
58 486 1
58 508 1
59 184 1
59 198 1
59 205 1
59 206 1
59 228 1
59 241 1
59 249 1
59 250 1
59 268 1
59 286 1
59 289 1
59 290 1
59 316 1
59 329 1
59 337 1
59 338 1
59 371 1
59 372 1
59 376 1
59 380 1
59 394 1
59 411 1
59 412 1
59 438 1
59 443 1
59 444 1
59 448 1
59 452 1
59 462 1
59 487 1
59 488 1
59 510 1
60 186 1
60 200 1
60 207 1
60 208 1
60 230 1
60 243 1
60 251 1
60 252 1
60 270 1
60 288 1
60 291 1
60 292 1
60 318 1
60 331 1
60 339 1
60 340 1
60 373 1
60 374 1
60 378 1
60 382 1
60 396 1
60 413 1
60 414 1
60 440 1
60 445 1
60 446 1
60 450 1
60 454 1
60 464 1
60 489 1
60 490 1
60 512 1
61 188 1
61 202 1
61 209 1
61 210 1
61 232 1
61 245 1
61 253 1
61 254 1
61 272 1
61 290 1
61 293 1
61 294 1
61 320 1
61 333 1
61 341 1
61 342 1
61 354 1
61 375 1
61 376 1
61 380 1
61 384 1
61 398 1
61 415 1
61 416 1
61 447 1
61 448 1
61 452 1
61 456 1
61 466 1
61 491 1
61 492 1
61 514 1
62 190 1
62 204 1
62 211 1
62 212 1
62 234 1
62 247 1
62 255 1
62 256 1
62 274 1
62 292 1
62 295 1
62 296 1
62 322 1
62 335 1
62 343 1
62 344 1
62 356 1
62 377 1
62 378 1
62 382 1
62 386 1
62 400 1
62 417 1
62 418 1
62 449 1
62 450 1
62 454 1
62 458 1
62 468 1
62 493 1
62 494 1
62 516 1
63 192 1
63 206 1
63 213 1
63 214 1
63 236 1
63 249 1
63 257 1
63 258 1
63 276 1
63 294 1
63 297 1
63 298 1
63 324 1
63 337 1
63 345 1
63 346 1
63 358 1
63 379 1
63 380 1
63 384 1
63 388 1
63 402 1
63 419 1
63 420 1
63 451 1
63 452 1
63 456 1
63 460 1
63 470 1
63 495 1
63 496 1
63 518 1
64 194 1
64 208 1
64 215 1
64 216 1
64 238 1
64 251 1
64 259 1
64 260 1
64 278 1
64 296 1
64 299 1
64 300 1
64 326 1
64 339 1
64 347 1
64 348 1
64 360 1
64 381 1
64 382 1
64 386 1
64 390 1
64 404 1
64 421 1
64 422 1
64 453 1
64 454 1
64 458 1
64 462 1
64 472 1
64 497 1
64 498 1
64 520 1
65 196 1
65 210 1
65 217 1
65 218 1
65 240 1
65 253 1
65 261 1
65 262 1
65 280 1
65 298 1
65 301 1
65 302 1
65 328 1
65 341 1
65 349 1
65 350 1
65 362 1
65 383 1
65 384 1
65 388 1
65 392 1
65 406 1
65 423 1
65 424 1
65 455 1
65 456 1
65 460 1
65 464 1
65 474 1
65 499 1
65 500 1
65 522 1
66 198 1
66 212 1
66 219 1
66 220 1
66 242 1
66 255 1
66 263 1
66 264 1
66 282 1
66 300 1
66 303 1
66 304 1
66 330 1
66 343 1
66 351 1
66 352 1
66 364 1
66 385 1
66 386 1
66 390 1
66 394 1
66 408 1
66 425 1
66 426 1
66 457 1
66 458 1
66 462 1
66 466 1
66 476 1
66 501 1
66 502 1
66 524 1
67 177 1
67 178 1
67 200 1
67 214 1
67 221 1
67 222 1
67 244 1
67 257 1
67 265 1
67 266 1
67 284 1
67 302 1
67 305 1
67 306 1
67 332 1
67 345 1
67 366 1
67 387 1
67 388 1
67 392 1
67 396 1
67 410 1
67 427 1
67 428 1
67 459 1
67 460 1
67 464 1
67 468 1
67 478 1
67 503 1
67 504 1
67 526 1
68 179 1
68 180 1
68 202 1
68 216 1
68 223 1
68 224 1
68 246 1
68 259 1
68 267 1
68 268 1
68 286 1
68 304 1
68 307 1
68 308 1
68 334 1
68 347 1
68 368 1
68 389 1
68 390 1
68 394 1
68 398 1
68 412 1
68 429 1
68 430 1
68 461 1
68 462 1
68 466 1
68 470 1
68 480 1
68 505 1
68 506 1
68 528 1
69 181 1
69 182 1
69 204 1
69 218 1
69 225 1
69 226 1
69 248 1
69 261 1
69 269 1
69 270 1
69 288 1
69 306 1
69 309 1
69 310 1
69 336 1
69 349 1
69 370 1
69 391 1
69 392 1
69 396 1
69 400 1
69 414 1
69 431 1
69 432 1
69 442 1
69 463 1
69 464 1
69 468 1
69 472 1
69 482 1
69 507 1
69 508 1
70 183 1
70 184 1
70 206 1
70 220 1
70 227 1
70 228 1
70 250 1
70 263 1
70 271 1
70 272 1
70 290 1
70 308 1
70 311 1
70 312 1
70 338 1
70 351 1
70 372 1
70 393 1
70 394 1
70 398 1
70 402 1
70 416 1
70 433 1
70 434 1
70 444 1
70 465 1
70 466 1
70 470 1
70 474 1
70 484 1
70 509 1
70 510 1
71 177 1
71 185 1
71 186 1
71 208 1
71 222 1
71 229 1
71 230 1
71 252 1
71 265 1
71 273 1
71 274 1
71 292 1
71 310 1
71 313 1
71 314 1
71 340 1
71 374 1
71 395 1
71 396 1
71 400 1
71 404 1
71 418 1
71 435 1
71 436 1
71 446 1
71 467 1
71 468 1
71 472 1
71 476 1
71 486 1
71 511 1
71 512 1
72 179 1
72 187 1
72 188 1
72 210 1
72 224 1
72 231 1
72 232 1
72 254 1
72 267 1
72 275 1
72 276 1
72 294 1
72 312 1
72 315 1
72 316 1
72 342 1
72 376 1
72 397 1
72 398 1
72 402 1
72 406 1
72 420 1
72 437 1
72 438 1
72 448 1
72 469 1
72 470 1
72 474 1
72 478 1
72 488 1
72 513 1
72 514 1
73 181 1
73 189 1
73 190 1
73 212 1
73 226 1
73 233 1
73 234 1
73 256 1
73 269 1
73 277 1
73 278 1
73 296 1
73 314 1
73 317 1
73 318 1
73 344 1
73 378 1
73 399 1
73 400 1
73 404 1
73 408 1
73 422 1
73 439 1
73 440 1
73 450 1
73 471 1
73 472 1
73 476 1
73 480 1
73 490 1
73 515 1
73 516 1
74 183 1
74 191 1
74 192 1
74 214 1
74 228 1
74 235 1
74 236 1
74 258 1
74 271 1
74 279 1
74 280 1
74 298 1
74 316 1
74 319 1
74 320 1
74 346 1
74 353 1
74 354 1
74 380 1
74 401 1
74 402 1
74 406 1
74 410 1
74 424 1
74 452 1
74 473 1
74 474 1
74 478 1
74 482 1
74 492 1
74 517 1
74 518 1
75 185 1
75 193 1
75 194 1
75 216 1
75 230 1
75 237 1
75 238 1
75 260 1
75 273 1
75 281 1
75 282 1
75 300 1
75 318 1
75 321 1
75 322 1
75 348 1
75 355 1
75 356 1
75 382 1
75 403 1
75 404 1
75 408 1
75 412 1
75 426 1
75 454 1
75 475 1
75 476 1
75 480 1
75 484 1
75 494 1
75 519 1
75 520 1
76 187 1
76 195 1
76 196 1
76 218 1
76 232 1
76 239 1
76 240 1
76 262 1
76 275 1
76 283 1
76 284 1
76 302 1
76 320 1
76 323 1
76 324 1
76 350 1
76 357 1
76 358 1
76 384 1
76 405 1
76 406 1
76 410 1
76 414 1
76 428 1
76 456 1
76 477 1
76 478 1
76 482 1
76 486 1
76 496 1
76 521 1
76 522 1
77 189 1
77 197 1
77 198 1
77 220 1
77 234 1
77 241 1
77 242 1
77 264 1
77 277 1
77 285 1
77 286 1
77 304 1
77 322 1
77 325 1
77 326 1
77 352 1
77 359 1
77 360 1
77 386 1
77 407 1
77 408 1
77 412 1
77 416 1
77 430 1
77 458 1
77 479 1
77 480 1
77 484 1
77 488 1
77 498 1
77 523 1
77 524 1
78 178 1
78 191 1
78 199 1
78 200 1
78 222 1
78 236 1
78 243 1
78 244 1
78 266 1
78 279 1
78 287 1
78 288 1
78 306 1
78 324 1
78 327 1
78 328 1
78 361 1
78 362 1
78 388 1
78 409 1
78 410 1
78 414 1
78 418 1
78 432 1
78 460 1
78 481 1
78 482 1
78 486 1
78 490 1
78 500 1
78 525 1
78 526 1
79 180 1
79 193 1
79 201 1
79 202 1
79 224 1
79 238 1
79 245 1
79 246 1
79 268 1
79 281 1
79 289 1
79 290 1
79 308 1
79 326 1
79 329 1
79 330 1
79 363 1
79 364 1
79 390 1
79 411 1
79 412 1
79 416 1
79 420 1
79 434 1
79 462 1
79 483 1
79 484 1
79 488 1
79 492 1
79 502 1
79 527 1
79 528 1
80 182 1
80 195 1
80 203 1
80 204 1
80 226 1
80 240 1
80 247 1
80 248 1
80 270 1
80 283 1
80 291 1
80 292 1
80 310 1
80 328 1
80 331 1
80 332 1
80 365 1
80 366 1
80 392 1
80 413 1
80 414 1
80 418 1
80 422 1
80 436 1
80 441 1
80 442 1
80 464 1
80 485 1
80 486 1
80 490 1
80 494 1
80 504 1
81 184 1
81 197 1
81 205 1
81 206 1
81 228 1
81 242 1
81 249 1
81 250 1
81 272 1
81 285 1
81 293 1
81 294 1
81 312 1
81 330 1
81 333 1
81 334 1
81 367 1
81 368 1
81 394 1
81 415 1
81 416 1
81 420 1
81 424 1
81 438 1
81 443 1
81 444 1
81 466 1
81 487 1
81 488 1
81 492 1
81 496 1
81 506 1
82 186 1
82 199 1
82 207 1
82 208 1
82 230 1
82 244 1
82 251 1
82 252 1
82 274 1
82 287 1
82 295 1
82 296 1
82 314 1
82 332 1
82 335 1
82 336 1
82 369 1
82 370 1
82 396 1
82 417 1
82 418 1
82 422 1
82 426 1
82 440 1
82 445 1
82 446 1
82 468 1
82 489 1
82 490 1
82 494 1
82 498 1
82 508 1
83 188 1
83 201 1
83 209 1
83 210 1
83 232 1
83 246 1
83 253 1
83 254 1
83 276 1
83 289 1
83 297 1
83 298 1
83 316 1
83 334 1
83 337 1
83 338 1
83 354 1
83 371 1
83 372 1
83 398 1
83 419 1
83 420 1
83 424 1
83 428 1
83 447 1
83 448 1
83 470 1
83 491 1
83 492 1
83 496 1
83 500 1
83 510 1
84 190 1
84 203 1
84 211 1
84 212 1
84 234 1
84 248 1
84 255 1
84 256 1
84 278 1
84 291 1
84 299 1
84 300 1
84 318 1
84 336 1
84 339 1
84 340 1
84 356 1
84 373 1
84 374 1
84 400 1
84 421 1
84 422 1
84 426 1
84 430 1
84 449 1
84 450 1
84 472 1
84 493 1
84 494 1
84 498 1
84 502 1
84 512 1
85 192 1
85 205 1
85 213 1
85 214 1
85 236 1
85 250 1
85 257 1
85 258 1
85 280 1
85 293 1
85 301 1
85 302 1
85 320 1
85 338 1
85 341 1
85 342 1
85 358 1
85 375 1
85 376 1
85 402 1
85 423 1
85 424 1
85 428 1
85 432 1
85 451 1
85 452 1
85 474 1
85 495 1
85 496 1
85 500 1
85 504 1
85 514 1
86 194 1
86 207 1
86 215 1
86 216 1
86 238 1
86 252 1
86 259 1
86 260 1
86 282 1
86 295 1
86 303 1
86 304 1
86 322 1
86 340 1
86 343 1
86 344 1
86 360 1
86 377 1
86 378 1
86 404 1
86 425 1
86 426 1
86 430 1
86 434 1
86 453 1
86 454 1
86 476 1
86 497 1
86 498 1
86 502 1
86 506 1
86 516 1
87 196 1
87 209 1
87 217 1
87 218 1
87 240 1
87 254 1
87 261 1
87 262 1
87 284 1
87 297 1
87 305 1
87 306 1
87 324 1
87 342 1
87 345 1
87 346 1
87 362 1
87 379 1
87 380 1
87 406 1
87 427 1
87 428 1
87 432 1
87 436 1
87 455 1
87 456 1
87 478 1
87 499 1
87 500 1
87 504 1
87 508 1
87 518 1
88 198 1
88 211 1
88 219 1
88 220 1
88 242 1
88 256 1
88 263 1
88 264 1
88 286 1
88 299 1
88 307 1
88 308 1
88 326 1
88 344 1
88 347 1
88 348 1
88 364 1
88 381 1
88 382 1
88 408 1
88 429 1
88 430 1
88 434 1
88 438 1
88 457 1
88 458 1
88 480 1
88 501 1
88 502 1
88 506 1
88 510 1
88 520 1
89 266 1
89 288 1
89 298 1
89 319 1
89 320 1
89 353 1
89 354 1
89 395 1
89 406 1
89 410 1
89 417 1
89 418 1
89 440 1
89 445 1
89 446 1
89 478 1
89 492 1
89 503 1
89 504 1
89 511 1
89 512 1
89 529 1
89 530 1
89 552 1
89 565 1
89 573 1
89 574 1
89 596 1
89 610 1
90 268 1
90 290 1
90 300 1
90 321 1
90 322 1
90 354 1
90 355 1
90 356 1
90 397 1
90 408 1
90 412 1
90 419 1
90 420 1
90 447 1
90 448 1
90 480 1
90 494 1
90 505 1
90 506 1
90 513 1
90 514 1
90 531 1
90 532 1
90 554 1
90 567 1
90 575 1
90 576 1
90 598 1
90 612 1
91 270 1
91 292 1
91 302 1
91 323 1
91 324 1
91 356 1
91 357 1
91 358 1
91 399 1
91 410 1
91 414 1
91 421 1
91 422 1
91 449 1
91 450 1
91 482 1
91 496 1
91 507 1
91 508 1
91 515 1
91 516 1
91 533 1
91 534 1
91 556 1
91 569 1
91 577 1
91 578 1
91 600 1
91 614 1
92 272 1
92 294 1
92 304 1
92 325 1
92 326 1
92 358 1
92 359 1
92 360 1
92 401 1
92 412 1
92 416 1
92 423 1
92 424 1
92 451 1
92 452 1
92 484 1
92 498 1
92 509 1
92 510 1
92 517 1
92 518 1
92 535 1
92 536 1
92 558 1
92 571 1
92 579 1
92 580 1
92 602 1
92 616 1
93 274 1
93 296 1
93 306 1
93 327 1
93 328 1
93 360 1
93 361 1
93 362 1
93 403 1
93 414 1
93 418 1
93 425 1
93 426 1
93 453 1
93 454 1
93 486 1
93 500 1
93 511 1
93 512 1
93 519 1
93 520 1
93 530 1
93 537 1
93 538 1
93 560 1
93 573 1
93 581 1
93 582 1
93 604 1
94 276 1
94 298 1
94 308 1
94 329 1
94 330 1
94 362 1
94 363 1
94 364 1
94 405 1
94 416 1
94 420 1
94 427 1
94 428 1
94 455 1
94 456 1
94 488 1
94 502 1
94 513 1
94 514 1
94 521 1
94 522 1
94 532 1
94 539 1
94 540 1
94 562 1
94 575 1
94 583 1
94 584 1
94 606 1
95 278 1
95 300 1
95 310 1
95 331 1
95 332 1
95 364 1
95 365 1
95 366 1
95 407 1
95 418 1
95 422 1
95 429 1
95 430 1
95 457 1
95 458 1
95 490 1
95 504 1
95 515 1
95 516 1
95 523 1
95 524 1
95 534 1
95 541 1
95 542 1
95 564 1
95 577 1
95 585 1
95 586 1
95 608 1
96 280 1
96 302 1
96 312 1
96 333 1
96 334 1
96 366 1
96 367 1
96 368 1
96 409 1
96 420 1
96 424 1
96 431 1
96 432 1
96 459 1
96 460 1
96 492 1
96 506 1
96 517 1
96 518 1
96 525 1
96 526 1
96 536 1
96 543 1
96 544 1
96 566 1
96 579 1
96 587 1
96 588 1
96 610 1
97 282 1
97 304 1
97 314 1
97 335 1
97 336 1
97 368 1
97 369 1
97 370 1
97 411 1
97 422 1
97 426 1
97 433 1
97 434 1
97 461 1
97 462 1
97 494 1
97 508 1
97 519 1
97 520 1
97 527 1
97 528 1
97 538 1
97 545 1
97 546 1
97 568 1
97 581 1
97 589 1
97 590 1
97 612 1
98 284 1
98 306 1
98 316 1
98 337 1
98 338 1
98 370 1
98 371 1
98 372 1
98 413 1
98 424 1
98 428 1
98 435 1
98 436 1
98 441 1
98 442 1
98 463 1
98 464 1
98 496 1
98 510 1
98 521 1
98 522 1
98 540 1
98 547 1
98 548 1
98 570 1
98 583 1
98 591 1
98 592 1
98 614 1
99 286 1
99 308 1
99 318 1
99 339 1
99 340 1
99 372 1
99 373 1
99 374 1
99 415 1
99 426 1
99 430 1
99 437 1
99 438 1
99 443 1
99 444 1
99 465 1
99 466 1
99 498 1
99 512 1
99 523 1
99 524 1
99 542 1
99 549 1
99 550 1
99 572 1
99 585 1
99 593 1
99 594 1
99 616 1
100 288 1
100 310 1
100 320 1
100 341 1
100 342 1
100 374 1
100 375 1
100 376 1
100 417 1
100 428 1
100 432 1
100 439 1
100 440 1
100 445 1
100 446 1
100 467 1
100 468 1
100 500 1
100 514 1
100 525 1
100 526 1
100 530 1
100 544 1
100 551 1
100 552 1
100 574 1
100 587 1
100 595 1
100 596 1
101 290 1
101 312 1
101 322 1
101 343 1
101 344 1
101 353 1
101 354 1
101 376 1
101 377 1
101 378 1
101 419 1
101 430 1
101 434 1
101 447 1
101 448 1
101 469 1
101 470 1
101 502 1
101 516 1
101 527 1
101 528 1
101 532 1
101 546 1
101 553 1
101 554 1
101 576 1
101 589 1
101 597 1
101 598 1
102 292 1
102 314 1
102 324 1
102 345 1
102 346 1
102 355 1
102 356 1
102 378 1
102 379 1
102 380 1
102 421 1
102 432 1
102 436 1
102 441 1
102 442 1
102 449 1
102 450 1
102 471 1
102 472 1
102 504 1
102 518 1
102 534 1
102 548 1
102 555 1
102 556 1
102 578 1
102 591 1
102 599 1
102 600 1
103 294 1
103 316 1
103 326 1
103 347 1
103 348 1
103 357 1
103 358 1
103 380 1
103 381 1
103 382 1
103 423 1
103 434 1
103 438 1
103 443 1
103 444 1
103 451 1
103 452 1
103 473 1
103 474 1
103 506 1
103 520 1
103 536 1
103 550 1
103 557 1
103 558 1
103 580 1
103 593 1
103 601 1
103 602 1
104 296 1
104 318 1
104 328 1
104 349 1
104 350 1
104 359 1
104 360 1
104 382 1
104 383 1
104 384 1
104 425 1
104 436 1
104 440 1
104 445 1
104 446 1
104 453 1
104 454 1
104 475 1
104 476 1
104 508 1
104 522 1
104 538 1
104 552 1
104 559 1
104 560 1
104 582 1
104 595 1
104 603 1
104 604 1
105 298 1
105 320 1
105 330 1
105 351 1
105 352 1
105 354 1
105 361 1
105 362 1
105 384 1
105 385 1
105 386 1
105 427 1
105 438 1
105 447 1
105 448 1
105 455 1
105 456 1
105 477 1
105 478 1
105 510 1
105 524 1
105 540 1
105 554 1
105 561 1
105 562 1
105 584 1
105 597 1
105 605 1
105 606 1
106 265 1
106 266 1
106 300 1
106 322 1
106 332 1
106 356 1
106 363 1
106 364 1
106 386 1
106 387 1
106 388 1
106 429 1
106 440 1
106 449 1
106 450 1
106 457 1
106 458 1
106 479 1
106 480 1
106 512 1
106 526 1
106 542 1
106 556 1
106 563 1
106 564 1
106 586 1
106 599 1
106 607 1
106 608 1
107 267 1
107 268 1
107 302 1
107 324 1
107 334 1
107 354 1
107 358 1
107 365 1
107 366 1
107 388 1
107 389 1
107 390 1
107 431 1
107 451 1
107 452 1
107 459 1
107 460 1
107 481 1
107 482 1
107 514 1
107 528 1
107 544 1
107 558 1
107 565 1
107 566 1
107 588 1
107 601 1
107 609 1
107 610 1
108 269 1
108 270 1
108 304 1
108 326 1
108 336 1
108 356 1
108 360 1
108 367 1
108 368 1
108 390 1
108 391 1
108 392 1
108 433 1
108 442 1
108 453 1
108 454 1
108 461 1
108 462 1
108 483 1
108 484 1
108 516 1
108 546 1
108 560 1
108 567 1
108 568 1
108 590 1
108 603 1
108 611 1
108 612 1
109 271 1
109 272 1
109 306 1
109 328 1
109 338 1
109 358 1
109 362 1
109 369 1
109 370 1
109 392 1
109 393 1
109 394 1
109 435 1
109 444 1
109 455 1
109 456 1
109 463 1
109 464 1
109 485 1
109 486 1
109 518 1
109 548 1
109 562 1
109 569 1
109 570 1
109 592 1
109 605 1
109 613 1
109 614 1
110 273 1
110 274 1
110 308 1
110 330 1
110 340 1
110 360 1
110 364 1
110 371 1
110 372 1
110 394 1
110 395 1
110 396 1
110 437 1
110 446 1
110 457 1
110 458 1
110 465 1
110 466 1
110 487 1
110 488 1
110 520 1
110 550 1
110 564 1
110 571 1
110 572 1
110 594 1
110 607 1
110 615 1
110 616 1
111 275 1
111 276 1
111 310 1
111 332 1
111 342 1
111 362 1
111 366 1
111 373 1
111 374 1
111 396 1
111 397 1
111 398 1
111 439 1
111 448 1
111 459 1
111 460 1
111 467 1
111 468 1
111 489 1
111 490 1
111 522 1
111 529 1
111 530 1
111 552 1
111 566 1
111 573 1
111 574 1
111 596 1
111 609 1
112 277 1
112 278 1
112 312 1
112 334 1
112 344 1
112 353 1
112 364 1
112 368 1
112 375 1
112 376 1
112 398 1
112 399 1
112 400 1
112 450 1
112 461 1
112 462 1
112 469 1
112 470 1
112 491 1
112 492 1
112 524 1
112 531 1
112 532 1
112 554 1
112 568 1
112 575 1
112 576 1
112 598 1
112 611 1
113 279 1
113 280 1
113 314 1
113 336 1
113 346 1
113 355 1
113 366 1
113 370 1
113 377 1
113 378 1
113 400 1
113 401 1
113 402 1
113 452 1
113 463 1
113 464 1
113 471 1
113 472 1
113 493 1
113 494 1
113 526 1
113 533 1
113 534 1
113 556 1
113 570 1
113 577 1
113 578 1
113 600 1
113 613 1
114 281 1
114 282 1
114 316 1
114 338 1
114 348 1
114 357 1
114 368 1
114 372 1
114 379 1
114 380 1
114 402 1
114 403 1
114 404 1
114 454 1
114 465 1
114 466 1
114 473 1
114 474 1
114 495 1
114 496 1
114 528 1
114 535 1
114 536 1
114 558 1
114 572 1
114 579 1
114 580 1
114 602 1
114 615 1
115 283 1
115 284 1
115 318 1
115 340 1
115 350 1
115 359 1
115 370 1
115 374 1
115 381 1
115 382 1
115 404 1
115 405 1
115 406 1
115 442 1
115 456 1
115 467 1
115 468 1
115 475 1
115 476 1
115 497 1
115 498 1
115 529 1
115 537 1
115 538 1
115 560 1
115 574 1
115 581 1
115 582 1
115 604 1
116 285 1
116 286 1
116 320 1
116 342 1
116 352 1
116 361 1
116 372 1
116 376 1
116 383 1
116 384 1
116 406 1
116 407 1
116 408 1
116 444 1
116 458 1
116 469 1
116 470 1
116 477 1
116 478 1
116 499 1
116 500 1
116 531 1
116 539 1
116 540 1
116 562 1
116 576 1
116 583 1
116 584 1
116 606 1
117 266 1
117 287 1
117 288 1
117 322 1
117 344 1
117 363 1
117 374 1
117 378 1
117 385 1
117 386 1
117 408 1
117 409 1
117 410 1
117 446 1
117 460 1
117 471 1
117 472 1
117 479 1
117 480 1
117 501 1
117 502 1
117 533 1
117 541 1
117 542 1
117 564 1
117 578 1
117 585 1
117 586 1
117 608 1
118 268 1
118 289 1
118 290 1
118 324 1
118 346 1
118 365 1
118 376 1
118 380 1
118 387 1
118 388 1
118 410 1
118 411 1
118 412 1
118 448 1
118 462 1
118 473 1
118 474 1
118 481 1
118 482 1
118 503 1
118 504 1
118 535 1
118 543 1
118 544 1
118 566 1
118 580 1
118 587 1
118 588 1
118 610 1
119 270 1
119 291 1
119 292 1
119 326 1
119 348 1
119 367 1
119 378 1
119 382 1
119 389 1
119 390 1
119 412 1
119 413 1
119 414 1
119 450 1
119 464 1
119 475 1
119 476 1
119 483 1
119 484 1
119 505 1
119 506 1
119 537 1
119 545 1
119 546 1
119 568 1
119 582 1
119 589 1
119 590 1
119 612 1
120 272 1
120 293 1
120 294 1
120 328 1
120 350 1
120 369 1
120 380 1
120 384 1
120 391 1
120 392 1
120 414 1
120 415 1
120 416 1
120 452 1
120 466 1
120 477 1
120 478 1
120 485 1
120 486 1
120 507 1
120 508 1
120 539 1
120 547 1
120 548 1
120 570 1
120 584 1
120 591 1
120 592 1
120 614 1
121 274 1
121 295 1
121 296 1
121 330 1
121 352 1
121 371 1
121 382 1
121 386 1
121 393 1
121 394 1
121 416 1
121 417 1
121 418 1
121 454 1
121 468 1
121 479 1
121 480 1
121 487 1
121 488 1
121 509 1
121 510 1
121 541 1
121 549 1
121 550 1
121 572 1
121 586 1
121 593 1
121 594 1
121 616 1
122 266 1
122 276 1
122 297 1
122 298 1
122 332 1
122 373 1
122 384 1
122 388 1
122 395 1
122 396 1
122 418 1
122 419 1
122 420 1
122 456 1
122 470 1
122 481 1
122 482 1
122 489 1
122 490 1
122 511 1
122 512 1
122 530 1
122 543 1
122 551 1
122 552 1
122 574 1
122 588 1
122 595 1
122 596 1
123 268 1
123 278 1
123 299 1
123 300 1
123 334 1
123 375 1
123 386 1
123 390 1
123 397 1
123 398 1
123 420 1
123 421 1
123 422 1
123 458 1
123 472 1
123 483 1
123 484 1
123 491 1
123 492 1
123 513 1
123 514 1
123 532 1
123 545 1
123 553 1
123 554 1
123 576 1
123 590 1
123 597 1
123 598 1
124 270 1
124 280 1
124 301 1
124 302 1
124 336 1
124 377 1
124 388 1
124 392 1
124 399 1
124 400 1
124 422 1
124 423 1
124 424 1
124 460 1
124 474 1
124 485 1
124 486 1
124 493 1
124 494 1
124 515 1
124 516 1
124 534 1
124 547 1
124 555 1
124 556 1
124 578 1
124 592 1
124 599 1
124 600 1
125 272 1
125 282 1
125 303 1
125 304 1
125 338 1
125 379 1
125 390 1
125 394 1
125 401 1
125 402 1
125 424 1
125 425 1
125 426 1
125 462 1
125 476 1
125 487 1
125 488 1
125 495 1
125 496 1
125 517 1
125 518 1
125 536 1
125 549 1
125 557 1
125 558 1
125 580 1
125 594 1
125 601 1
125 602 1
126 274 1
126 284 1
126 305 1
126 306 1
126 340 1
126 381 1
126 392 1
126 396 1
126 403 1
126 404 1
126 426 1
126 427 1
126 428 1
126 464 1
126 478 1
126 489 1
126 490 1
126 497 1
126 498 1
126 519 1
126 520 1
126 538 1
126 551 1
126 559 1
126 560 1
126 582 1
126 596 1
126 603 1
126 604 1
127 276 1
127 286 1
127 307 1
127 308 1
127 342 1
127 383 1
127 394 1
127 398 1
127 405 1
127 406 1
127 428 1
127 429 1
127 430 1
127 466 1
127 480 1
127 491 1
127 492 1
127 499 1
127 500 1
127 521 1
127 522 1
127 540 1
127 553 1
127 561 1
127 562 1
127 584 1
127 598 1
127 605 1
127 606 1
128 278 1
128 288 1
128 309 1
128 310 1
128 344 1
128 385 1
128 396 1
128 400 1
128 407 1
128 408 1
128 430 1
128 431 1
128 432 1
128 468 1
128 482 1
128 493 1
128 494 1
128 501 1
128 502 1
128 523 1
128 524 1
128 542 1
128 555 1
128 563 1
128 564 1
128 586 1
128 600 1
128 607 1
128 608 1
129 280 1
129 290 1
129 311 1
129 312 1
129 346 1
129 387 1
129 398 1
129 402 1
129 409 1
129 410 1
129 432 1
129 433 1
129 434 1
129 470 1
129 484 1
129 495 1
129 496 1
129 503 1
129 504 1
129 525 1
129 526 1
129 544 1
129 557 1
129 565 1
129 566 1
129 588 1
129 602 1
129 609 1
129 610 1
130 282 1
130 292 1
130 313 1
130 314 1
130 348 1
130 389 1
130 400 1
130 404 1
130 411 1
130 412 1
130 434 1
130 435 1
130 436 1
130 472 1
130 486 1
130 497 1
130 498 1
130 505 1
130 506 1
130 527 1
130 528 1
130 546 1
130 559 1
130 567 1
130 568 1
130 590 1
130 604 1
130 611 1
130 612 1
131 284 1
131 294 1
131 315 1
131 316 1
131 350 1
131 391 1
131 402 1
131 406 1
131 413 1
131 414 1
131 436 1
131 437 1
131 438 1
131 441 1
131 442 1
131 474 1
131 488 1
131 499 1
131 500 1
131 507 1
131 508 1
131 548 1
131 561 1
131 569 1
131 570 1
131 592 1
131 606 1
131 613 1
131 614 1
132 286 1
132 296 1
132 317 1
132 318 1
132 352 1
132 393 1
132 404 1
132 408 1
132 415 1
132 416 1
132 438 1
132 439 1
132 440 1
132 443 1
132 444 1
132 476 1
132 490 1
132 501 1
132 502 1
132 509 1
132 510 1
132 550 1
132 563 1
132 571 1
132 572 1
132 594 1
132 608 1
132 615 1
132 616 1
133 265 1
133 266 1
133 287 1
133 288 1
133 297 1
133 298 1
133 319 1
133 353 1
133 396 1
133 405 1
133 406 1
133 409 1
133 410 1
133 417 1
133 439 1
133 440 1
133 445 1
133 477 1
133 478 1
133 491 1
133 492 1
133 503 1
133 511 1
133 529 1
133 551 1
133 552 1
133 566 1
133 573 1
133 595 1
133 596 1
133 609 1
133 610 1
134 267 1
134 268 1
134 289 1
134 290 1
134 299 1
134 300 1
134 321 1
134 353 1
134 354 1
134 355 1
134 398 1
134 407 1
134 408 1
134 411 1
134 412 1
134 419 1
134 447 1
134 479 1
134 480 1
134 493 1
134 494 1
134 505 1
134 513 1
134 531 1
134 553 1
134 554 1
134 568 1
134 575 1
134 597 1
134 598 1
134 611 1
134 612 1
135 269 1
135 270 1
135 291 1
135 292 1
135 301 1
135 302 1
135 323 1
135 355 1
135 356 1
135 357 1
135 400 1
135 409 1
135 410 1
135 413 1
135 414 1
135 421 1
135 449 1
135 481 1
135 482 1
135 495 1
135 496 1
135 507 1
135 515 1
135 533 1
135 555 1
135 556 1
135 570 1
135 577 1
135 599 1
135 600 1
135 613 1
135 614 1
136 271 1
136 272 1
136 293 1
136 294 1
136 303 1
136 304 1
136 325 1
136 357 1
136 358 1
136 359 1
136 402 1
136 411 1
136 412 1
136 415 1
136 416 1
136 423 1
136 451 1
136 483 1
136 484 1
136 497 1
136 498 1
136 509 1
136 517 1
136 535 1
136 557 1
136 558 1
136 572 1
136 579 1
136 601 1
136 602 1
136 615 1
136 616 1
137 273 1
137 274 1
137 295 1
137 296 1
137 305 1
137 306 1
137 327 1
137 359 1
137 360 1
137 361 1
137 404 1
137 413 1
137 414 1
137 417 1
137 418 1
137 425 1
137 453 1
137 485 1
137 486 1
137 499 1
137 500 1
137 511 1
137 519 1
137 529 1
137 530 1
137 537 1
137 559 1
137 560 1
137 574 1
137 581 1
137 603 1
137 604 1
138 275 1
138 276 1
138 297 1
138 298 1
138 307 1
138 308 1
138 329 1
138 361 1
138 362 1
138 363 1
138 406 1
138 415 1
138 416 1
138 419 1
138 420 1
138 427 1
138 455 1
138 487 1
138 488 1
138 501 1
138 502 1
138 513 1
138 521 1
138 531 1
138 532 1
138 539 1
138 561 1
138 562 1
138 576 1
138 583 1
138 605 1
138 606 1
139 277 1
139 278 1
139 299 1
139 300 1
139 309 1
139 310 1
139 331 1
139 363 1
139 364 1
139 365 1
139 408 1
139 417 1
139 418 1
139 421 1
139 422 1
139 429 1
139 457 1
139 489 1
139 490 1
139 503 1
139 504 1
139 515 1
139 523 1
139 533 1
139 534 1
139 541 1
139 563 1
139 564 1
139 578 1
139 585 1
139 607 1
139 608 1
140 279 1
140 280 1
140 301 1
140 302 1
140 311 1
140 312 1
140 333 1
140 365 1
140 366 1
140 367 1
140 410 1
140 419 1
140 420 1
140 423 1
140 424 1
140 431 1
140 459 1
140 491 1
140 492 1
140 505 1
140 506 1
140 517 1
140 525 1
140 535 1
140 536 1
140 543 1
140 565 1
140 566 1
140 580 1
140 587 1
140 609 1
140 610 1
141 281 1
141 282 1
141 303 1
141 304 1
141 313 1
141 314 1
141 335 1
141 367 1
141 368 1
141 369 1
141 412 1
141 421 1
141 422 1
141 425 1
141 426 1
141 433 1
141 461 1
141 493 1
141 494 1
141 507 1
141 508 1
141 519 1
141 527 1
141 537 1
141 538 1
141 545 1
141 567 1
141 568 1
141 582 1
141 589 1
141 611 1
141 612 1
142 283 1
142 284 1
142 305 1
142 306 1
142 315 1
142 316 1
142 337 1
142 369 1
142 370 1
142 371 1
142 414 1
142 423 1
142 424 1
142 427 1
142 428 1
142 435 1
142 441 1
142 463 1
142 495 1
142 496 1
142 509 1
142 510 1
142 521 1
142 539 1
142 540 1
142 547 1
142 569 1
142 570 1
142 584 1
142 591 1
142 613 1
142 614 1
143 285 1
143 286 1
143 307 1
143 308 1
143 317 1
143 318 1
143 339 1
143 371 1
143 372 1
143 373 1
143 416 1
143 425 1
143 426 1
143 429 1
143 430 1
143 437 1
143 443 1
143 465 1
143 497 1
143 498 1
143 511 1
143 512 1
143 523 1
143 541 1
143 542 1
143 549 1
143 571 1
143 572 1
143 586 1
143 593 1
143 615 1
143 616 1
144 287 1
144 288 1
144 309 1
144 310 1
144 319 1
144 320 1
144 341 1
144 373 1
144 374 1
144 375 1
144 418 1
144 427 1
144 428 1
144 431 1
144 432 1
144 439 1
144 445 1
144 467 1
144 499 1
144 500 1
144 513 1
144 514 1
144 525 1
144 529 1
144 530 1
144 543 1
144 544 1
144 551 1
144 573 1
144 574 1
144 588 1
144 595 1
145 289 1
145 290 1
145 311 1
145 312 1
145 321 1
145 322 1
145 343 1
145 353 1
145 375 1
145 376 1
145 377 1
145 420 1
145 429 1
145 430 1
145 433 1
145 434 1
145 447 1
145 469 1
145 501 1
145 502 1
145 515 1
145 516 1
145 527 1
145 531 1
145 532 1
145 545 1
145 546 1
145 553 1
145 575 1
145 576 1
145 590 1
145 597 1
146 291 1
146 292 1
146 313 1
146 314 1
146 323 1
146 324 1
146 345 1
146 355 1
146 377 1
146 378 1
146 379 1
146 422 1
146 431 1
146 432 1
146 435 1
146 436 1
146 441 1
146 449 1
146 471 1
146 503 1
146 504 1
146 517 1
146 518 1
146 533 1
146 534 1
146 547 1
146 548 1
146 555 1
146 577 1
146 578 1
146 592 1
146 599 1
147 293 1
147 294 1
147 315 1
147 316 1
147 325 1
147 326 1
147 347 1
147 357 1
147 379 1
147 380 1
147 381 1
147 424 1
147 433 1
147 434 1
147 437 1
147 438 1
147 443 1
147 451 1
147 473 1
147 505 1
147 506 1
147 519 1
147 520 1
147 535 1
147 536 1
147 549 1
147 550 1
147 557 1
147 579 1
147 580 1
147 594 1
147 601 1
148 295 1
148 296 1
148 317 1
148 318 1
148 327 1
148 328 1
148 349 1
148 359 1
148 381 1
148 382 1
148 383 1
148 426 1
148 435 1
148 436 1
148 439 1
148 440 1
148 445 1
148 453 1
148 475 1
148 507 1
148 508 1
148 521 1
148 522 1
148 537 1
148 538 1
148 551 1
148 552 1
148 559 1
148 581 1
148 582 1
148 596 1
148 603 1
149 297 1
149 298 1
149 319 1
149 320 1
149 329 1
149 330 1
149 351 1
149 353 1
149 354 1
149 361 1
149 383 1
149 384 1
149 385 1
149 428 1
149 437 1
149 438 1
149 447 1
149 455 1
149 477 1
149 509 1
149 510 1
149 523 1
149 524 1
149 539 1
149 540 1
149 553 1
149 554 1
149 561 1
149 583 1
149 584 1
149 598 1
149 605 1
150 265 1
150 299 1
150 300 1
150 321 1
150 322 1
150 331 1
150 332 1
150 355 1
150 356 1
150 363 1
150 385 1
150 386 1
150 387 1
150 430 1
150 439 1
150 440 1
150 449 1
150 457 1
150 479 1
150 511 1
150 512 1
150 525 1
150 526 1
150 541 1
150 542 1
150 555 1
150 556 1
150 563 1
150 585 1
150 586 1
150 600 1
150 607 1
151 267 1
151 301 1
151 302 1
151 323 1
151 324 1
151 333 1
151 334 1
151 353 1
151 354 1
151 357 1
151 358 1
151 365 1
151 387 1
151 388 1
151 389 1
151 432 1
151 451 1
151 459 1
151 481 1
151 513 1
151 514 1
151 527 1
151 528 1
151 543 1
151 544 1
151 557 1
151 558 1
151 565 1
151 587 1
151 588 1
151 602 1
151 609 1
152 269 1
152 303 1
152 304 1
152 325 1
152 326 1
152 335 1
152 336 1
152 355 1
152 356 1
152 359 1
152 360 1
152 367 1
152 389 1
152 390 1
152 391 1
152 434 1
152 441 1
152 442 1
152 453 1
152 461 1
152 483 1
152 515 1
152 516 1
152 545 1
152 546 1
152 559 1
152 560 1
152 567 1
152 589 1
152 590 1
152 604 1
152 611 1
153 271 1
153 305 1
153 306 1
153 327 1
153 328 1
153 337 1
153 338 1
153 357 1
153 358 1
153 361 1
153 362 1
153 369 1
153 391 1
153 392 1
153 393 1
153 436 1
153 443 1
153 444 1
153 455 1
153 463 1
153 485 1
153 517 1
153 518 1
153 547 1
153 548 1
153 561 1
153 562 1
153 569 1
153 591 1
153 592 1
153 606 1
153 613 1
154 273 1
154 307 1
154 308 1
154 329 1
154 330 1
154 339 1
154 340 1
154 359 1
154 360 1
154 363 1
154 364 1
154 371 1
154 393 1
154 394 1
154 395 1
154 438 1
154 445 1
154 446 1
154 457 1
154 465 1
154 487 1
154 519 1
154 520 1
154 549 1
154 550 1
154 563 1
154 564 1
154 571 1
154 593 1
154 594 1
154 608 1
154 615 1
155 275 1
155 309 1
155 310 1
155 331 1
155 332 1
155 341 1
155 342 1
155 361 1
155 362 1
155 365 1
155 366 1
155 373 1
155 395 1
155 396 1
155 397 1
155 440 1
155 447 1
155 448 1
155 459 1
155 467 1
155 489 1
155 521 1
155 522 1
155 529 1
155 551 1
155 552 1
155 565 1
155 566 1
155 573 1
155 595 1
155 596 1
155 610 1
156 277 1
156 311 1
156 312 1
156 333 1
156 334 1
156 343 1
156 344 1
156 354 1
156 363 1
156 364 1
156 367 1
156 368 1
156 375 1
156 397 1
156 398 1
156 399 1
156 449 1
156 450 1
156 461 1
156 469 1
156 491 1
156 523 1
156 524 1
156 531 1
156 553 1
156 554 1
156 567 1
156 568 1
156 575 1
156 597 1
156 598 1
156 612 1
157 279 1
157 313 1
157 314 1
157 335 1
157 336 1
157 345 1
157 346 1
157 356 1
157 365 1
157 366 1
157 369 1
157 370 1
157 377 1
157 399 1
157 400 1
157 401 1
157 451 1
157 452 1
157 463 1
157 471 1
157 493 1
157 525 1
157 526 1
157 533 1
157 555 1
157 556 1
157 569 1
157 570 1
157 577 1
157 599 1
157 600 1
157 614 1
158 281 1
158 315 1
158 316 1
158 337 1
158 338 1
158 347 1
158 348 1
158 358 1
158 367 1
158 368 1
158 371 1
158 372 1
158 379 1
158 401 1
158 402 1
158 403 1
158 453 1
158 454 1
158 465 1
158 473 1
158 495 1
158 527 1
158 528 1
158 535 1
158 557 1
158 558 1
158 571 1
158 572 1
158 579 1
158 601 1
158 602 1
158 616 1
159 283 1
159 317 1
159 318 1
159 339 1
159 340 1
159 349 1
159 350 1
159 360 1
159 369 1
159 370 1
159 373 1
159 374 1
159 381 1
159 403 1
159 404 1
159 405 1
159 441 1
159 442 1
159 455 1
159 456 1
159 467 1
159 475 1
159 497 1
159 530 1
159 537 1
159 559 1
159 560 1
159 573 1
159 574 1
159 581 1
159 603 1
159 604 1
160 285 1
160 319 1
160 320 1
160 341 1
160 342 1
160 351 1
160 352 1
160 362 1
160 371 1
160 372 1
160 375 1
160 376 1
160 383 1
160 405 1
160 406 1
160 407 1
160 443 1
160 444 1
160 457 1
160 458 1
160 469 1
160 477 1
160 499 1
160 532 1
160 539 1
160 561 1
160 562 1
160 575 1
160 576 1
160 583 1
160 605 1
160 606 1
161 265 1
161 266 1
161 287 1
161 321 1
161 322 1
161 343 1
161 344 1
161 364 1
161 373 1
161 374 1
161 377 1
161 378 1
161 385 1
161 407 1
161 408 1
161 409 1
161 445 1
161 446 1
161 459 1
161 460 1
161 471 1
161 479 1
161 501 1
161 534 1
161 541 1
161 563 1
161 564 1
161 577 1
161 578 1
161 585 1
161 607 1
161 608 1
162 267 1
162 268 1
162 289 1
162 323 1
162 324 1
162 345 1
162 346 1
162 366 1
162 375 1
162 376 1
162 379 1
162 380 1
162 387 1
162 409 1
162 410 1
162 411 1
162 447 1
162 448 1
162 461 1
162 462 1
162 473 1
162 481 1
162 503 1
162 536 1
162 543 1
162 565 1
162 566 1
162 579 1
162 580 1
162 587 1
162 609 1
162 610 1
163 269 1
163 270 1
163 291 1
163 325 1
163 326 1
163 347 1
163 348 1
163 368 1
163 377 1
163 378 1
163 381 1
163 382 1
163 389 1
163 411 1
163 412 1
163 413 1
163 449 1
163 450 1
163 463 1
163 464 1
163 475 1
163 483 1
163 505 1
163 538 1
163 545 1
163 567 1
163 568 1
163 581 1
163 582 1
163 589 1
163 611 1
163 612 1
164 271 1
164 272 1
164 293 1
164 327 1
164 328 1
164 349 1
164 350 1
164 370 1
164 379 1
164 380 1
164 383 1
164 384 1
164 391 1
164 413 1
164 414 1
164 415 1
164 451 1
164 452 1
164 465 1
164 466 1
164 477 1
164 485 1
164 507 1
164 540 1
164 547 1
164 569 1
164 570 1
164 583 1
164 584 1
164 591 1
164 613 1
164 614 1
165 273 1
165 274 1
165 295 1
165 329 1
165 330 1
165 351 1
165 352 1
165 372 1
165 381 1
165 382 1
165 385 1
165 386 1
165 393 1
165 415 1
165 416 1
165 417 1
165 453 1
165 454 1
165 467 1
165 468 1
165 479 1
165 487 1
165 509 1
165 542 1
165 549 1
165 571 1
165 572 1
165 585 1
165 586 1
165 593 1
165 615 1
165 616 1
166 265 1
166 266 1
166 275 1
166 276 1
166 297 1
166 331 1
166 332 1
166 374 1
166 383 1
166 384 1
166 387 1
166 388 1
166 395 1
166 417 1
166 418 1
166 419 1
166 455 1
166 456 1
166 469 1
166 470 1
166 481 1
166 489 1
166 511 1
166 529 1
166 530 1
166 544 1
166 551 1
166 573 1
166 574 1
166 587 1
166 588 1
166 595 1
167 267 1
167 268 1
167 277 1
167 278 1
167 299 1
167 333 1
167 334 1
167 376 1
167 385 1
167 386 1
167 389 1
167 390 1
167 397 1
167 419 1
167 420 1
167 421 1
167 457 1
167 458 1
167 471 1
167 472 1
167 483 1
167 491 1
167 513 1
167 531 1
167 532 1
167 546 1
167 553 1
167 575 1
167 576 1
167 589 1
167 590 1
167 597 1
168 269 1
168 270 1
168 279 1
168 280 1
168 301 1
168 335 1
168 336 1
168 378 1
168 387 1
168 388 1
168 391 1
168 392 1
168 399 1
168 421 1
168 422 1
168 423 1
168 459 1
168 460 1
168 473 1
168 474 1
168 485 1
168 493 1
168 515 1
168 533 1
168 534 1
168 548 1
168 555 1
168 577 1
168 578 1
168 591 1
168 592 1
168 599 1
169 271 1
169 272 1
169 281 1
169 282 1
169 303 1
169 337 1
169 338 1
169 380 1
169 389 1
169 390 1
169 393 1
169 394 1
169 401 1
169 423 1
169 424 1
169 425 1
169 461 1
169 462 1
169 475 1
169 476 1
169 487 1
169 495 1
169 517 1
169 535 1
169 536 1
169 550 1
169 557 1
169 579 1
169 580 1
169 593 1
169 594 1
169 601 1
170 273 1
170 274 1
170 283 1
170 284 1
170 305 1
170 339 1
170 340 1
170 382 1
170 391 1
170 392 1
170 395 1
170 396 1
170 403 1
170 425 1
170 426 1
170 427 1
170 463 1
170 464 1
170 477 1
170 478 1
170 489 1
170 497 1
170 519 1
170 537 1
170 538 1
170 552 1
170 559 1
170 581 1
170 582 1
170 595 1
170 596 1
170 603 1
171 275 1
171 276 1
171 285 1
171 286 1
171 307 1
171 341 1
171 342 1
171 384 1
171 393 1
171 394 1
171 397 1
171 398 1
171 405 1
171 427 1
171 428 1
171 429 1
171 465 1
171 466 1
171 479 1
171 480 1
171 491 1
171 499 1
171 521 1
171 539 1
171 540 1
171 554 1
171 561 1
171 583 1
171 584 1
171 597 1
171 598 1
171 605 1
172 277 1
172 278 1
172 287 1
172 288 1
172 309 1
172 343 1
172 344 1
172 386 1
172 395 1
172 396 1
172 399 1
172 400 1
172 407 1
172 429 1
172 430 1
172 431 1
172 467 1
172 468 1
172 481 1
172 482 1
172 493 1
172 501 1
172 523 1
172 541 1
172 542 1
172 556 1
172 563 1
172 585 1
172 586 1
172 599 1
172 600 1
172 607 1
173 279 1
173 280 1
173 289 1
173 290 1
173 311 1
173 345 1
173 346 1
173 388 1
173 397 1
173 398 1
173 401 1
173 402 1
173 409 1
173 431 1
173 432 1
173 433 1
173 469 1
173 470 1
173 483 1
173 484 1
173 495 1
173 503 1
173 525 1
173 543 1
173 544 1
173 558 1
173 565 1
173 587 1
173 588 1
173 601 1
173 602 1
173 609 1
174 281 1
174 282 1
174 291 1
174 292 1
174 313 1
174 347 1
174 348 1
174 390 1
174 399 1
174 400 1
174 403 1
174 404 1
174 411 1
174 433 1
174 434 1
174 435 1
174 471 1
174 472 1
174 485 1
174 486 1
174 497 1
174 505 1
174 527 1
174 545 1
174 546 1
174 560 1
174 567 1
174 589 1
174 590 1
174 603 1
174 604 1
174 611 1
175 283 1
175 284 1
175 293 1
175 294 1
175 315 1
175 349 1
175 350 1
175 392 1
175 401 1
175 402 1
175 405 1
175 406 1
175 413 1
175 435 1
175 436 1
175 437 1
175 441 1
175 473 1
175 474 1
175 487 1
175 488 1
175 499 1
175 507 1
175 547 1
175 548 1
175 562 1
175 569 1
175 591 1
175 592 1
175 605 1
175 606 1
175 613 1
176 285 1
176 286 1
176 295 1
176 296 1
176 317 1
176 351 1
176 352 1
176 394 1
176 403 1
176 404 1
176 407 1
176 408 1
176 415 1
176 437 1
176 438 1
176 439 1
176 443 1
176 475 1
176 476 1
176 489 1
176 490 1
176 501 1
176 509 1
176 549 1
176 550 1
176 564 1
176 571 1
176 593 1
176 594 1
176 607 1
176 608 1
176 615 1
