%%MatrixMarket matrix coordinate integer general
% GF(4) labels 0,1,2=omega,3=omega+1; arithmetic is NOT integer arithmetic.
% Coordinate indices are 1-based; omitted entries are zero.
88 352 1980
1 89 2
1 100 1
1 107 3
1 111 2
1 122 1
1 129 1
1 144 1
1 151 3
1 155 2
1 164 1
1 173 1
1 175 2
1 183 1
1 192 2
1 205 1
1 216 2
1 218 1
1 220 1
1 230 2
1 241 1
1 252 2
1 254 1
1 256 1
1 261 1
2 90 2
2 101 1
2 108 3
2 112 2
2 123 1
2 130 1
2 145 1
2 152 3
2 156 2
2 165 1
2 174 1
2 176 2
2 177 1
2 184 1
2 193 2
2 206 1
2 217 2
2 219 1
2 231 2
2 242 1
2 253 2
2 255 1
2 257 1
2 262 1
3 91 2
3 102 1
3 109 3
3 113 2
3 124 1
3 131 1
3 133 2
3 146 1
3 153 3
3 157 2
3 166 1
3 175 1
3 178 1
3 185 1
3 194 2
3 207 1
3 218 2
3 220 1
3 232 2
3 243 1
3 254 2
3 256 1
3 258 1
3 263 1
4 92 2
4 103 1
4 110 3
4 114 2
4 125 1
4 132 1
4 134 2
4 147 1
4 154 3
4 158 2
4 167 1
4 176 1
4 177 1
4 179 1
4 186 1
4 195 2
4 208 1
4 219 2
4 233 2
4 244 1
4 255 2
4 257 1
4 259 1
4 264 1
5 89 1
5 93 2
5 104 1
5 111 3
5 115 2
5 126 1
5 133 1
5 135 2
5 148 1
5 155 3
5 159 2
5 168 1
5 178 1
5 180 1
5 187 1
5 196 2
5 209 1
5 220 2
5 221 1
5 234 2
5 245 1
5 256 2
5 258 1
5 260 1
6 90 1
6 94 2
6 105 1
6 112 3
6 116 2
6 127 1
6 134 1
6 136 2
6 149 1
6 156 3
6 160 2
6 169 1
6 177 2
6 179 1
6 181 1
6 188 1
6 197 2
6 210 1
6 222 1
6 235 2
6 246 1
6 257 2
6 259 1
6 261 1
7 91 1
7 95 2
7 106 1
7 113 3
7 117 2
7 128 1
7 135 1
7 137 2
7 150 1
7 157 3
7 161 2
7 170 1
7 178 2
7 180 1
7 182 1
7 189 1
7 198 2
7 211 1
7 223 1
7 236 2
7 247 1
7 258 2
7 260 1
7 262 1
8 92 1
8 96 2
8 107 1
8 114 3
8 118 2
8 129 1
8 136 1
8 138 2
8 151 1
8 158 3
8 162 2
8 171 1
8 179 2
8 181 1
8 183 1
8 190 1
8 199 2
8 212 1
8 224 1
8 237 2
8 248 1
8 259 2
8 261 1
8 263 1
9 93 1
9 97 2
9 108 1
9 115 3
9 119 2
9 130 1
9 137 1
9 139 2
9 152 1
9 159 3
9 163 2
9 172 1
9 180 2
9 182 1
9 184 1
9 191 1
9 200 2
9 213 1
9 225 1
9 238 2
9 249 1
9 260 2
9 262 1
9 264 1
10 94 1
10 98 2
10 109 1
10 116 3
10 120 2
10 131 1
10 138 1
10 140 2
10 153 1
10 160 3
10 164 2
10 173 1
10 181 2
10 183 1
10 185 1
10 192 1
10 201 2
10 214 1
10 221 1
10 226 1
10 239 2
10 250 1
10 261 2
10 263 1
11 95 1
11 99 2
11 110 1
11 117 3
11 121 2
11 132 1
11 139 1
11 141 2
11 154 1
11 161 3
11 165 2
11 174 1
11 182 2
11 184 1
11 186 1
11 193 1
11 202 2
11 215 1
11 222 1
11 227 1
11 240 2
11 251 1
11 262 2
11 264 1
12 89 1
12 96 1
12 100 2
12 111 1
12 118 3
12 122 2
12 140 1
12 142 2
12 155 1
12 162 3
12 166 2
12 175 1
12 183 2
12 185 1
12 187 1
12 194 1
12 203 2
12 216 1
12 221 1
12 223 1
12 228 1
12 241 2
12 252 1
12 263 2
13 90 1
13 97 1
13 101 2
13 112 1
13 119 3
13 123 2
13 141 1
13 143 2
13 156 1
13 163 3
13 167 2
13 176 1
13 184 2
13 186 1
13 188 1
13 195 1
13 204 2
13 217 1
13 222 1
13 224 1
13 229 1
13 242 2
13 253 1
13 264 2
14 91 1
14 98 1
14 102 2
14 113 1
14 120 3
14 124 2
14 133 1
14 142 1
14 144 2
14 157 1
14 164 3
14 168 2
14 185 2
14 187 1
14 189 1
14 196 1
14 205 2
14 218 1
14 221 2
14 223 1
14 225 1
14 230 1
14 243 2
14 254 1
15 92 1
15 99 1
15 103 2
15 114 1
15 121 3
15 125 2
15 134 1
15 143 1
15 145 2
15 158 1
15 165 3
15 169 2
15 186 2
15 188 1
15 190 1
15 197 1
15 206 2
15 219 1
15 222 2
15 224 1
15 226 1
15 231 1
15 244 2
15 255 1
16 93 1
16 100 1
16 104 2
16 115 1
16 122 3
16 126 2
16 135 1
16 144 1
16 146 2
16 159 1
16 166 3
16 170 2
16 187 2
16 189 1
16 191 1
16 198 1
16 207 2
16 220 1
16 223 2
16 225 1
16 227 1
16 232 1
16 245 2
16 256 1
17 94 1
17 101 1
17 105 2
17 116 1
17 123 3
17 127 2
17 136 1
17 145 1
17 147 2
17 160 1
17 167 3
17 171 2
17 177 1
17 188 2
17 190 1
17 192 1
17 199 1
17 208 2
17 224 2
17 226 1
17 228 1
17 233 1
17 246 2
17 257 1
18 95 1
18 102 1
18 106 2
18 117 1
18 124 3
18 128 2
18 137 1
18 146 1
18 148 2
18 161 1
18 168 3
18 172 2
18 178 1
18 189 2
18 191 1
18 193 1
18 200 1
18 209 2
18 225 2
18 227 1
18 229 1
18 234 1
18 247 2
18 258 1
19 96 1
19 103 1
19 107 2
19 118 1
19 125 3
19 129 2
19 138 1
19 147 1
19 149 2
19 162 1
19 169 3
19 173 2
19 179 1
19 190 2
19 192 1
19 194 1
19 201 1
19 210 2
19 226 2
19 228 1
19 230 1
19 235 1
19 248 2
19 259 1
20 97 1
20 104 1
20 108 2
20 119 1
20 126 3
20 130 2
20 139 1
20 148 1
20 150 2
20 163 1
20 170 3
20 174 2
20 180 1
20 191 2
20 193 1
20 195 1
20 202 1
20 211 2
20 227 2
20 229 1
20 231 1
20 236 1
20 249 2
20 260 1
21 98 1
21 105 1
21 109 2
21 120 1
21 127 3
21 131 2
21 140 1
21 149 1
21 151 2
21 164 1
21 171 3
21 175 2
21 181 1
21 192 2
21 194 1
21 196 1
21 203 1
21 212 2
21 228 2
21 230 1
21 232 1
21 237 1
21 250 2
21 261 1
22 99 1
22 106 1
22 110 2
22 121 1
22 128 3
22 132 2
22 141 1
22 150 1
22 152 2
22 165 1
22 172 3
22 176 2
22 182 1
22 193 2
22 195 1
22 197 1
22 204 1
22 213 2
22 229 2
22 231 1
22 233 1
22 238 1
22 251 2
22 262 1
23 89 2
23 100 1
23 107 1
23 111 2
23 122 1
23 129 3
23 133 2
23 142 1
23 151 1
23 153 2
23 166 1
23 173 3
23 183 1
23 194 2
23 196 1
23 198 1
23 205 1
23 214 2
23 230 2
23 232 1
23 234 1
23 239 1
23 252 2
23 263 1
24 90 2
24 101 1
24 108 1
24 112 2
24 123 1
24 130 3
24 134 2
24 143 1
24 152 1
24 154 2
24 167 1
24 174 3
24 184 1
24 195 2
24 197 1
24 199 1
24 206 1
24 215 2
24 231 2
24 233 1
24 235 1
24 240 1
24 253 2
24 264 1
25 91 2
25 102 1
25 109 1
25 113 2
25 124 1
25 131 3
25 135 2
25 144 1
25 153 1
25 155 2
25 168 1
25 175 3
25 185 1
25 196 2
25 198 1
25 200 1
25 207 1
25 216 2
25 221 1
25 232 2
25 234 1
25 236 1
25 241 1
25 254 2
26 92 2
26 103 1
26 110 1
26 114 2
26 125 1
26 132 3
26 136 2
26 145 1
26 154 1
26 156 2
26 169 1
26 176 3
26 186 1
26 197 2
26 199 1
26 201 1
26 208 1
26 217 2
26 222 1
26 233 2
26 235 1
26 237 1
26 242 1
26 255 2
27 89 3
27 93 2
27 104 1
27 111 1
27 115 2
27 126 1
27 133 3
27 137 2
27 146 1
27 155 1
27 157 2
27 170 1
27 187 1
27 198 2
27 200 1
27 202 1
27 209 1
27 218 2
27 223 1
27 234 2
27 236 1
27 238 1
27 243 1
27 256 2
28 90 3
28 94 2
28 105 1
28 112 1
28 116 2
28 127 1
28 134 3
28 138 2
28 147 1
28 156 1
28 158 2
28 171 1
28 188 1
28 199 2
28 201 1
28 203 1
28 210 1
28 219 2
28 224 1
28 235 2
28 237 1
28 239 1
28 244 1
28 257 2
29 91 3
29 95 2
29 106 1
29 113 1
29 117 2
29 128 1
29 135 3
29 139 2
29 148 1
29 157 1
29 159 2
29 172 1
29 189 1
29 200 2
29 202 1
29 204 1
29 211 1
29 220 2
29 225 1
29 236 2
29 238 1
29 240 1
29 245 1
29 258 2
30 92 3
30 96 2
30 107 1
30 114 1
30 118 2
30 129 1
30 136 3
30 140 2
30 149 1
30 158 1
30 160 2
30 173 1
30 177 2
30 190 1
30 201 2
30 203 1
30 205 1
30 212 1
30 226 1
30 237 2
30 239 1
30 241 1
30 246 1
30 259 2
31 93 3
31 97 2
31 108 1
31 115 1
31 119 2
31 130 1
31 137 3
31 141 2
31 150 1
31 159 1
31 161 2
31 174 1
31 178 2
31 191 1
31 202 2
31 204 1
31 206 1
31 213 1
31 227 1
31 238 2
31 240 1
31 242 1
31 247 1
31 260 2
32 94 3
32 98 2
32 109 1
32 116 1
32 120 2
32 131 1
32 138 3
32 142 2
32 151 1
32 160 1
32 162 2
32 175 1
32 179 2
32 192 1
32 203 2
32 205 1
32 207 1
32 214 1
32 228 1
32 239 2
32 241 1
32 243 1
32 248 1
32 261 2
33 95 3
33 99 2
33 110 1
33 117 1
33 121 2
33 132 1
33 139 3
33 143 2
33 152 1
33 161 1
33 163 2
33 176 1
33 180 2
33 193 1
33 204 2
33 206 1
33 208 1
33 215 1
33 229 1
33 240 2
33 242 1
33 244 1
33 249 1
33 262 2
34 89 1
34 96 3
34 100 2
34 111 1
34 118 1
34 122 2
34 133 1
34 140 3
34 144 2
34 153 1
34 162 1
34 164 2
34 181 2
34 194 1
34 205 2
34 207 1
34 209 1
34 216 1
34 230 1
34 241 2
34 243 1
34 245 1
34 250 1
34 263 2
35 90 1
35 97 3
35 101 2
35 112 1
35 119 1
35 123 2
35 134 1
35 141 3
35 145 2
35 154 1
35 163 1
35 165 2
35 182 2
35 195 1
35 206 2
35 208 1
35 210 1
35 217 1
35 231 1
35 242 2
35 244 1
35 246 1
35 251 1
35 264 2
36 91 1
36 98 3
36 102 2
36 113 1
36 120 1
36 124 2
36 135 1
36 142 3
36 146 2
36 155 1
36 164 1
36 166 2
36 183 2
36 196 1
36 207 2
36 209 1
36 211 1
36 218 1
36 221 2
36 232 1
36 243 2
36 245 1
36 247 1
36 252 1
37 92 1
37 99 3
37 103 2
37 114 1
37 121 1
37 125 2
37 136 1
37 143 3
37 147 2
37 156 1
37 165 1
37 167 2
37 184 2
37 197 1
37 208 2
37 210 1
37 212 1
37 219 1
37 222 2
37 233 1
37 244 2
37 246 1
37 248 1
37 253 1
38 93 1
38 100 3
38 104 2
38 115 1
38 122 1
38 126 2
38 137 1
38 144 3
38 148 2
38 157 1
38 166 1
38 168 2
38 185 2
38 198 1
38 209 2
38 211 1
38 213 1
38 220 1
38 223 2
38 234 1
38 245 2
38 247 1
38 249 1
38 254 1
39 94 1
39 101 3
39 105 2
39 116 1
39 123 1
39 127 2
39 138 1
39 145 3
39 149 2
39 158 1
39 167 1
39 169 2
39 177 1
39 186 2
39 199 1
39 210 2
39 212 1
39 214 1
39 224 2
39 235 1
39 246 2
39 248 1
39 250 1
39 255 1
40 95 1
40 102 3
40 106 2
40 117 1
40 124 1
40 128 2
40 139 1
40 146 3
40 150 2
40 159 1
40 168 1
40 170 2
40 178 1
40 187 2
40 200 1
40 211 2
40 213 1
40 215 1
40 225 2
40 236 1
40 247 2
40 249 1
40 251 1
40 256 1
41 96 1
41 103 3
41 107 2
41 118 1
41 125 1
41 129 2
41 140 1
41 147 3
41 151 2
41 160 1
41 169 1
41 171 2
41 179 1
41 188 2
41 201 1
41 212 2
41 214 1
41 216 1
41 226 2
41 237 1
41 248 2
41 250 1
41 252 1
41 257 1
42 97 1
42 104 3
42 108 2
42 119 1
42 126 1
42 130 2
42 141 1
42 148 3
42 152 2
42 161 1
42 170 1
42 172 2
42 180 1
42 189 2
42 202 1
42 213 2
42 215 1
42 217 1
42 227 2
42 238 1
42 249 2
42 251 1
42 253 1
42 258 1
43 98 1
43 105 3
43 109 2
43 120 1
43 127 1
43 131 2
43 142 1
43 149 3
43 153 2
43 162 1
43 171 1
43 173 2
43 181 1
43 190 2
43 203 1
43 214 2
43 216 1
43 218 1
43 228 2
43 239 1
43 250 2
43 252 1
43 254 1
43 259 1
44 99 1
44 106 3
44 110 2
44 121 1
44 128 1
44 132 2
44 143 1
44 150 3
44 154 2
44 163 1
44 172 1
44 174 2
44 182 1
44 191 2
44 204 1
44 215 2
44 217 1
44 219 1
44 229 2
44 240 1
44 251 2
44 253 1
44 255 1
44 260 1
45 133 2
45 144 2
45 149 2
45 160 3
45 177 3
45 198 1
45 203 2
45 205 2
45 209 3
45 220 2
45 223 3
45 239 2
45 246 2
45 252 3
45 256 3
45 265 3
45 276 2
45 283 1
45 287 3
45 298 2
45 305 2
46 134 2
46 145 2
46 150 2
46 161 3
46 177 2
46 178 3
46 199 1
46 204 2
46 206 2
46 210 3
46 224 3
46 240 2
46 247 2
46 253 3
46 257 3
46 266 3
46 277 2
46 284 1
46 288 3
46 299 2
46 306 2
47 135 2
47 146 2
47 151 2
47 162 3
47 178 2
47 179 3
47 200 1
47 205 2
47 207 2
47 211 3
47 225 3
47 241 2
47 248 2
47 254 3
47 258 3
47 267 3
47 278 2
47 285 1
47 289 3
47 300 2
47 307 2
48 136 2
48 147 2
48 152 2
48 163 3
48 179 2
48 180 3
48 201 1
48 206 2
48 208 2
48 212 3
48 226 3
48 242 2
48 249 2
48 255 3
48 259 3
48 268 3
48 279 2
48 286 1
48 290 3
48 301 2
48 308 2
49 137 2
49 148 2
49 153 2
49 164 3
49 180 2
49 181 3
49 202 1
49 207 2
49 209 2
49 213 3
49 227 3
49 243 2
49 250 2
49 256 3
49 260 3
49 265 2
49 269 3
49 280 2
49 287 1
49 291 3
49 302 2
50 138 2
50 149 2
50 154 2
50 165 3
50 181 2
50 182 3
50 203 1
50 208 2
50 210 2
50 214 3
50 228 3
50 244 2
50 251 2
50 257 3
50 261 3
50 266 2
50 270 3
50 281 2
50 288 1
50 292 3
50 303 2
51 139 2
51 150 2
51 155 2
51 166 3
51 182 2
51 183 3
51 204 1
51 209 2
51 211 2
51 215 3
51 229 3
51 245 2
51 252 2
51 258 3
51 262 3
51 267 2
51 271 3
51 282 2
51 289 1
51 293 3
51 304 2
52 140 2
52 151 2
52 156 2
52 167 3
52 183 2
52 184 3
52 205 1
52 210 2
52 212 2
52 216 3
52 230 3
52 246 2
52 253 2
52 259 3
52 263 3
52 268 2
52 272 3
52 283 2
52 290 1
52 294 3
52 305 2
53 141 2
53 152 2
53 157 2
53 168 3
53 184 2
53 185 3
53 206 1
53 211 2
53 213 2
53 217 3
53 231 3
53 247 2
53 254 2
53 260 3
53 264 3
53 269 2
53 273 3
53 284 2
53 291 1
53 295 3
53 306 2
54 142 2
54 153 2
54 158 2
54 169 3
54 185 2
54 186 3
54 207 1
54 212 2
54 214 2
54 218 3
54 221 3
54 232 3
54 248 2
54 255 2
54 261 3
54 270 2
54 274 3
54 285 2
54 292 1
54 296 3
54 307 2
55 143 2
55 154 2
55 159 2
55 170 3
55 186 2
55 187 3
55 208 1
55 213 2
55 215 2
55 219 3
55 222 3
55 233 3
55 249 2
55 256 2
55 262 3
55 271 2
55 275 3
55 286 2
55 293 1
55 297 3
55 308 2
56 144 2
56 155 2
56 160 2
56 171 3
56 187 2
56 188 3
56 209 1
56 214 2
56 216 2
56 220 3
56 223 3
56 234 3
56 250 2
56 257 2
56 263 3
56 265 2
56 272 2
56 276 3
56 287 2
56 294 1
56 298 3
57 145 2
57 156 2
57 161 2
57 172 3
57 177 3
57 188 2
57 189 3
57 210 1
57 215 2
57 217 2
57 224 3
57 235 3
57 251 2
57 258 2
57 264 3
57 266 2
57 273 2
57 277 3
57 288 2
57 295 1
57 299 3
58 146 2
58 157 2
58 162 2
58 173 3
58 178 3
58 189 2
58 190 3
58 211 1
58 216 2
58 218 2
58 221 3
58 225 3
58 236 3
58 252 2
58 259 2
58 267 2
58 274 2
58 278 3
58 289 2
58 296 1
58 300 3
59 147 2
59 158 2
59 163 2
59 174 3
59 179 3
59 190 2
59 191 3
59 212 1
59 217 2
59 219 2
59 222 3
59 226 3
59 237 3
59 253 2
59 260 2
59 268 2
59 275 2
59 279 3
59 290 2
59 297 1
59 301 3
60 148 2
60 159 2
60 164 2
60 175 3
60 180 3
60 191 2
60 192 3
60 213 1
60 218 2
60 220 2
60 223 3
60 227 3
60 238 3
60 254 2
60 261 2
60 269 2
60 276 2
60 280 3
60 291 2
60 298 1
60 302 3
61 149 2
61 160 2
61 165 2
61 176 3
61 177 2
61 181 3
61 192 2
61 193 3
61 214 1
61 219 2
61 224 3
61 228 3
61 239 3
61 255 2
61 262 2
61 270 2
61 277 2
61 281 3
61 292 2
61 299 1
61 303 3
62 133 3
62 150 2
62 161 2
62 166 2
62 178 2
62 182 3
62 193 2
62 194 3
62 215 1
62 220 2
62 225 3
62 229 3
62 240 3
62 256 2
62 263 2
62 271 2
62 278 2
62 282 3
62 293 2
62 300 1
62 304 3
63 134 3
63 151 2
63 162 2
63 167 2
63 177 2
63 179 2
63 183 3
63 194 2
63 195 3
63 216 1
63 226 3
63 230 3
63 241 3
63 257 2
63 264 2
63 272 2
63 279 2
63 283 3
63 294 2
63 301 1
63 305 3
64 135 3
64 152 2
64 163 2
64 168 2
64 178 2
64 180 2
64 184 3
64 195 2
64 196 3
64 217 1
64 221 2
64 227 3
64 231 3
64 242 3
64 258 2
64 273 2
64 280 2
64 284 3
64 295 2
64 302 1
64 306 3
65 136 3
65 153 2
65 164 2
65 169 2
65 179 2
65 181 2
65 185 3
65 196 2
65 197 3
65 218 1
65 222 2
65 228 3
65 232 3
65 243 3
65 259 2
65 274 2
65 281 2
65 285 3
65 296 2
65 303 1
65 307 3
66 137 3
66 154 2
66 165 2
66 170 2
66 180 2
66 182 2
66 186 3
66 197 2
66 198 3
66 219 1
66 223 2
66 229 3
66 233 3
66 244 3
66 260 2
66 275 2
66 282 2
66 286 3
66 297 2
66 304 1
66 308 3
67 138 3
67 155 2
67 166 2
67 171 2
67 181 2
67 183 2
67 187 3
67 198 2
67 199 3
67 220 1
67 224 2
67 230 3
67 234 3
67 245 3
67 261 2
67 265 3
67 276 2
67 283 2
67 287 3
67 298 2
67 305 1
68 139 3
68 156 2
68 167 2
68 172 2
68 177 1
68 182 2
68 184 2
68 188 3
68 199 2
68 200 3
68 225 2
68 231 3
68 235 3
68 246 3
68 262 2
68 266 3
68 277 2
68 284 2
68 288 3
68 299 2
68 306 1
69 140 3
69 157 2
69 168 2
69 173 2
69 178 1
69 183 2
69 185 2
69 189 3
69 200 2
69 201 3
69 226 2
69 232 3
69 236 3
69 247 3
69 263 2
69 267 3
69 278 2
69 285 2
69 289 3
69 300 2
69 307 1
70 141 3
70 158 2
70 169 2
70 174 2
70 179 1
70 184 2
70 186 2
70 190 3
70 201 2
70 202 3
70 227 2
70 233 3
70 237 3
70 248 3
70 264 2
70 268 3
70 279 2
70 286 2
70 290 3
70 301 2
70 308 1
71 142 3
71 159 2
71 170 2
71 175 2
71 180 1
71 185 2
71 187 2
71 191 3
71 202 2
71 203 3
71 221 2
71 228 2
71 234 3
71 238 3
71 249 3
71 265 1
71 269 3
71 280 2
71 287 2
71 291 3
71 302 2
72 143 3
72 160 2
72 171 2
72 176 2
72 181 1
72 186 2
72 188 2
72 192 3
72 203 2
72 204 3
72 222 2
72 229 2
72 235 3
72 239 3
72 250 3
72 266 1
72 270 3
72 281 2
72 288 2
72 292 3
72 303 2
73 133 2
73 144 3
73 161 2
73 172 2
73 182 1
73 187 2
73 189 2
73 193 3
73 204 2
73 205 3
73 223 2
73 230 2
73 236 3
73 240 3
73 251 3
73 267 1
73 271 3
73 282 2
73 289 2
73 293 3
73 304 2
74 134 2
74 145 3
74 162 2
74 173 2
74 183 1
74 188 2
74 190 2
74 194 3
74 205 2
74 206 3
74 224 2
74 231 2
74 237 3
74 241 3
74 252 3
74 268 1
74 272 3
74 283 2
74 290 2
74 294 3
74 305 2
75 135 2
75 146 3
75 163 2
75 174 2
75 184 1
75 189 2
75 191 2
75 195 3
75 206 2
75 207 3
75 225 2
75 232 2
75 238 3
75 242 3
75 253 3
75 269 1
75 273 3
75 284 2
75 291 2
75 295 3
75 306 2
76 136 2
76 147 3
76 164 2
76 175 2
76 185 1
76 190 2
76 192 2
76 196 3
76 207 2
76 208 3
76 226 2
76 233 2
76 239 3
76 243 3
76 254 3
76 270 1
76 274 3
76 285 2
76 292 2
76 296 3
76 307 2
77 137 2
77 148 3
77 165 2
77 176 2
77 186 1
77 191 2
77 193 2
77 197 3
77 208 2
77 209 3
77 227 2
77 234 2
77 240 3
77 244 3
77 255 3
77 271 1
77 275 3
77 286 2
77 293 2
77 297 3
77 308 2
78 133 2
78 138 2
78 149 3
78 166 2
78 187 1
78 192 2
78 194 2
78 198 3
78 209 2
78 210 3
78 228 2
78 235 2
78 241 3
78 245 3
78 256 3
78 265 2
78 272 1
78 276 3
78 287 2
78 294 2
78 298 3
79 134 2
79 139 2
79 150 3
79 167 2
79 188 1
79 193 2
79 195 2
79 199 3
79 210 2
79 211 3
79 229 2
79 236 2
79 242 3
79 246 3
79 257 3
79 266 2
79 273 1
79 277 3
79 288 2
79 295 2
79 299 3
80 135 2
80 140 2
80 151 3
80 168 2
80 189 1
80 194 2
80 196 2
80 200 3
80 211 2
80 212 3
80 230 2
80 237 2
80 243 3
80 247 3
80 258 3
80 267 2
80 274 1
80 278 3
80 289 2
80 296 2
80 300 3
81 136 2
81 141 2
81 152 3
81 169 2
81 190 1
81 195 2
81 197 2
81 201 3
81 212 2
81 213 3
81 231 2
81 238 2
81 244 3
81 248 3
81 259 3
81 268 2
81 275 1
81 279 3
81 290 2
81 297 2
81 301 3
82 137 2
82 142 2
82 153 3
82 170 2
82 191 1
82 196 2
82 198 2
82 202 3
82 213 2
82 214 3
82 232 2
82 239 2
82 245 3
82 249 3
82 260 3
82 269 2
82 276 1
82 280 3
82 291 2
82 298 2
82 302 3
83 138 2
83 143 2
83 154 3
83 171 2
83 192 1
83 197 2
83 199 2
83 203 3
83 214 2
83 215 3
83 233 2
83 240 2
83 246 3
83 250 3
83 261 3
83 270 2
83 277 1
83 281 3
83 292 2
83 299 2
83 303 3
84 139 2
84 144 2
84 155 3
84 172 2
84 193 1
84 198 2
84 200 2
84 204 3
84 215 2
84 216 3
84 234 2
84 241 2
84 247 3
84 251 3
84 262 3
84 271 2
84 278 1
84 282 3
84 293 2
84 300 2
84 304 3
85 140 2
85 145 2
85 156 3
85 173 2
85 194 1
85 199 2
85 201 2
85 205 3
85 216 2
85 217 3
85 235 2
85 242 2
85 248 3
85 252 3
85 263 3
85 272 2
85 279 1
85 283 3
85 294 2
85 301 2
85 305 3
86 141 2
86 146 2
86 157 3
86 174 2
86 195 1
86 200 2
86 202 2
86 206 3
86 217 2
86 218 3
86 236 2
86 243 2
86 249 3
86 253 3
86 264 3
86 273 2
86 280 1
86 284 3
86 295 2
86 302 2
86 306 3
87 142 2
87 147 2
87 158 3
87 175 2
87 196 1
87 201 2
87 203 2
87 207 3
87 218 2
87 219 3
87 221 3
87 237 2
87 244 2
87 250 3
87 254 3
87 274 2
87 281 1
87 285 3
87 296 2
87 303 2
87 307 3
88 143 2
88 148 2
88 159 3
88 176 2
88 197 1
88 202 2
88 204 2
88 208 3
88 219 2
88 220 3
88 222 3
88 238 2
88 245 2
88 251 3
88 255 3
88 275 2
88 282 1
88 286 3
88 297 2
88 304 2
88 308 3
