%%MatrixMarket matrix coordinate integer general
% Binary matrix over GF(2).
% Coordinate indices are 1-based; omitted entries are zero.
176 704 5236
1 7 1
1 8 1
1 29 1
1 30 1
1 37 1
1 38 1
1 50 1
1 64 1
1 95 1
1 137 1
1 138 1
1 140 1
1 161 1
1 162 1
1 170 1
1 174 1
1 184 1
1 205 1
1 206 1
1 213 1
1 228 1
1 249 1
1 250 1
1 258 1
1 624 1
1 646 1
1 679 1
1 680 1
1 702 1
2 9 1
2 10 1
2 31 1
2 32 1
2 39 1
2 40 1
2 52 1
2 66 1
2 97 1
2 139 1
2 140 1
2 142 1
2 163 1
2 164 1
2 172 1
2 176 1
2 186 1
2 207 1
2 208 1
2 215 1
2 230 1
2 251 1
2 252 1
2 260 1
2 626 1
2 648 1
2 681 1
2 682 1
2 704 1
3 11 1
3 12 1
3 33 1
3 34 1
3 41 1
3 42 1
3 54 1
3 68 1
3 90 1
3 99 1
3 141 1
3 142 1
3 144 1
3 165 1
3 166 1
3 174 1
3 188 1
3 209 1
3 210 1
3 217 1
3 232 1
3 253 1
3 254 1
3 262 1
3 618 1
3 628 1
3 650 1
3 683 1
3 684 1
4 13 1
4 14 1
4 35 1
4 36 1
4 43 1
4 44 1
4 56 1
4 70 1
4 92 1
4 101 1
4 143 1
4 144 1
4 146 1
4 167 1
4 168 1
4 176 1
4 190 1
4 211 1
4 212 1
4 219 1
4 234 1
4 255 1
4 256 1
4 264 1
4 620 1
4 630 1
4 652 1
4 685 1
4 686 1
5 15 1
5 16 1
5 37 1
5 38 1
5 45 1
5 46 1
5 58 1
5 72 1
5 90 1
5 94 1
5 103 1
5 145 1
5 146 1
5 148 1
5 169 1
5 170 1
5 178 1
5 192 1
5 213 1
5 214 1
5 221 1
5 236 1
5 257 1
5 258 1
5 622 1
5 632 1
5 654 1
5 687 1
5 688 1
6 17 1
6 18 1
6 39 1
6 40 1
6 47 1
6 48 1
6 60 1
6 74 1
6 92 1
6 96 1
6 105 1
6 147 1
6 148 1
6 150 1
6 171 1
6 172 1
6 180 1
6 194 1
6 215 1
6 216 1
6 223 1
6 238 1
6 259 1
6 260 1
6 624 1
6 634 1
6 656 1
6 689 1
6 690 1
7 19 1
7 20 1
7 41 1
7 42 1
7 49 1
7 50 1
7 62 1
7 76 1
7 94 1
7 98 1
7 107 1
7 149 1
7 150 1
7 152 1
7 173 1
7 174 1
7 182 1
7 196 1
7 217 1
7 218 1
7 225 1
7 240 1
7 261 1
7 262 1
7 626 1
7 636 1
7 658 1
7 691 1
7 692 1
8 21 1
8 22 1
8 43 1
8 44 1
8 51 1
8 52 1
8 64 1
8 78 1
8 96 1
8 100 1
8 109 1
8 151 1
8 152 1
8 154 1
8 175 1
8 176 1
8 184 1
8 198 1
8 219 1
8 220 1
8 227 1
8 242 1
8 263 1
8 264 1
8 628 1
8 638 1
8 660 1
8 693 1
8 694 1
9 23 1
9 24 1
9 45 1
9 46 1
9 53 1
9 54 1
9 66 1
9 80 1
9 89 1
9 90 1
9 98 1
9 102 1
9 111 1
9 153 1
9 154 1
9 156 1
9 177 1
9 178 1
9 186 1
9 200 1
9 221 1
9 222 1
9 229 1
9 244 1
9 630 1
9 640 1
9 662 1
9 695 1
9 696 1
10 25 1
10 26 1
10 47 1
10 48 1
10 55 1
10 56 1
10 68 1
10 82 1
10 91 1
10 92 1
10 100 1
10 104 1
10 113 1
10 155 1
10 156 1
10 158 1
10 179 1
10 180 1
10 188 1
10 202 1
10 223 1
10 224 1
10 231 1
10 246 1
10 632 1
10 642 1
10 664 1
10 697 1
10 698 1
11 27 1
11 28 1
11 49 1
11 50 1
11 57 1
11 58 1
11 70 1
11 84 1
11 93 1
11 94 1
11 102 1
11 106 1
11 115 1
11 157 1
11 158 1
11 160 1
11 181 1
11 182 1
11 190 1
11 204 1
11 225 1
11 226 1
11 233 1
11 248 1
11 634 1
11 644 1
11 666 1
11 699 1
11 700 1
12 29 1
12 30 1
12 51 1
12 52 1
12 59 1
12 60 1
12 72 1
12 86 1
12 95 1
12 96 1
12 104 1
12 108 1
12 117 1
12 159 1
12 160 1
12 162 1
12 183 1
12 184 1
12 192 1
12 206 1
12 227 1
12 228 1
12 235 1
12 250 1
12 636 1
12 646 1
12 668 1
12 701 1
12 702 1
13 31 1
13 32 1
13 53 1
13 54 1
13 61 1
13 62 1
13 74 1
13 88 1
13 97 1
13 98 1
13 106 1
13 110 1
13 119 1
13 161 1
13 162 1
13 164 1
13 185 1
13 186 1
13 194 1
13 208 1
13 229 1
13 230 1
13 237 1
13 252 1
13 638 1
13 648 1
13 670 1
13 703 1
13 704 1
14 2 1
14 33 1
14 34 1
14 55 1
14 56 1
14 63 1
14 64 1
14 76 1
14 99 1
14 100 1
14 108 1
14 112 1
14 121 1
14 163 1
14 164 1
14 166 1
14 187 1
14 188 1
14 196 1
14 210 1
14 231 1
14 232 1
14 239 1
14 254 1
14 617 1
14 618 1
14 640 1
14 650 1
14 672 1
15 4 1
15 35 1
15 36 1
15 57 1
15 58 1
15 65 1
15 66 1
15 78 1
15 101 1
15 102 1
15 110 1
15 114 1
15 123 1
15 165 1
15 166 1
15 168 1
15 189 1
15 190 1
15 198 1
15 212 1
15 233 1
15 234 1
15 241 1
15 256 1
15 619 1
15 620 1
15 642 1
15 652 1
15 674 1
16 6 1
16 37 1
16 38 1
16 59 1
16 60 1
16 67 1
16 68 1
16 80 1
16 103 1
16 104 1
16 112 1
16 116 1
16 125 1
16 167 1
16 168 1
16 170 1
16 191 1
16 192 1
16 200 1
16 214 1
16 235 1
16 236 1
16 243 1
16 258 1
16 621 1
16 622 1
16 644 1
16 654 1
16 676 1
17 8 1
17 39 1
17 40 1
17 61 1
17 62 1
17 69 1
17 70 1
17 82 1
17 105 1
17 106 1
17 114 1
17 118 1
17 127 1
17 169 1
17 170 1
17 172 1
17 193 1
17 194 1
17 202 1
17 216 1
17 237 1
17 238 1
17 245 1
17 260 1
17 623 1
17 624 1
17 646 1
17 656 1
17 678 1
18 10 1
18 41 1
18 42 1
18 63 1
18 64 1
18 71 1
18 72 1
18 84 1
18 107 1
18 108 1
18 116 1
18 120 1
18 129 1
18 171 1
18 172 1
18 174 1
18 195 1
18 196 1
18 204 1
18 218 1
18 239 1
18 240 1
18 247 1
18 262 1
18 625 1
18 626 1
18 648 1
18 658 1
18 680 1
19 12 1
19 43 1
19 44 1
19 65 1
19 66 1
19 73 1
19 74 1
19 86 1
19 109 1
19 110 1
19 118 1
19 122 1
19 131 1
19 173 1
19 174 1
19 176 1
19 197 1
19 198 1
19 206 1
19 220 1
19 241 1
19 242 1
19 249 1
19 264 1
19 627 1
19 628 1
19 650 1
19 660 1
19 682 1
20 14 1
20 45 1
20 46 1
20 67 1
20 68 1
20 75 1
20 76 1
20 88 1
20 90 1
20 111 1
20 112 1
20 120 1
20 124 1
20 133 1
20 175 1
20 176 1
20 178 1
20 199 1
20 200 1
20 208 1
20 222 1
20 243 1
20 244 1
20 251 1
20 629 1
20 630 1
20 652 1
20 662 1
20 684 1
21 2 1
21 16 1
21 47 1
21 48 1
21 69 1
21 70 1
21 77 1
21 78 1
21 89 1
21 90 1
21 92 1
21 113 1
21 114 1
21 122 1
21 126 1
21 135 1
21 180 1
21 201 1
21 202 1
21 210 1
21 224 1
21 245 1
21 246 1
21 253 1
21 631 1
21 632 1
21 654 1
21 664 1
21 686 1
22 4 1
22 18 1
22 49 1
22 50 1
22 71 1
22 72 1
22 79 1
22 80 1
22 91 1
22 92 1
22 94 1
22 115 1
22 116 1
22 124 1
22 128 1
22 137 1
22 182 1
22 203 1
22 204 1
22 212 1
22 226 1
22 247 1
22 248 1
22 255 1
22 633 1
22 634 1
22 656 1
22 666 1
22 688 1
23 6 1
23 20 1
23 51 1
23 52 1
23 73 1
23 74 1
23 81 1
23 82 1
23 93 1
23 94 1
23 96 1
23 117 1
23 118 1
23 126 1
23 130 1
23 139 1
23 184 1
23 205 1
23 206 1
23 214 1
23 228 1
23 249 1
23 250 1
23 257 1
23 635 1
23 636 1
23 658 1
23 668 1
23 690 1
24 8 1
24 22 1
24 53 1
24 54 1
24 75 1
24 76 1
24 83 1
24 84 1
24 95 1
24 96 1
24 98 1
24 119 1
24 120 1
24 128 1
24 132 1
24 141 1
24 186 1
24 207 1
24 208 1
24 216 1
24 230 1
24 251 1
24 252 1
24 259 1
24 637 1
24 638 1
24 660 1
24 670 1
24 692 1
25 10 1
25 24 1
25 55 1
25 56 1
25 77 1
25 78 1
25 85 1
25 86 1
25 97 1
25 98 1
25 100 1
25 121 1
25 122 1
25 130 1
25 134 1
25 143 1
25 188 1
25 209 1
25 210 1
25 218 1
25 232 1
25 253 1
25 254 1
25 261 1
25 639 1
25 640 1
25 662 1
25 672 1
25 694 1
26 12 1
26 26 1
26 57 1
26 58 1
26 79 1
26 80 1
26 87 1
26 88 1
26 99 1
26 100 1
26 102 1
26 123 1
26 124 1
26 132 1
26 136 1
26 145 1
26 190 1
26 211 1
26 212 1
26 220 1
26 234 1
26 255 1
26 256 1
26 263 1
26 641 1
26 642 1
26 664 1
26 674 1
26 696 1
27 1 1
27 2 1
27 14 1
27 28 1
27 59 1
27 60 1
27 81 1
27 82 1
27 101 1
27 102 1
27 104 1
27 125 1
27 126 1
27 134 1
27 138 1
27 147 1
27 177 1
27 192 1
27 213 1
27 214 1
27 222 1
27 236 1
27 257 1
27 258 1
27 643 1
27 644 1
27 666 1
27 676 1
27 698 1
28 3 1
28 4 1
28 16 1
28 30 1
28 61 1
28 62 1
28 83 1
28 84 1
28 103 1
28 104 1
28 106 1
28 127 1
28 128 1
28 136 1
28 140 1
28 149 1
28 179 1
28 194 1
28 215 1
28 216 1
28 224 1
28 238 1
28 259 1
28 260 1
28 645 1
28 646 1
28 668 1
28 678 1
28 700 1
29 5 1
29 6 1
29 18 1
29 32 1
29 63 1
29 64 1
29 85 1
29 86 1
29 105 1
29 106 1
29 108 1
29 129 1
29 130 1
29 138 1
29 142 1
29 151 1
29 181 1
29 196 1
29 217 1
29 218 1
29 226 1
29 240 1
29 261 1
29 262 1
29 647 1
29 648 1
29 670 1
29 680 1
29 702 1
30 7 1
30 8 1
30 20 1
30 34 1
30 65 1
30 66 1
30 87 1
30 88 1
30 107 1
30 108 1
30 110 1
30 131 1
30 132 1
30 140 1
30 144 1
30 153 1
30 183 1
30 198 1
30 219 1
30 220 1
30 228 1
30 242 1
30 263 1
30 264 1
30 649 1
30 650 1
30 672 1
30 682 1
30 704 1
31 1 1
31 2 1
31 9 1
31 10 1
31 22 1
31 36 1
31 67 1
31 68 1
31 109 1
31 110 1
31 112 1
31 133 1
31 134 1
31 142 1
31 146 1
31 155 1
31 177 1
31 178 1
31 185 1
31 200 1
31 221 1
31 222 1
31 230 1
31 244 1
31 618 1
31 651 1
31 652 1
31 674 1
31 684 1
32 3 1
32 4 1
32 11 1
32 12 1
32 24 1
32 38 1
32 69 1
32 70 1
32 111 1
32 112 1
32 114 1
32 135 1
32 136 1
32 144 1
32 148 1
32 157 1
32 179 1
32 180 1
32 187 1
32 202 1
32 223 1
32 224 1
32 232 1
32 246 1
32 620 1
32 653 1
32 654 1
32 676 1
32 686 1
33 5 1
33 6 1
33 13 1
33 14 1
33 26 1
33 40 1
33 71 1
33 72 1
33 113 1
33 114 1
33 116 1
33 137 1
33 138 1
33 146 1
33 150 1
33 159 1
33 181 1
33 182 1
33 189 1
33 204 1
33 225 1
33 226 1
33 234 1
33 248 1
33 622 1
33 655 1
33 656 1
33 678 1
33 688 1
34 7 1
34 8 1
34 15 1
34 16 1
34 28 1
34 42 1
34 73 1
34 74 1
34 115 1
34 116 1
34 118 1
34 139 1
34 140 1
34 148 1
34 152 1
34 161 1
34 183 1
34 184 1
34 191 1
34 206 1
34 227 1
34 228 1
34 236 1
34 250 1
34 624 1
34 657 1
34 658 1
34 680 1
34 690 1
35 9 1
35 10 1
35 17 1
35 18 1
35 30 1
35 44 1
35 75 1
35 76 1
35 117 1
35 118 1
35 120 1
35 141 1
35 142 1
35 150 1
35 154 1
35 163 1
35 185 1
35 186 1
35 193 1
35 208 1
35 229 1
35 230 1
35 238 1
35 252 1
35 626 1
35 659 1
35 660 1
35 682 1
35 692 1
36 11 1
36 12 1
36 19 1
36 20 1
36 32 1
36 46 1
36 77 1
36 78 1
36 119 1
36 120 1
36 122 1
36 143 1
36 144 1
36 152 1
36 156 1
36 165 1
36 187 1
36 188 1
36 195 1
36 210 1
36 231 1
36 232 1
36 240 1
36 254 1
36 628 1
36 661 1
36 662 1
36 684 1
36 694 1
37 13 1
37 14 1
37 21 1
37 22 1
37 34 1
37 48 1
37 79 1
37 80 1
37 121 1
37 122 1
37 124 1
37 145 1
37 146 1
37 154 1
37 158 1
37 167 1
37 189 1
37 190 1
37 197 1
37 212 1
37 233 1
37 234 1
37 242 1
37 256 1
37 630 1
37 663 1
37 664 1
37 686 1
37 696 1
38 15 1
38 16 1
38 23 1
38 24 1
38 36 1
38 50 1
38 81 1
38 82 1
38 123 1
38 124 1
38 126 1
38 147 1
38 148 1
38 156 1
38 160 1
38 169 1
38 191 1
38 192 1
38 199 1
38 214 1
38 235 1
38 236 1
38 244 1
38 258 1
38 632 1
38 665 1
38 666 1
38 688 1
38 698 1
39 17 1
39 18 1
39 25 1
39 26 1
39 38 1
39 52 1
39 83 1
39 84 1
39 125 1
39 126 1
39 128 1
39 149 1
39 150 1
39 158 1
39 162 1
39 171 1
39 193 1
39 194 1
39 201 1
39 216 1
39 237 1
39 238 1
39 246 1
39 260 1
39 634 1
39 667 1
39 668 1
39 690 1
39 700 1
40 19 1
40 20 1
40 27 1
40 28 1
40 40 1
40 54 1
40 85 1
40 86 1
40 127 1
40 128 1
40 130 1
40 151 1
40 152 1
40 160 1
40 164 1
40 173 1
40 195 1
40 196 1
40 203 1
40 218 1
40 239 1
40 240 1
40 248 1
40 262 1
40 636 1
40 669 1
40 670 1
40 692 1
40 702 1
41 21 1
41 22 1
41 29 1
41 30 1
41 42 1
41 56 1
41 87 1
41 88 1
41 129 1
41 130 1
41 132 1
41 153 1
41 154 1
41 162 1
41 166 1
41 175 1
41 197 1
41 198 1
41 205 1
41 220 1
41 241 1
41 242 1
41 250 1
41 264 1
41 638 1
41 671 1
41 672 1
41 694 1
41 704 1
42 1 1
42 2 1
42 23 1
42 24 1
42 31 1
42 32 1
42 44 1
42 58 1
42 89 1
42 131 1
42 132 1
42 134 1
42 155 1
42 156 1
42 164 1
42 168 1
42 178 1
42 199 1
42 200 1
42 207 1
42 222 1
42 243 1
42 244 1
42 252 1
42 618 1
42 640 1
42 673 1
42 674 1
42 696 1
43 3 1
43 4 1
43 25 1
43 26 1
43 33 1
43 34 1
43 46 1
43 60 1
43 91 1
43 133 1
43 134 1
43 136 1
43 157 1
43 158 1
43 166 1
43 170 1
43 180 1
43 201 1
43 202 1
43 209 1
43 224 1
43 245 1
43 246 1
43 254 1
43 620 1
43 642 1
43 675 1
43 676 1
43 698 1
44 5 1
44 6 1
44 27 1
44 28 1
44 35 1
44 36 1
44 48 1
44 62 1
44 93 1
44 135 1
44 136 1
44 138 1
44 159 1
44 160 1
44 168 1
44 172 1
44 182 1
44 203 1
44 204 1
44 211 1
44 226 1
44 247 1
44 248 1
44 256 1
44 622 1
44 644 1
44 677 1
44 678 1
44 700 1
45 7 1
45 29 1
45 37 1
45 49 1
45 50 1
45 63 1
45 64 1
45 96 1
45 137 1
45 139 1
45 140 1
45 161 1
45 169 1
45 170 1
45 173 1
45 174 1
45 183 1
45 184 1
45 205 1
45 214 1
45 227 1
45 228 1
45 249 1
45 257 1
45 258 1
45 623 1
45 624 1
45 645 1
45 646 1
45 679 1
45 701 1
45 702 1
46 9 1
46 31 1
46 39 1
46 51 1
46 52 1
46 65 1
46 66 1
46 98 1
46 139 1
46 141 1
46 142 1
46 163 1
46 171 1
46 172 1
46 175 1
46 176 1
46 185 1
46 186 1
46 207 1
46 216 1
46 229 1
46 230 1
46 251 1
46 259 1
46 260 1
46 625 1
46 626 1
46 647 1
46 648 1
46 681 1
46 703 1
46 704 1
47 11 1
47 33 1
47 41 1
47 53 1
47 54 1
47 67 1
47 68 1
47 89 1
47 90 1
47 100 1
47 141 1
47 143 1
47 144 1
47 165 1
47 173 1
47 174 1
47 187 1
47 188 1
47 209 1
47 218 1
47 231 1
47 232 1
47 253 1
47 261 1
47 262 1
47 617 1
47 618 1
47 627 1
47 628 1
47 649 1
47 650 1
47 683 1
48 13 1
48 35 1
48 43 1
48 55 1
48 56 1
48 69 1
48 70 1
48 91 1
48 92 1
48 102 1
48 143 1
48 145 1
48 146 1
48 167 1
48 175 1
48 176 1
48 189 1
48 190 1
48 211 1
48 220 1
48 233 1
48 234 1
48 255 1
48 263 1
48 264 1
48 619 1
48 620 1
48 629 1
48 630 1
48 651 1
48 652 1
48 685 1
49 15 1
49 37 1
49 45 1
49 57 1
49 58 1
49 71 1
49 72 1
49 89 1
49 90 1
49 93 1
49 94 1
49 104 1
49 145 1
49 147 1
49 148 1
49 169 1
49 177 1
49 178 1
49 191 1
49 192 1
49 213 1
49 222 1
49 235 1
49 236 1
49 257 1
49 621 1
49 622 1
49 631 1
49 632 1
49 653 1
49 654 1
49 687 1
50 17 1
50 39 1
50 47 1
50 59 1
50 60 1
50 73 1
50 74 1
50 91 1
50 92 1
50 95 1
50 96 1
50 106 1
50 147 1
50 149 1
50 150 1
50 171 1
50 179 1
50 180 1
50 193 1
50 194 1
50 215 1
50 224 1
50 237 1
50 238 1
50 259 1
50 623 1
50 624 1
50 633 1
50 634 1
50 655 1
50 656 1
50 689 1
51 19 1
51 41 1
51 49 1
51 61 1
51 62 1
51 75 1
51 76 1
51 93 1
51 94 1
51 97 1
51 98 1
51 108 1
51 149 1
51 151 1
51 152 1
51 173 1
51 181 1
51 182 1
51 195 1
51 196 1
51 217 1
51 226 1
51 239 1
51 240 1
51 261 1
51 625 1
51 626 1
51 635 1
51 636 1
51 657 1
51 658 1
51 691 1
52 21 1
52 43 1
52 51 1
52 63 1
52 64 1
52 77 1
52 78 1
52 95 1
52 96 1
52 99 1
52 100 1
52 110 1
52 151 1
52 153 1
52 154 1
52 175 1
52 183 1
52 184 1
52 197 1
52 198 1
52 219 1
52 228 1
52 241 1
52 242 1
52 263 1
52 627 1
52 628 1
52 637 1
52 638 1
52 659 1
52 660 1
52 693 1
53 23 1
53 45 1
53 53 1
53 65 1
53 66 1
53 79 1
53 80 1
53 89 1
53 97 1
53 98 1
53 101 1
53 102 1
53 112 1
53 153 1
53 155 1
53 156 1
53 177 1
53 185 1
53 186 1
53 199 1
53 200 1
53 221 1
53 230 1
53 243 1
53 244 1
53 629 1
53 630 1
53 639 1
53 640 1
53 661 1
53 662 1
53 695 1
54 25 1
54 47 1
54 55 1
54 67 1
54 68 1
54 81 1
54 82 1
54 91 1
54 99 1
54 100 1
54 103 1
54 104 1
54 114 1
54 155 1
54 157 1
54 158 1
54 179 1
54 187 1
54 188 1
54 201 1
54 202 1
54 223 1
54 232 1
54 245 1
54 246 1
54 631 1
54 632 1
54 641 1
54 642 1
54 663 1
54 664 1
54 697 1
55 27 1
55 49 1
55 57 1
55 69 1
55 70 1
55 83 1
55 84 1
55 93 1
55 101 1
55 102 1
55 105 1
55 106 1
55 116 1
55 157 1
55 159 1
55 160 1
55 181 1
55 189 1
55 190 1
55 203 1
55 204 1
55 225 1
55 234 1
55 247 1
55 248 1
55 633 1
55 634 1
55 643 1
55 644 1
55 665 1
55 666 1
55 699 1
56 29 1
56 51 1
56 59 1
56 71 1
56 72 1
56 85 1
56 86 1
56 95 1
56 103 1
56 104 1
56 107 1
56 108 1
56 118 1
56 159 1
56 161 1
56 162 1
56 183 1
56 191 1
56 192 1
56 205 1
56 206 1
56 227 1
56 236 1
56 249 1
56 250 1
56 635 1
56 636 1
56 645 1
56 646 1
56 667 1
56 668 1
56 701 1
57 31 1
57 53 1
57 61 1
57 73 1
57 74 1
57 87 1
57 88 1
57 97 1
57 105 1
57 106 1
57 109 1
57 110 1
57 120 1
57 161 1
57 163 1
57 164 1
57 185 1
57 193 1
57 194 1
57 207 1
57 208 1
57 229 1
57 238 1
57 251 1
57 252 1
57 637 1
57 638 1
57 647 1
57 648 1
57 669 1
57 670 1
57 703 1
58 1 1
58 2 1
58 33 1
58 55 1
58 63 1
58 75 1
58 76 1
58 99 1
58 107 1
58 108 1
58 111 1
58 112 1
58 122 1
58 163 1
58 165 1
58 166 1
58 187 1
58 195 1
58 196 1
58 209 1
58 210 1
58 231 1
58 240 1
58 253 1
58 254 1
58 617 1
58 639 1
58 640 1
58 649 1
58 650 1
58 671 1
58 672 1
59 3 1
59 4 1
59 35 1
59 57 1
59 65 1
59 77 1
59 78 1
59 101 1
59 109 1
59 110 1
59 113 1
59 114 1
59 124 1
59 165 1
59 167 1
59 168 1
59 189 1
59 197 1
59 198 1
59 211 1
59 212 1
59 233 1
59 242 1
59 255 1
59 256 1
59 619 1
59 641 1
59 642 1
59 651 1
59 652 1
59 673 1
59 674 1
60 5 1
60 6 1
60 37 1
60 59 1
60 67 1
60 79 1
60 80 1
60 103 1
60 111 1
60 112 1
60 115 1
60 116 1
60 126 1
60 167 1
60 169 1
60 170 1
60 191 1
60 199 1
60 200 1
60 213 1
60 214 1
60 235 1
60 244 1
60 257 1
60 258 1
60 621 1
60 643 1
60 644 1
60 653 1
60 654 1
60 675 1
60 676 1
61 7 1
61 8 1
61 39 1
61 61 1
61 69 1
61 81 1
61 82 1
61 105 1
61 113 1
61 114 1
61 117 1
61 118 1
61 128 1
61 169 1
61 171 1
61 172 1
61 193 1
61 201 1
61 202 1
61 215 1
61 216 1
61 237 1
61 246 1
61 259 1
61 260 1
61 623 1
61 645 1
61 646 1
61 655 1
61 656 1
61 677 1
61 678 1
62 9 1
62 10 1
62 41 1
62 63 1
62 71 1
62 83 1
62 84 1
62 107 1
62 115 1
62 116 1
62 119 1
62 120 1
62 130 1
62 171 1
62 173 1
62 174 1
62 195 1
62 203 1
62 204 1
62 217 1
62 218 1
62 239 1
62 248 1
62 261 1
62 262 1
62 625 1
62 647 1
62 648 1
62 657 1
62 658 1
62 679 1
62 680 1
63 11 1
63 12 1
63 43 1
63 65 1
63 73 1
63 85 1
63 86 1
63 109 1
63 117 1
63 118 1
63 121 1
63 122 1
63 132 1
63 173 1
63 175 1
63 176 1
63 197 1
63 205 1
63 206 1
63 219 1
63 220 1
63 241 1
63 250 1
63 263 1
63 264 1
63 627 1
63 649 1
63 650 1
63 659 1
63 660 1
63 681 1
63 682 1
64 13 1
64 14 1
64 45 1
64 67 1
64 75 1
64 87 1
64 88 1
64 89 1
64 90 1
64 111 1
64 119 1
64 120 1
64 123 1
64 124 1
64 134 1
64 175 1
64 177 1
64 178 1
64 199 1
64 207 1
64 208 1
64 221 1
64 222 1
64 243 1
64 252 1
64 629 1
64 651 1
64 652 1
64 661 1
64 662 1
64 683 1
64 684 1
65 1 1
65 2 1
65 15 1
65 16 1
65 47 1
65 69 1
65 77 1
65 89 1
65 91 1
65 92 1
65 113 1
65 121 1
65 122 1
65 125 1
65 126 1
65 136 1
65 179 1
65 180 1
65 201 1
65 209 1
65 210 1
65 223 1
65 224 1
65 245 1
65 254 1
65 631 1
65 653 1
65 654 1
65 663 1
65 664 1
65 685 1
65 686 1
66 3 1
66 4 1
66 17 1
66 18 1
66 49 1
66 71 1
66 79 1
66 91 1
66 93 1
66 94 1
66 115 1
66 123 1
66 124 1
66 127 1
66 128 1
66 138 1
66 181 1
66 182 1
66 203 1
66 211 1
66 212 1
66 225 1
66 226 1
66 247 1
66 256 1
66 633 1
66 655 1
66 656 1
66 665 1
66 666 1
66 687 1
66 688 1
67 5 1
67 6 1
67 19 1
67 20 1
67 51 1
67 73 1
67 81 1
67 93 1
67 95 1
67 96 1
67 117 1
67 125 1
67 126 1
67 129 1
67 130 1
67 140 1
67 183 1
67 184 1
67 205 1
67 213 1
67 214 1
67 227 1
67 228 1
67 249 1
67 258 1
67 635 1
67 657 1
67 658 1
67 667 1
67 668 1
67 689 1
67 690 1
68 7 1
68 8 1
68 21 1
68 22 1
68 53 1
68 75 1
68 83 1
68 95 1
68 97 1
68 98 1
68 119 1
68 127 1
68 128 1
68 131 1
68 132 1
68 142 1
68 185 1
68 186 1
68 207 1
68 215 1
68 216 1
68 229 1
68 230 1
68 251 1
68 260 1
68 637 1
68 659 1
68 660 1
68 669 1
68 670 1
68 691 1
68 692 1
69 9 1
69 10 1
69 23 1
69 24 1
69 55 1
69 77 1
69 85 1
69 97 1
69 99 1
69 100 1
69 121 1
69 129 1
69 130 1
69 133 1
69 134 1
69 144 1
69 187 1
69 188 1
69 209 1
69 217 1
69 218 1
69 231 1
69 232 1
69 253 1
69 262 1
69 639 1
69 661 1
69 662 1
69 671 1
69 672 1
69 693 1
69 694 1
70 11 1
70 12 1
70 25 1
70 26 1
70 57 1
70 79 1
70 87 1
70 99 1
70 101 1
70 102 1
70 123 1
70 131 1
70 132 1
70 135 1
70 136 1
70 146 1
70 189 1
70 190 1
70 211 1
70 219 1
70 220 1
70 233 1
70 234 1
70 255 1
70 264 1
70 641 1
70 663 1
70 664 1
70 673 1
70 674 1
70 695 1
70 696 1
71 1 1
71 13 1
71 14 1
71 27 1
71 28 1
71 59 1
71 81 1
71 101 1
71 103 1
71 104 1
71 125 1
71 133 1
71 134 1
71 137 1
71 138 1
71 148 1
71 178 1
71 191 1
71 192 1
71 213 1
71 221 1
71 222 1
71 235 1
71 236 1
71 257 1
71 643 1
71 665 1
71 666 1
71 675 1
71 676 1
71 697 1
71 698 1
72 3 1
72 15 1
72 16 1
72 29 1
72 30 1
72 61 1
72 83 1
72 103 1
72 105 1
72 106 1
72 127 1
72 135 1
72 136 1
72 139 1
72 140 1
72 150 1
72 180 1
72 193 1
72 194 1
72 215 1
72 223 1
72 224 1
72 237 1
72 238 1
72 259 1
72 645 1
72 667 1
72 668 1
72 677 1
72 678 1
72 699 1
72 700 1
73 5 1
73 17 1
73 18 1
73 31 1
73 32 1
73 63 1
73 85 1
73 105 1
73 107 1
73 108 1
73 129 1
73 137 1
73 138 1
73 141 1
73 142 1
73 152 1
73 182 1
73 195 1
73 196 1
73 217 1
73 225 1
73 226 1
73 239 1
73 240 1
73 261 1
73 647 1
73 669 1
73 670 1
73 679 1
73 680 1
73 701 1
73 702 1
74 7 1
74 19 1
74 20 1
74 33 1
74 34 1
74 65 1
74 87 1
74 107 1
74 109 1
74 110 1
74 131 1
74 139 1
74 140 1
74 143 1
74 144 1
74 154 1
74 184 1
74 197 1
74 198 1
74 219 1
74 227 1
74 228 1
74 241 1
74 242 1
74 263 1
74 649 1
74 671 1
74 672 1
74 681 1
74 682 1
74 703 1
74 704 1
75 1 1
75 9 1
75 21 1
75 22 1
75 35 1
75 36 1
75 67 1
75 109 1
75 111 1
75 112 1
75 133 1
75 141 1
75 142 1
75 145 1
75 146 1
75 156 1
75 177 1
75 186 1
75 199 1
75 200 1
75 221 1
75 229 1
75 230 1
75 243 1
75 244 1
75 617 1
75 618 1
75 651 1
75 673 1
75 674 1
75 683 1
75 684 1
76 3 1
76 11 1
76 23 1
76 24 1
76 37 1
76 38 1
76 69 1
76 111 1
76 113 1
76 114 1
76 135 1
76 143 1
76 144 1
76 147 1
76 148 1
76 158 1
76 179 1
76 188 1
76 201 1
76 202 1
76 223 1
76 231 1
76 232 1
76 245 1
76 246 1
76 619 1
76 620 1
76 653 1
76 675 1
76 676 1
76 685 1
76 686 1
77 5 1
77 13 1
77 25 1
77 26 1
77 39 1
77 40 1
77 71 1
77 113 1
77 115 1
77 116 1
77 137 1
77 145 1
77 146 1
77 149 1
77 150 1
77 160 1
77 181 1
77 190 1
77 203 1
77 204 1
77 225 1
77 233 1
77 234 1
77 247 1
77 248 1
77 621 1
77 622 1
77 655 1
77 677 1
77 678 1
77 687 1
77 688 1
78 7 1
78 15 1
78 27 1
78 28 1
78 41 1
78 42 1
78 73 1
78 115 1
78 117 1
78 118 1
78 139 1
78 147 1
78 148 1
78 151 1
78 152 1
78 162 1
78 183 1
78 192 1
78 205 1
78 206 1
78 227 1
78 235 1
78 236 1
78 249 1
78 250 1
78 623 1
78 624 1
78 657 1
78 679 1
78 680 1
78 689 1
78 690 1
79 9 1
79 17 1
79 29 1
79 30 1
79 43 1
79 44 1
79 75 1
79 117 1
79 119 1
79 120 1
79 141 1
79 149 1
79 150 1
79 153 1
79 154 1
79 164 1
79 185 1
79 194 1
79 207 1
79 208 1
79 229 1
79 237 1
79 238 1
79 251 1
79 252 1
79 625 1
79 626 1
79 659 1
79 681 1
79 682 1
79 691 1
79 692 1
80 11 1
80 19 1
80 31 1
80 32 1
80 45 1
80 46 1
80 77 1
80 119 1
80 121 1
80 122 1
80 143 1
80 151 1
80 152 1
80 155 1
80 156 1
80 166 1
80 187 1
80 196 1
80 209 1
80 210 1
80 231 1
80 239 1
80 240 1
80 253 1
80 254 1
80 627 1
80 628 1
80 661 1
80 683 1
80 684 1
80 693 1
80 694 1
81 13 1
81 21 1
81 33 1
81 34 1
81 47 1
81 48 1
81 79 1
81 121 1
81 123 1
81 124 1
81 145 1
81 153 1
81 154 1
81 157 1
81 158 1
81 168 1
81 189 1
81 198 1
81 211 1
81 212 1
81 233 1
81 241 1
81 242 1
81 255 1
81 256 1
81 629 1
81 630 1
81 663 1
81 685 1
81 686 1
81 695 1
81 696 1
82 15 1
82 23 1
82 35 1
82 36 1
82 49 1
82 50 1
82 81 1
82 123 1
82 125 1
82 126 1
82 147 1
82 155 1
82 156 1
82 159 1
82 160 1
82 170 1
82 191 1
82 200 1
82 213 1
82 214 1
82 235 1
82 243 1
82 244 1
82 257 1
82 258 1
82 631 1
82 632 1
82 665 1
82 687 1
82 688 1
82 697 1
82 698 1
83 17 1
83 25 1
83 37 1
83 38 1
83 51 1
83 52 1
83 83 1
83 125 1
83 127 1
83 128 1
83 149 1
83 157 1
83 158 1
83 161 1
83 162 1
83 172 1
83 193 1
83 202 1
83 215 1
83 216 1
83 237 1
83 245 1
83 246 1
83 259 1
83 260 1
83 633 1
83 634 1
83 667 1
83 689 1
83 690 1
83 699 1
83 700 1
84 19 1
84 27 1
84 39 1
84 40 1
84 53 1
84 54 1
84 85 1
84 127 1
84 129 1
84 130 1
84 151 1
84 159 1
84 160 1
84 163 1
84 164 1
84 174 1
84 195 1
84 204 1
84 217 1
84 218 1
84 239 1
84 247 1
84 248 1
84 261 1
84 262 1
84 635 1
84 636 1
84 669 1
84 691 1
84 692 1
84 701 1
84 702 1
85 21 1
85 29 1
85 41 1
85 42 1
85 55 1
85 56 1
85 87 1
85 129 1
85 131 1
85 132 1
85 153 1
85 161 1
85 162 1
85 165 1
85 166 1
85 176 1
85 197 1
85 206 1
85 219 1
85 220 1
85 241 1
85 249 1
85 250 1
85 263 1
85 264 1
85 637 1
85 638 1
85 671 1
85 693 1
85 694 1
85 703 1
85 704 1
86 1 1
86 23 1
86 31 1
86 43 1
86 44 1
86 57 1
86 58 1
86 90 1
86 131 1
86 133 1
86 134 1
86 155 1
86 163 1
86 164 1
86 167 1
86 168 1
86 177 1
86 178 1
86 199 1
86 208 1
86 221 1
86 222 1
86 243 1
86 251 1
86 252 1
86 617 1
86 618 1
86 639 1
86 640 1
86 673 1
86 695 1
86 696 1
87 3 1
87 25 1
87 33 1
87 45 1
87 46 1
87 59 1
87 60 1
87 92 1
87 133 1
87 135 1
87 136 1
87 157 1
87 165 1
87 166 1
87 169 1
87 170 1
87 179 1
87 180 1
87 201 1
87 210 1
87 223 1
87 224 1
87 245 1
87 253 1
87 254 1
87 619 1
87 620 1
87 641 1
87 642 1
87 675 1
87 697 1
87 698 1
88 5 1
88 27 1
88 35 1
88 47 1
88 48 1
88 61 1
88 62 1
88 94 1
88 135 1
88 137 1
88 138 1
88 159 1
88 167 1
88 168 1
88 171 1
88 172 1
88 181 1
88 182 1
88 203 1
88 212 1
88 225 1
88 226 1
88 247 1
88 255 1
88 256 1
88 621 1
88 622 1
88 643 1
88 644 1
88 677 1
88 699 1
88 700 1
89 19 1
89 29 1
89 33 1
89 38 1
89 59 1
89 82 1
89 108 1
89 125 1
89 139 1
89 143 1
89 148 1
89 169 1
89 535 1
89 558 1
89 565 1
89 566 1
89 579 1
89 602 1
89 609 1
89 623 1
89 650 1
89 653 1
89 671 1
89 690 1
89 697 1
89 698 1
90 21 1
90 31 1
90 35 1
90 40 1
90 61 1
90 84 1
90 110 1
90 127 1
90 141 1
90 145 1
90 150 1
90 171 1
90 537 1
90 560 1
90 567 1
90 568 1
90 581 1
90 604 1
90 611 1
90 625 1
90 652 1
90 655 1
90 673 1
90 692 1
90 699 1
90 700 1
91 23 1
91 33 1
91 37 1
91 42 1
91 63 1
91 86 1
91 112 1
91 129 1
91 143 1
91 147 1
91 152 1
91 173 1
91 539 1
91 562 1
91 569 1
91 570 1
91 583 1
91 606 1
91 613 1
91 627 1
91 654 1
91 657 1
91 675 1
91 694 1
91 701 1
91 702 1
92 25 1
92 35 1
92 39 1
92 44 1
92 65 1
92 88 1
92 114 1
92 131 1
92 145 1
92 149 1
92 154 1
92 175 1
92 541 1
92 564 1
92 571 1
92 572 1
92 585 1
92 608 1
92 615 1
92 629 1
92 656 1
92 659 1
92 677 1
92 696 1
92 703 1
92 704 1
93 2 1
93 27 1
93 37 1
93 41 1
93 46 1
93 67 1
93 89 1
93 116 1
93 133 1
93 147 1
93 151 1
93 156 1
93 529 1
93 543 1
93 566 1
93 573 1
93 574 1
93 587 1
93 610 1
93 617 1
93 618 1
93 631 1
93 658 1
93 661 1
93 679 1
93 698 1
94 4 1
94 29 1
94 39 1
94 43 1
94 48 1
94 69 1
94 91 1
94 118 1
94 135 1
94 149 1
94 153 1
94 158 1
94 531 1
94 545 1
94 568 1
94 575 1
94 576 1
94 589 1
94 612 1
94 619 1
94 620 1
94 633 1
94 660 1
94 663 1
94 681 1
94 700 1
95 6 1
95 31 1
95 41 1
95 45 1
95 50 1
95 71 1
95 93 1
95 120 1
95 137 1
95 151 1
95 155 1
95 160 1
95 533 1
95 547 1
95 570 1
95 577 1
95 578 1
95 591 1
95 614 1
95 621 1
95 622 1
95 635 1
95 662 1
95 665 1
95 683 1
95 702 1
96 8 1
96 33 1
96 43 1
96 47 1
96 52 1
96 73 1
96 95 1
96 122 1
96 139 1
96 153 1
96 157 1
96 162 1
96 535 1
96 549 1
96 572 1
96 579 1
96 580 1
96 593 1
96 616 1
96 623 1
96 624 1
96 637 1
96 664 1
96 667 1
96 685 1
96 704 1
97 10 1
97 35 1
97 45 1
97 49 1
97 54 1
97 75 1
97 97 1
97 124 1
97 141 1
97 155 1
97 159 1
97 164 1
97 530 1
97 537 1
97 551 1
97 574 1
97 581 1
97 582 1
97 595 1
97 618 1
97 625 1
97 626 1
97 639 1
97 666 1
97 669 1
97 687 1
98 12 1
98 37 1
98 47 1
98 51 1
98 56 1
98 77 1
98 99 1
98 126 1
98 143 1
98 157 1
98 161 1
98 166 1
98 532 1
98 539 1
98 553 1
98 576 1
98 583 1
98 584 1
98 597 1
98 620 1
98 627 1
98 628 1
98 641 1
98 668 1
98 671 1
98 689 1
99 14 1
99 39 1
99 49 1
99 53 1
99 58 1
99 79 1
99 101 1
99 128 1
99 145 1
99 159 1
99 163 1
99 168 1
99 534 1
99 541 1
99 555 1
99 578 1
99 585 1
99 586 1
99 599 1
99 622 1
99 629 1
99 630 1
99 643 1
99 670 1
99 673 1
99 691 1
100 16 1
100 41 1
100 51 1
100 55 1
100 60 1
100 81 1
100 103 1
100 130 1
100 147 1
100 161 1
100 165 1
100 170 1
100 536 1
100 543 1
100 557 1
100 580 1
100 587 1
100 588 1
100 601 1
100 624 1
100 631 1
100 632 1
100 645 1
100 672 1
100 675 1
100 693 1
101 18 1
101 43 1
101 53 1
101 57 1
101 62 1
101 83 1
101 105 1
101 132 1
101 149 1
101 163 1
101 167 1
101 172 1
101 538 1
101 545 1
101 559 1
101 582 1
101 589 1
101 590 1
101 603 1
101 626 1
101 633 1
101 634 1
101 647 1
101 674 1
101 677 1
101 695 1
102 20 1
102 45 1
102 55 1
102 59 1
102 64 1
102 85 1
102 107 1
102 134 1
102 151 1
102 165 1
102 169 1
102 174 1
102 540 1
102 547 1
102 561 1
102 584 1
102 591 1
102 592 1
102 605 1
102 628 1
102 635 1
102 636 1
102 649 1
102 676 1
102 679 1
102 697 1
103 22 1
103 47 1
103 57 1
103 61 1
103 66 1
103 87 1
103 109 1
103 136 1
103 153 1
103 167 1
103 171 1
103 176 1
103 542 1
103 549 1
103 563 1
103 586 1
103 593 1
103 594 1
103 607 1
103 630 1
103 637 1
103 638 1
103 651 1
103 678 1
103 681 1
103 699 1
104 1 1
104 24 1
104 49 1
104 59 1
104 63 1
104 68 1
104 90 1
104 111 1
104 138 1
104 155 1
104 169 1
104 173 1
104 544 1
104 551 1
104 565 1
104 588 1
104 595 1
104 596 1
104 609 1
104 632 1
104 639 1
104 640 1
104 653 1
104 680 1
104 683 1
104 701 1
105 3 1
105 26 1
105 51 1
105 61 1
105 65 1
105 70 1
105 92 1
105 113 1
105 140 1
105 157 1
105 171 1
105 175 1
105 546 1
105 553 1
105 567 1
105 590 1
105 597 1
105 598 1
105 611 1
105 634 1
105 641 1
105 642 1
105 655 1
105 682 1
105 685 1
105 703 1
106 5 1
106 28 1
106 53 1
106 63 1
106 67 1
106 72 1
106 89 1
106 94 1
106 115 1
106 142 1
106 159 1
106 173 1
106 548 1
106 555 1
106 569 1
106 592 1
106 599 1
106 600 1
106 613 1
106 617 1
106 636 1
106 643 1
106 644 1
106 657 1
106 684 1
106 687 1
107 7 1
107 30 1
107 55 1
107 65 1
107 69 1
107 74 1
107 91 1
107 96 1
107 117 1
107 144 1
107 161 1
107 175 1
107 550 1
107 557 1
107 571 1
107 594 1
107 601 1
107 602 1
107 615 1
107 619 1
107 638 1
107 645 1
107 646 1
107 659 1
107 686 1
107 689 1
108 9 1
108 32 1
108 57 1
108 67 1
108 71 1
108 76 1
108 89 1
108 93 1
108 98 1
108 119 1
108 146 1
108 163 1
108 529 1
108 552 1
108 559 1
108 573 1
108 596 1
108 603 1
108 604 1
108 621 1
108 640 1
108 647 1
108 648 1
108 661 1
108 688 1
108 691 1
109 11 1
109 34 1
109 59 1
109 69 1
109 73 1
109 78 1
109 91 1
109 95 1
109 100 1
109 121 1
109 148 1
109 165 1
109 531 1
109 554 1
109 561 1
109 575 1
109 598 1
109 605 1
109 606 1
109 623 1
109 642 1
109 649 1
109 650 1
109 663 1
109 690 1
109 693 1
110 13 1
110 36 1
110 61 1
110 71 1
110 75 1
110 80 1
110 93 1
110 97 1
110 102 1
110 123 1
110 150 1
110 167 1
110 533 1
110 556 1
110 563 1
110 577 1
110 600 1
110 607 1
110 608 1
110 625 1
110 644 1
110 651 1
110 652 1
110 665 1
110 692 1
110 695 1
111 15 1
111 38 1
111 63 1
111 73 1
111 77 1
111 82 1
111 95 1
111 99 1
111 104 1
111 125 1
111 152 1
111 169 1
111 535 1
111 558 1
111 565 1
111 579 1
111 602 1
111 609 1
111 610 1
111 627 1
111 646 1
111 653 1
111 654 1
111 667 1
111 694 1
111 697 1
112 17 1
112 40 1
112 65 1
112 75 1
112 79 1
112 84 1
112 97 1
112 101 1
112 106 1
112 127 1
112 154 1
112 171 1
112 537 1
112 560 1
112 567 1
112 581 1
112 604 1
112 611 1
112 612 1
112 629 1
112 648 1
112 655 1
112 656 1
112 669 1
112 696 1
112 699 1
113 19 1
113 42 1
113 67 1
113 77 1
113 81 1
113 86 1
113 99 1
113 103 1
113 108 1
113 129 1
113 156 1
113 173 1
113 539 1
113 562 1
113 569 1
113 583 1
113 606 1
113 613 1
113 614 1
113 631 1
113 650 1
113 657 1
113 658 1
113 671 1
113 698 1
113 701 1
114 21 1
114 44 1
114 69 1
114 79 1
114 83 1
114 88 1
114 101 1
114 105 1
114 110 1
114 131 1
114 158 1
114 175 1
114 541 1
114 564 1
114 571 1
114 585 1
114 608 1
114 615 1
114 616 1
114 633 1
114 652 1
114 659 1
114 660 1
114 673 1
114 700 1
114 703 1
115 2 1
115 23 1
115 46 1
115 71 1
115 81 1
115 85 1
115 89 1
115 103 1
115 107 1
115 112 1
115 133 1
115 160 1
115 529 1
115 530 1
115 543 1
115 566 1
115 573 1
115 587 1
115 610 1
115 617 1
115 635 1
115 654 1
115 661 1
115 662 1
115 675 1
115 702 1
116 4 1
116 25 1
116 48 1
116 73 1
116 83 1
116 87 1
116 91 1
116 105 1
116 109 1
116 114 1
116 135 1
116 162 1
116 531 1
116 532 1
116 545 1
116 568 1
116 575 1
116 589 1
116 612 1
116 619 1
116 637 1
116 656 1
116 663 1
116 664 1
116 677 1
116 704 1
117 1 1
117 6 1
117 27 1
117 50 1
117 75 1
117 85 1
117 93 1
117 107 1
117 111 1
117 116 1
117 137 1
117 164 1
117 533 1
117 534 1
117 547 1
117 570 1
117 577 1
117 591 1
117 614 1
117 618 1
117 621 1
117 639 1
117 658 1
117 665 1
117 666 1
117 679 1
118 3 1
118 8 1
118 29 1
118 52 1
118 77 1
118 87 1
118 95 1
118 109 1
118 113 1
118 118 1
118 139 1
118 166 1
118 535 1
118 536 1
118 549 1
118 572 1
118 579 1
118 593 1
118 616 1
118 620 1
118 623 1
118 641 1
118 660 1
118 667 1
118 668 1
118 681 1
119 1 1
119 5 1
119 10 1
119 31 1
119 54 1
119 79 1
119 97 1
119 111 1
119 115 1
119 120 1
119 141 1
119 168 1
119 530 1
119 537 1
119 538 1
119 551 1
119 574 1
119 581 1
119 595 1
119 622 1
119 625 1
119 643 1
119 662 1
119 669 1
119 670 1
119 683 1
120 3 1
120 7 1
120 12 1
120 33 1
120 56 1
120 81 1
120 99 1
120 113 1
120 117 1
120 122 1
120 143 1
120 170 1
120 532 1
120 539 1
120 540 1
120 553 1
120 576 1
120 583 1
120 597 1
120 624 1
120 627 1
120 645 1
120 664 1
120 671 1
120 672 1
120 685 1
121 5 1
121 9 1
121 14 1
121 35 1
121 58 1
121 83 1
121 101 1
121 115 1
121 119 1
121 124 1
121 145 1
121 172 1
121 534 1
121 541 1
121 542 1
121 555 1
121 578 1
121 585 1
121 599 1
121 626 1
121 629 1
121 647 1
121 666 1
121 673 1
121 674 1
121 687 1
122 7 1
122 11 1
122 16 1
122 37 1
122 60 1
122 85 1
122 103 1
122 117 1
122 121 1
122 126 1
122 147 1
122 174 1
122 536 1
122 543 1
122 544 1
122 557 1
122 580 1
122 587 1
122 601 1
122 628 1
122 631 1
122 649 1
122 668 1
122 675 1
122 676 1
122 689 1
123 9 1
123 13 1
123 18 1
123 39 1
123 62 1
123 87 1
123 105 1
123 119 1
123 123 1
123 128 1
123 149 1
123 176 1
123 538 1
123 545 1
123 546 1
123 559 1
123 582 1
123 589 1
123 603 1
123 630 1
123 633 1
123 651 1
123 670 1
123 677 1
123 678 1
123 691 1
124 1 1
124 11 1
124 15 1
124 20 1
124 41 1
124 64 1
124 90 1
124 107 1
124 121 1
124 125 1
124 130 1
124 151 1
124 540 1
124 547 1
124 548 1
124 561 1
124 584 1
124 591 1
124 605 1
124 632 1
124 635 1
124 653 1
124 672 1
124 679 1
124 680 1
124 693 1
125 3 1
125 13 1
125 17 1
125 22 1
125 43 1
125 66 1
125 92 1
125 109 1
125 123 1
125 127 1
125 132 1
125 153 1
125 542 1
125 549 1
125 550 1
125 563 1
125 586 1
125 593 1
125 607 1
125 634 1
125 637 1
125 655 1
125 674 1
125 681 1
125 682 1
125 695 1
126 5 1
126 15 1
126 19 1
126 24 1
126 45 1
126 68 1
126 94 1
126 111 1
126 125 1
126 129 1
126 134 1
126 155 1
126 544 1
126 551 1
126 552 1
126 565 1
126 588 1
126 595 1
126 609 1
126 636 1
126 639 1
126 657 1
126 676 1
126 683 1
126 684 1
126 697 1
127 7 1
127 17 1
127 21 1
127 26 1
127 47 1
127 70 1
127 96 1
127 113 1
127 127 1
127 131 1
127 136 1
127 157 1
127 546 1
127 553 1
127 554 1
127 567 1
127 590 1
127 597 1
127 611 1
127 638 1
127 641 1
127 659 1
127 678 1
127 685 1
127 686 1
127 699 1
128 9 1
128 19 1
128 23 1
128 28 1
128 49 1
128 72 1
128 98 1
128 115 1
128 129 1
128 133 1
128 138 1
128 159 1
128 548 1
128 555 1
128 556 1
128 569 1
128 592 1
128 599 1
128 613 1
128 640 1
128 643 1
128 661 1
128 680 1
128 687 1
128 688 1
128 701 1
129 11 1
129 21 1
129 25 1
129 30 1
129 51 1
129 74 1
129 100 1
129 117 1
129 131 1
129 135 1
129 140 1
129 161 1
129 550 1
129 557 1
129 558 1
129 571 1
129 594 1
129 601 1
129 615 1
129 642 1
129 645 1
129 663 1
129 682 1
129 689 1
129 690 1
129 703 1
130 13 1
130 23 1
130 27 1
130 32 1
130 53 1
130 76 1
130 102 1
130 119 1
130 133 1
130 137 1
130 142 1
130 163 1
130 529 1
130 552 1
130 559 1
130 560 1
130 573 1
130 596 1
130 603 1
130 617 1
130 644 1
130 647 1
130 665 1
130 684 1
130 691 1
130 692 1
131 15 1
131 25 1
131 29 1
131 34 1
131 55 1
131 78 1
131 104 1
131 121 1
131 135 1
131 139 1
131 144 1
131 165 1
131 531 1
131 554 1
131 561 1
131 562 1
131 575 1
131 598 1
131 605 1
131 619 1
131 646 1
131 649 1
131 667 1
131 686 1
131 693 1
131 694 1
132 17 1
132 27 1
132 31 1
132 36 1
132 57 1
132 80 1
132 106 1
132 123 1
132 137 1
132 141 1
132 146 1
132 167 1
132 533 1
132 556 1
132 563 1
132 564 1
132 577 1
132 600 1
132 607 1
132 621 1
132 648 1
132 651 1
132 669 1
132 688 1
132 695 1
132 696 1
133 20 1
133 30 1
133 34 1
133 37 1
133 38 1
133 60 1
133 81 1
133 82 1
133 107 1
133 108 1
133 126 1
133 140 1
133 144 1
133 147 1
133 148 1
133 170 1
133 536 1
133 557 1
133 558 1
133 565 1
133 580 1
133 601 1
133 602 1
133 610 1
133 624 1
133 649 1
133 650 1
133 654 1
133 672 1
133 689 1
133 690 1
133 697 1
134 22 1
134 32 1
134 36 1
134 39 1
134 40 1
134 62 1
134 83 1
134 84 1
134 109 1
134 110 1
134 128 1
134 142 1
134 146 1
134 149 1
134 150 1
134 172 1
134 538 1
134 559 1
134 560 1
134 567 1
134 582 1
134 603 1
134 604 1
134 612 1
134 626 1
134 651 1
134 652 1
134 656 1
134 674 1
134 691 1
134 692 1
134 699 1
135 24 1
135 34 1
135 38 1
135 41 1
135 42 1
135 64 1
135 85 1
135 86 1
135 111 1
135 112 1
135 130 1
135 144 1
135 148 1
135 151 1
135 152 1
135 174 1
135 540 1
135 561 1
135 562 1
135 569 1
135 584 1
135 605 1
135 606 1
135 614 1
135 628 1
135 653 1
135 654 1
135 658 1
135 676 1
135 693 1
135 694 1
135 701 1
136 26 1
136 36 1
136 40 1
136 43 1
136 44 1
136 66 1
136 87 1
136 88 1
136 113 1
136 114 1
136 132 1
136 146 1
136 150 1
136 153 1
136 154 1
136 176 1
136 542 1
136 563 1
136 564 1
136 571 1
136 586 1
136 607 1
136 608 1
136 616 1
136 630 1
136 655 1
136 656 1
136 660 1
136 678 1
136 695 1
136 696 1
136 703 1
137 1 1
137 2 1
137 28 1
137 38 1
137 42 1
137 45 1
137 46 1
137 68 1
137 90 1
137 115 1
137 116 1
137 134 1
137 148 1
137 152 1
137 155 1
137 156 1
137 530 1
137 544 1
137 565 1
137 566 1
137 573 1
137 588 1
137 609 1
137 610 1
137 617 1
137 632 1
137 657 1
137 658 1
137 662 1
137 680 1
137 697 1
137 698 1
138 3 1
138 4 1
138 30 1
138 40 1
138 44 1
138 47 1
138 48 1
138 70 1
138 92 1
138 117 1
138 118 1
138 136 1
138 150 1
138 154 1
138 157 1
138 158 1
138 532 1
138 546 1
138 567 1
138 568 1
138 575 1
138 590 1
138 611 1
138 612 1
138 619 1
138 634 1
138 659 1
138 660 1
138 664 1
138 682 1
138 699 1
138 700 1
139 5 1
139 6 1
139 32 1
139 42 1
139 46 1
139 49 1
139 50 1
139 72 1
139 94 1
139 119 1
139 120 1
139 138 1
139 152 1
139 156 1
139 159 1
139 160 1
139 534 1
139 548 1
139 569 1
139 570 1
139 577 1
139 592 1
139 613 1
139 614 1
139 621 1
139 636 1
139 661 1
139 662 1
139 666 1
139 684 1
139 701 1
139 702 1
140 7 1
140 8 1
140 34 1
140 44 1
140 48 1
140 51 1
140 52 1
140 74 1
140 96 1
140 121 1
140 122 1
140 140 1
140 154 1
140 158 1
140 161 1
140 162 1
140 536 1
140 550 1
140 571 1
140 572 1
140 579 1
140 594 1
140 615 1
140 616 1
140 623 1
140 638 1
140 663 1
140 664 1
140 668 1
140 686 1
140 703 1
140 704 1
141 9 1
141 10 1
141 36 1
141 46 1
141 50 1
141 53 1
141 54 1
141 76 1
141 98 1
141 123 1
141 124 1
141 142 1
141 156 1
141 160 1
141 163 1
141 164 1
141 529 1
141 530 1
141 538 1
141 552 1
141 573 1
141 574 1
141 581 1
141 596 1
141 617 1
141 618 1
141 625 1
141 640 1
141 665 1
141 666 1
141 670 1
141 688 1
142 11 1
142 12 1
142 38 1
142 48 1
142 52 1
142 55 1
142 56 1
142 78 1
142 100 1
142 125 1
142 126 1
142 144 1
142 158 1
142 162 1
142 165 1
142 166 1
142 531 1
142 532 1
142 540 1
142 554 1
142 575 1
142 576 1
142 583 1
142 598 1
142 619 1
142 620 1
142 627 1
142 642 1
142 667 1
142 668 1
142 672 1
142 690 1
143 13 1
143 14 1
143 40 1
143 50 1
143 54 1
143 57 1
143 58 1
143 80 1
143 102 1
143 127 1
143 128 1
143 146 1
143 160 1
143 164 1
143 167 1
143 168 1
143 533 1
143 534 1
143 542 1
143 556 1
143 577 1
143 578 1
143 585 1
143 600 1
143 621 1
143 622 1
143 629 1
143 644 1
143 669 1
143 670 1
143 674 1
143 692 1
144 15 1
144 16 1
144 42 1
144 52 1
144 56 1
144 59 1
144 60 1
144 82 1
144 104 1
144 129 1
144 130 1
144 148 1
144 162 1
144 166 1
144 169 1
144 170 1
144 535 1
144 536 1
144 544 1
144 558 1
144 579 1
144 580 1
144 587 1
144 602 1
144 623 1
144 624 1
144 631 1
144 646 1
144 671 1
144 672 1
144 676 1
144 694 1
145 17 1
145 18 1
145 44 1
145 54 1
145 58 1
145 61 1
145 62 1
145 84 1
145 106 1
145 131 1
145 132 1
145 150 1
145 164 1
145 168 1
145 171 1
145 172 1
145 537 1
145 538 1
145 546 1
145 560 1
145 581 1
145 582 1
145 589 1
145 604 1
145 625 1
145 626 1
145 633 1
145 648 1
145 673 1
145 674 1
145 678 1
145 696 1
146 19 1
146 20 1
146 46 1
146 56 1
146 60 1
146 63 1
146 64 1
146 86 1
146 108 1
146 133 1
146 134 1
146 152 1
146 166 1
146 170 1
146 173 1
146 174 1
146 539 1
146 540 1
146 548 1
146 562 1
146 583 1
146 584 1
146 591 1
146 606 1
146 627 1
146 628 1
146 635 1
146 650 1
146 675 1
146 676 1
146 680 1
146 698 1
147 21 1
147 22 1
147 48 1
147 58 1
147 62 1
147 65 1
147 66 1
147 88 1
147 110 1
147 135 1
147 136 1
147 154 1
147 168 1
147 172 1
147 175 1
147 176 1
147 541 1
147 542 1
147 550 1
147 564 1
147 585 1
147 586 1
147 593 1
147 608 1
147 629 1
147 630 1
147 637 1
147 652 1
147 677 1
147 678 1
147 682 1
147 700 1
148 2 1
148 23 1
148 24 1
148 50 1
148 60 1
148 64 1
148 67 1
148 68 1
148 89 1
148 90 1
148 112 1
148 137 1
148 138 1
148 156 1
148 170 1
148 174 1
148 543 1
148 544 1
148 552 1
148 566 1
148 587 1
148 588 1
148 595 1
148 610 1
148 631 1
148 632 1
148 639 1
148 654 1
148 679 1
148 680 1
148 684 1
148 702 1
149 4 1
149 25 1
149 26 1
149 52 1
149 62 1
149 66 1
149 69 1
149 70 1
149 91 1
149 92 1
149 114 1
149 139 1
149 140 1
149 158 1
149 172 1
149 176 1
149 545 1
149 546 1
149 554 1
149 568 1
149 589 1
149 590 1
149 597 1
149 612 1
149 633 1
149 634 1
149 641 1
149 656 1
149 681 1
149 682 1
149 686 1
149 704 1
150 6 1
150 27 1
150 28 1
150 54 1
150 64 1
150 68 1
150 71 1
150 72 1
150 90 1
150 93 1
150 94 1
150 116 1
150 141 1
150 142 1
150 160 1
150 174 1
150 547 1
150 548 1
150 556 1
150 570 1
150 591 1
150 592 1
150 599 1
150 614 1
150 618 1
150 635 1
150 636 1
150 643 1
150 658 1
150 683 1
150 684 1
150 688 1
151 8 1
151 29 1
151 30 1
151 56 1
151 66 1
151 70 1
151 73 1
151 74 1
151 92 1
151 95 1
151 96 1
151 118 1
151 143 1
151 144 1
151 162 1
151 176 1
151 549 1
151 550 1
151 558 1
151 572 1
151 593 1
151 594 1
151 601 1
151 616 1
151 620 1
151 637 1
151 638 1
151 645 1
151 660 1
151 685 1
151 686 1
151 690 1
152 10 1
152 31 1
152 32 1
152 58 1
152 68 1
152 72 1
152 75 1
152 76 1
152 90 1
152 94 1
152 97 1
152 98 1
152 120 1
152 145 1
152 146 1
152 164 1
152 530 1
152 551 1
152 552 1
152 560 1
152 574 1
152 595 1
152 596 1
152 603 1
152 622 1
152 639 1
152 640 1
152 647 1
152 662 1
152 687 1
152 688 1
152 692 1
153 12 1
153 33 1
153 34 1
153 60 1
153 70 1
153 74 1
153 77 1
153 78 1
153 92 1
153 96 1
153 99 1
153 100 1
153 122 1
153 147 1
153 148 1
153 166 1
153 532 1
153 553 1
153 554 1
153 562 1
153 576 1
153 597 1
153 598 1
153 605 1
153 624 1
153 641 1
153 642 1
153 649 1
153 664 1
153 689 1
153 690 1
153 694 1
154 14 1
154 35 1
154 36 1
154 62 1
154 72 1
154 76 1
154 79 1
154 80 1
154 94 1
154 98 1
154 101 1
154 102 1
154 124 1
154 149 1
154 150 1
154 168 1
154 534 1
154 555 1
154 556 1
154 564 1
154 578 1
154 599 1
154 600 1
154 607 1
154 626 1
154 643 1
154 644 1
154 651 1
154 666 1
154 691 1
154 692 1
154 696 1
155 16 1
155 37 1
155 38 1
155 64 1
155 74 1
155 78 1
155 81 1
155 82 1
155 96 1
155 100 1
155 103 1
155 104 1
155 126 1
155 151 1
155 152 1
155 170 1
155 536 1
155 557 1
155 558 1
155 566 1
155 580 1
155 601 1
155 602 1
155 609 1
155 628 1
155 645 1
155 646 1
155 653 1
155 668 1
155 693 1
155 694 1
155 698 1
156 18 1
156 39 1
156 40 1
156 66 1
156 76 1
156 80 1
156 83 1
156 84 1
156 98 1
156 102 1
156 105 1
156 106 1
156 128 1
156 153 1
156 154 1
156 172 1
156 538 1
156 559 1
156 560 1
156 568 1
156 582 1
156 603 1
156 604 1
156 611 1
156 630 1
156 647 1
156 648 1
156 655 1
156 670 1
156 695 1
156 696 1
156 700 1
157 20 1
157 41 1
157 42 1
157 68 1
157 78 1
157 82 1
157 85 1
157 86 1
157 100 1
157 104 1
157 107 1
157 108 1
157 130 1
157 155 1
157 156 1
157 174 1
157 540 1
157 561 1
157 562 1
157 570 1
157 584 1
157 605 1
157 606 1
157 613 1
157 632 1
157 649 1
157 650 1
157 657 1
157 672 1
157 697 1
157 698 1
157 702 1
158 22 1
158 43 1
158 44 1
158 70 1
158 80 1
158 84 1
158 87 1
158 88 1
158 102 1
158 106 1
158 109 1
158 110 1
158 132 1
158 157 1
158 158 1
158 176 1
158 542 1
158 563 1
158 564 1
158 572 1
158 586 1
158 607 1
158 608 1
158 615 1
158 634 1
158 651 1
158 652 1
158 659 1
158 674 1
158 699 1
158 700 1
158 704 1
159 1 1
159 2 1
159 24 1
159 45 1
159 46 1
159 72 1
159 82 1
159 86 1
159 90 1
159 104 1
159 108 1
159 111 1
159 112 1
159 134 1
159 159 1
159 160 1
159 529 1
159 544 1
159 565 1
159 566 1
159 574 1
159 588 1
159 609 1
159 610 1
159 618 1
159 636 1
159 653 1
159 654 1
159 661 1
159 676 1
159 701 1
159 702 1
160 3 1
160 4 1
160 26 1
160 47 1
160 48 1
160 74 1
160 84 1
160 88 1
160 92 1
160 106 1
160 110 1
160 113 1
160 114 1
160 136 1
160 161 1
160 162 1
160 531 1
160 546 1
160 567 1
160 568 1
160 576 1
160 590 1
160 611 1
160 612 1
160 620 1
160 638 1
160 655 1
160 656 1
160 663 1
160 678 1
160 703 1
160 704 1
161 2 1
161 5 1
161 6 1
161 28 1
161 49 1
161 50 1
161 76 1
161 86 1
161 94 1
161 108 1
161 112 1
161 115 1
161 116 1
161 138 1
161 163 1
161 164 1
161 533 1
161 548 1
161 569 1
161 570 1
161 578 1
161 592 1
161 613 1
161 614 1
161 617 1
161 618 1
161 622 1
161 640 1
161 657 1
161 658 1
161 665 1
161 680 1
162 4 1
162 7 1
162 8 1
162 30 1
162 51 1
162 52 1
162 78 1
162 88 1
162 96 1
162 110 1
162 114 1
162 117 1
162 118 1
162 140 1
162 165 1
162 166 1
162 535 1
162 550 1
162 571 1
162 572 1
162 580 1
162 594 1
162 615 1
162 616 1
162 619 1
162 620 1
162 624 1
162 642 1
162 659 1
162 660 1
162 667 1
162 682 1
163 2 1
163 6 1
163 9 1
163 10 1
163 32 1
163 53 1
163 54 1
163 80 1
163 98 1
163 112 1
163 116 1
163 119 1
163 120 1
163 142 1
163 167 1
163 168 1
163 529 1
163 530 1
163 537 1
163 552 1
163 573 1
163 574 1
163 582 1
163 596 1
163 621 1
163 622 1
163 626 1
163 644 1
163 661 1
163 662 1
163 669 1
163 684 1
164 4 1
164 8 1
164 11 1
164 12 1
164 34 1
164 55 1
164 56 1
164 82 1
164 100 1
164 114 1
164 118 1
164 121 1
164 122 1
164 144 1
164 169 1
164 170 1
164 531 1
164 532 1
164 539 1
164 554 1
164 575 1
164 576 1
164 584 1
164 598 1
164 623 1
164 624 1
164 628 1
164 646 1
164 663 1
164 664 1
164 671 1
164 686 1
165 6 1
165 10 1
165 13 1
165 14 1
165 36 1
165 57 1
165 58 1
165 84 1
165 102 1
165 116 1
165 120 1
165 123 1
165 124 1
165 146 1
165 171 1
165 172 1
165 533 1
165 534 1
165 541 1
165 556 1
165 577 1
165 578 1
165 586 1
165 600 1
165 625 1
165 626 1
165 630 1
165 648 1
165 665 1
165 666 1
165 673 1
165 688 1
166 8 1
166 12 1
166 15 1
166 16 1
166 38 1
166 59 1
166 60 1
166 86 1
166 104 1
166 118 1
166 122 1
166 125 1
166 126 1
166 148 1
166 173 1
166 174 1
166 535 1
166 536 1
166 543 1
166 558 1
166 579 1
166 580 1
166 588 1
166 602 1
166 627 1
166 628 1
166 632 1
166 650 1
166 667 1
166 668 1
166 675 1
166 690 1
167 10 1
167 14 1
167 17 1
167 18 1
167 40 1
167 61 1
167 62 1
167 88 1
167 106 1
167 120 1
167 124 1
167 127 1
167 128 1
167 150 1
167 175 1
167 176 1
167 537 1
167 538 1
167 545 1
167 560 1
167 581 1
167 582 1
167 590 1
167 604 1
167 629 1
167 630 1
167 634 1
167 652 1
167 669 1
167 670 1
167 677 1
167 692 1
168 2 1
168 12 1
168 16 1
168 19 1
168 20 1
168 42 1
168 63 1
168 64 1
168 89 1
168 90 1
168 108 1
168 122 1
168 126 1
168 129 1
168 130 1
168 152 1
168 539 1
168 540 1
168 547 1
168 562 1
168 583 1
168 584 1
168 592 1
168 606 1
168 631 1
168 632 1
168 636 1
168 654 1
168 671 1
168 672 1
168 679 1
168 694 1
169 4 1
169 14 1
169 18 1
169 21 1
169 22 1
169 44 1
169 65 1
169 66 1
169 91 1
169 92 1
169 110 1
169 124 1
169 128 1
169 131 1
169 132 1
169 154 1
169 541 1
169 542 1
169 549 1
169 564 1
169 585 1
169 586 1
169 594 1
169 608 1
169 633 1
169 634 1
169 638 1
169 656 1
169 673 1
169 674 1
169 681 1
169 696 1
170 6 1
170 16 1
170 20 1
170 23 1
170 24 1
170 46 1
170 67 1
170 68 1
170 93 1
170 94 1
170 112 1
170 126 1
170 130 1
170 133 1
170 134 1
170 156 1
170 543 1
170 544 1
170 551 1
170 566 1
170 587 1
170 588 1
170 596 1
170 610 1
170 635 1
170 636 1
170 640 1
170 658 1
170 675 1
170 676 1
170 683 1
170 698 1
171 8 1
171 18 1
171 22 1
171 25 1
171 26 1
171 48 1
171 69 1
171 70 1
171 95 1
171 96 1
171 114 1
171 128 1
171 132 1
171 135 1
171 136 1
171 158 1
171 545 1
171 546 1
171 553 1
171 568 1
171 589 1
171 590 1
171 598 1
171 612 1
171 637 1
171 638 1
171 642 1
171 660 1
171 677 1
171 678 1
171 685 1
171 700 1
172 10 1
172 20 1
172 24 1
172 27 1
172 28 1
172 50 1
172 71 1
172 72 1
172 97 1
172 98 1
172 116 1
172 130 1
172 134 1
172 137 1
172 138 1
172 160 1
172 547 1
172 548 1
172 555 1
172 570 1
172 591 1
172 592 1
172 600 1
172 614 1
172 639 1
172 640 1
172 644 1
172 662 1
172 679 1
172 680 1
172 687 1
172 702 1
173 12 1
173 22 1
173 26 1
173 29 1
173 30 1
173 52 1
173 73 1
173 74 1
173 99 1
173 100 1
173 118 1
173 132 1
173 136 1
173 139 1
173 140 1
173 162 1
173 549 1
173 550 1
173 557 1
173 572 1
173 593 1
173 594 1
173 602 1
173 616 1
173 641 1
173 642 1
173 646 1
173 664 1
173 681 1
173 682 1
173 689 1
173 704 1
174 14 1
174 24 1
174 28 1
174 31 1
174 32 1
174 54 1
174 75 1
174 76 1
174 101 1
174 102 1
174 120 1
174 134 1
174 138 1
174 141 1
174 142 1
174 164 1
174 530 1
174 551 1
174 552 1
174 559 1
174 574 1
174 595 1
174 596 1
174 604 1
174 618 1
174 643 1
174 644 1
174 648 1
174 666 1
174 683 1
174 684 1
174 691 1
175 16 1
175 26 1
175 30 1
175 33 1
175 34 1
175 56 1
175 77 1
175 78 1
175 103 1
175 104 1
175 122 1
175 136 1
175 140 1
175 143 1
175 144 1
175 166 1
175 532 1
175 553 1
175 554 1
175 561 1
175 576 1
175 597 1
175 598 1
175 606 1
175 620 1
175 645 1
175 646 1
175 650 1
175 668 1
175 685 1
175 686 1
175 693 1
176 18 1
176 28 1
176 32 1
176 35 1
176 36 1
176 58 1
176 79 1
176 80 1
176 105 1
176 106 1
176 124 1
176 138 1
176 142 1
176 145 1
176 146 1
176 168 1
176 534 1
176 555 1
176 556 1
176 563 1
176 578 1
176 599 1
176 600 1
176 608 1
176 622 1
176 647 1
176 648 1
176 652 1
176 670 1
176 687 1
176 688 1
176 695 1
