%%MatrixMarket matrix coordinate integer general
% GF(4) labels 0,1,2=omega,3=omega+1; arithmetic is NOT integer arithmetic.
% Coordinate indices are 1-based; omitted entries are zero.
88 352 1980
1 4 3
1 15 3
1 19 3
1 25 2
1 32 2
1 48 1
1 69 3
1 70 2
1 81 3
1 85 2
1 87 2
1 92 2
1 103 3
1 107 1
1 114 2
1 125 3
1 129 2
1 312 2
1 323 2
1 340 3
1 351 2
2 5 3
2 16 3
2 20 3
2 26 2
2 33 2
2 49 1
2 70 3
2 71 2
2 82 3
2 86 2
2 88 2
2 93 2
2 104 3
2 108 1
2 115 2
2 126 3
2 130 2
2 313 2
2 324 2
2 341 3
2 352 2
3 6 3
3 17 3
3 21 3
3 27 2
3 34 2
3 45 2
3 50 1
3 71 3
3 72 2
3 83 3
3 87 2
3 94 2
3 105 3
3 109 1
3 116 2
3 127 3
3 131 2
3 309 2
3 314 2
3 325 2
3 342 3
4 7 3
4 18 3
4 22 3
4 28 2
4 35 2
4 46 2
4 51 1
4 72 3
4 73 2
4 84 3
4 88 2
4 95 2
4 106 3
4 110 1
4 117 2
4 128 3
4 132 2
4 310 2
4 315 2
4 326 2
4 343 3
5 8 3
5 19 3
5 23 3
5 29 2
5 36 2
5 45 2
5 47 2
5 52 1
5 73 3
5 74 2
5 85 3
5 89 2
5 96 2
5 107 3
5 111 1
5 118 2
5 129 3
5 311 2
5 316 2
5 327 2
5 344 3
6 9 3
6 20 3
6 24 3
6 30 2
6 37 2
6 46 2
6 48 2
6 53 1
6 74 3
6 75 2
6 86 3
6 90 2
6 97 2
6 108 3
6 112 1
6 119 2
6 130 3
6 312 2
6 317 2
6 328 2
6 345 3
7 10 3
7 21 3
7 25 3
7 31 2
7 38 2
7 47 2
7 49 2
7 54 1
7 75 3
7 76 2
7 87 3
7 91 2
7 98 2
7 109 3
7 113 1
7 120 2
7 131 3
7 313 2
7 318 2
7 329 2
7 346 3
8 11 3
8 22 3
8 26 3
8 32 2
8 39 2
8 48 2
8 50 2
8 55 1
8 76 3
8 77 2
8 88 3
8 92 2
8 99 2
8 110 3
8 114 1
8 121 2
8 132 3
8 314 2
8 319 2
8 330 2
8 347 3
9 12 3
9 23 3
9 27 3
9 33 2
9 40 2
9 45 3
9 49 2
9 51 2
9 56 1
9 77 3
9 78 2
9 89 3
9 93 2
9 100 2
9 111 3
9 115 1
9 122 2
9 315 2
9 320 2
9 331 2
9 348 3
10 13 3
10 24 3
10 28 3
10 34 2
10 41 2
10 46 3
10 50 2
10 52 2
10 57 1
10 78 3
10 79 2
10 90 3
10 94 2
10 101 2
10 112 3
10 116 1
10 123 2
10 316 2
10 321 2
10 332 2
10 349 3
11 14 3
11 25 3
11 29 3
11 35 2
11 42 2
11 47 3
11 51 2
11 53 2
11 58 1
11 79 3
11 80 2
11 91 3
11 95 2
11 102 2
11 113 3
11 117 1
11 124 2
11 317 2
11 322 2
11 333 2
11 350 3
12 15 3
12 26 3
12 30 3
12 36 2
12 43 2
12 48 3
12 52 2
12 54 2
12 59 1
12 80 3
12 81 2
12 92 3
12 96 2
12 103 2
12 114 3
12 118 1
12 125 2
12 318 2
12 323 2
12 334 2
12 351 3
13 16 3
13 27 3
13 31 3
13 37 2
13 44 2
13 49 3
13 53 2
13 55 2
13 60 1
13 81 3
13 82 2
13 93 3
13 97 2
13 104 2
13 115 3
13 119 1
13 126 2
13 319 2
13 324 2
13 335 2
13 352 3
14 1 2
14 17 3
14 28 3
14 32 3
14 38 2
14 50 3
14 54 2
14 56 2
14 61 1
14 82 3
14 83 2
14 94 3
14 98 2
14 105 2
14 116 3
14 120 1
14 127 2
14 309 3
14 320 2
14 325 2
14 336 2
15 2 2
15 18 3
15 29 3
15 33 3
15 39 2
15 51 3
15 55 2
15 57 2
15 62 1
15 83 3
15 84 2
15 95 3
15 99 2
15 106 2
15 117 3
15 121 1
15 128 2
15 310 3
15 321 2
15 326 2
15 337 2
16 3 2
16 19 3
16 30 3
16 34 3
16 40 2
16 52 3
16 56 2
16 58 2
16 63 1
16 84 3
16 85 2
16 96 3
16 100 2
16 107 2
16 118 3
16 122 1
16 129 2
16 311 3
16 322 2
16 327 2
16 338 2
17 4 2
17 20 3
17 31 3
17 35 3
17 41 2
17 53 3
17 57 2
17 59 2
17 64 1
17 85 3
17 86 2
17 97 3
17 101 2
17 108 2
17 119 3
17 123 1
17 130 2
17 312 3
17 323 2
17 328 2
17 339 2
18 5 2
18 21 3
18 32 3
18 36 3
18 42 2
18 54 3
18 58 2
18 60 2
18 65 1
18 86 3
18 87 2
18 98 3
18 102 2
18 109 2
18 120 3
18 124 1
18 131 2
18 313 3
18 324 2
18 329 2
18 340 2
19 6 2
19 22 3
19 33 3
19 37 3
19 43 2
19 55 3
19 59 2
19 61 2
19 66 1
19 87 3
19 88 2
19 99 3
19 103 2
19 110 2
19 121 3
19 125 1
19 132 2
19 314 3
19 325 2
19 330 2
19 341 2
20 7 2
20 23 3
20 34 3
20 38 3
20 44 2
20 45 2
20 56 3
20 60 2
20 62 2
20 67 1
20 88 3
20 89 2
20 100 3
20 104 2
20 111 2
20 122 3
20 126 1
20 315 3
20 326 2
20 331 2
20 342 2
21 1 2
21 8 2
21 24 3
21 35 3
21 39 3
21 45 3
21 46 2
21 57 3
21 61 2
21 63 2
21 68 1
21 90 2
21 101 3
21 105 2
21 112 2
21 123 3
21 127 1
21 316 3
21 327 2
21 332 2
21 343 2
22 2 2
22 9 2
22 25 3
22 36 3
22 40 3
22 46 3
22 47 2
22 58 3
22 62 2
22 64 2
22 69 1
22 91 2
22 102 3
22 106 2
22 113 2
22 124 3
22 128 1
22 317 3
22 328 2
22 333 2
22 344 2
23 3 2
23 10 2
23 26 3
23 37 3
23 41 3
23 47 3
23 48 2
23 59 3
23 63 2
23 65 2
23 70 1
23 92 2
23 103 3
23 107 2
23 114 2
23 125 3
23 129 1
23 318 3
23 329 2
23 334 2
23 345 2
24 4 2
24 11 2
24 27 3
24 38 3
24 42 3
24 48 3
24 49 2
24 60 3
24 64 2
24 66 2
24 71 1
24 93 2
24 104 3
24 108 2
24 115 2
24 126 3
24 130 1
24 319 3
24 330 2
24 335 2
24 346 2
25 5 2
25 12 2
25 28 3
25 39 3
25 43 3
25 49 3
25 50 2
25 61 3
25 65 2
25 67 2
25 72 1
25 94 2
25 105 3
25 109 2
25 116 2
25 127 3
25 131 1
25 320 3
25 331 2
25 336 2
25 347 2
26 6 2
26 13 2
26 29 3
26 40 3
26 44 3
26 50 3
26 51 2
26 62 3
26 66 2
26 68 2
26 73 1
26 95 2
26 106 3
26 110 2
26 117 2
26 128 3
26 132 1
26 321 3
26 332 2
26 337 2
26 348 2
27 1 3
27 7 2
27 14 2
27 30 3
27 41 3
27 51 3
27 52 2
27 63 3
27 67 2
27 69 2
27 74 1
27 89 1
27 96 2
27 107 3
27 111 2
27 118 2
27 129 3
27 322 3
27 333 2
27 338 2
27 349 2
28 2 3
28 8 2
28 15 2
28 31 3
28 42 3
28 52 3
28 53 2
28 64 3
28 68 2
28 70 2
28 75 1
28 90 1
28 97 2
28 108 3
28 112 2
28 119 2
28 130 3
28 323 3
28 334 2
28 339 2
28 350 2
29 3 3
29 9 2
29 16 2
29 32 3
29 43 3
29 53 3
29 54 2
29 65 3
29 69 2
29 71 2
29 76 1
29 91 1
29 98 2
29 109 3
29 113 2
29 120 2
29 131 3
29 324 3
29 335 2
29 340 2
29 351 2
30 4 3
30 10 2
30 17 2
30 33 3
30 44 3
30 54 3
30 55 2
30 66 3
30 70 2
30 72 2
30 77 1
30 92 1
30 99 2
30 110 3
30 114 2
30 121 2
30 132 3
30 325 3
30 336 2
30 341 2
30 352 2
31 1 3
31 5 3
31 11 2
31 18 2
31 34 3
31 55 3
31 56 2
31 67 3
31 71 2
31 73 2
31 78 1
31 89 3
31 93 1
31 100 2
31 111 3
31 115 2
31 122 2
31 309 2
31 326 3
31 337 2
31 342 2
32 2 3
32 6 3
32 12 2
32 19 2
32 35 3
32 56 3
32 57 2
32 68 3
32 72 2
32 74 2
32 79 1
32 90 3
32 94 1
32 101 2
32 112 3
32 116 2
32 123 2
32 310 2
32 327 3
32 338 2
32 343 2
33 3 3
33 7 3
33 13 2
33 20 2
33 36 3
33 57 3
33 58 2
33 69 3
33 73 2
33 75 2
33 80 1
33 91 3
33 95 1
33 102 2
33 113 3
33 117 2
33 124 2
33 311 2
33 328 3
33 339 2
33 344 2
34 4 3
34 8 3
34 14 2
34 21 2
34 37 3
34 58 3
34 59 2
34 70 3
34 74 2
34 76 2
34 81 1
34 92 3
34 96 1
34 103 2
34 114 3
34 118 2
34 125 2
34 312 2
34 329 3
34 340 2
34 345 2
35 5 3
35 9 3
35 15 2
35 22 2
35 38 3
35 59 3
35 60 2
35 71 3
35 75 2
35 77 2
35 82 1
35 93 3
35 97 1
35 104 2
35 115 3
35 119 2
35 126 2
35 313 2
35 330 3
35 341 2
35 346 2
36 6 3
36 10 3
36 16 2
36 23 2
36 39 3
36 60 3
36 61 2
36 72 3
36 76 2
36 78 2
36 83 1
36 94 3
36 98 1
36 105 2
36 116 3
36 120 2
36 127 2
36 314 2
36 331 3
36 342 2
36 347 2
37 7 3
37 11 3
37 17 2
37 24 2
37 40 3
37 61 3
37 62 2
37 73 3
37 77 2
37 79 2
37 84 1
37 95 3
37 99 1
37 106 2
37 117 3
37 121 2
37 128 2
37 315 2
37 332 3
37 343 2
37 348 2
38 8 3
38 12 3
38 18 2
38 25 2
38 41 3
38 62 3
38 63 2
38 74 3
38 78 2
38 80 2
38 85 1
38 96 3
38 100 1
38 107 2
38 118 3
38 122 2
38 129 2
38 316 2
38 333 3
38 344 2
38 349 2
39 9 3
39 13 3
39 19 2
39 26 2
39 42 3
39 63 3
39 64 2
39 75 3
39 79 2
39 81 2
39 86 1
39 97 3
39 101 1
39 108 2
39 119 3
39 123 2
39 130 2
39 317 2
39 334 3
39 345 2
39 350 2
40 10 3
40 14 3
40 20 2
40 27 2
40 43 3
40 64 3
40 65 2
40 76 3
40 80 2
40 82 2
40 87 1
40 98 3
40 102 1
40 109 2
40 120 3
40 124 2
40 131 2
40 318 2
40 335 3
40 346 2
40 351 2
41 11 3
41 15 3
41 21 2
41 28 2
41 44 3
41 65 3
41 66 2
41 77 3
41 81 2
41 83 2
41 88 1
41 99 3
41 103 1
41 110 2
41 121 3
41 125 2
41 132 2
41 319 2
41 336 3
41 347 2
41 352 2
42 1 3
42 12 3
42 16 3
42 22 2
42 29 2
42 45 1
42 66 3
42 67 2
42 78 3
42 82 2
42 84 2
42 89 2
42 100 3
42 104 1
42 111 2
42 122 3
42 126 2
42 309 2
42 320 2
42 337 3
42 348 2
43 2 3
43 13 3
43 17 3
43 23 2
43 30 2
43 46 1
43 67 3
43 68 2
43 79 3
43 83 2
43 85 2
43 90 2
43 101 3
43 105 1
43 112 2
43 123 3
43 127 2
43 310 2
43 321 2
43 338 3
43 349 2
44 3 3
44 14 3
44 18 3
44 24 2
44 31 2
44 47 1
44 68 3
44 69 2
44 80 3
44 84 2
44 86 2
44 91 2
44 102 3
44 106 1
44 113 2
44 124 3
44 128 2
44 311 2
44 322 2
44 339 3
44 350 2
45 10 1
45 15 1
45 17 1
45 19 2
45 30 1
45 41 2
45 54 2
45 63 1
45 70 1
45 72 1
45 74 2
45 85 1
45 268 1
45 279 2
45 283 3
45 290 1
45 301 2
45 305 1
45 312 1
45 325 2
45 327 1
45 336 1
45 345 2
45 349 3
46 11 1
46 16 1
46 18 1
46 20 2
46 31 1
46 42 2
46 55 2
46 64 1
46 71 1
46 73 1
46 75 2
46 86 1
46 269 1
46 280 2
46 284 3
46 291 1
46 302 2
46 306 1
46 313 1
46 326 2
46 328 1
46 337 1
46 346 2
46 350 3
47 12 1
47 17 1
47 19 1
47 21 2
47 32 1
47 43 2
47 56 2
47 65 1
47 72 1
47 74 1
47 76 2
47 87 1
47 270 1
47 281 2
47 285 3
47 292 1
47 303 2
47 307 1
47 314 1
47 327 2
47 329 1
47 338 1
47 347 2
47 351 3
48 13 1
48 18 1
48 20 1
48 22 2
48 33 1
48 44 2
48 57 2
48 66 1
48 73 1
48 75 1
48 77 2
48 88 1
48 271 1
48 282 2
48 286 3
48 293 1
48 304 2
48 308 1
48 315 1
48 328 2
48 330 1
48 339 1
48 348 2
48 352 3
49 1 2
49 14 1
49 19 1
49 21 1
49 23 2
49 34 1
49 45 1
49 58 2
49 67 1
49 74 1
49 76 1
49 78 2
49 265 1
49 272 1
49 283 2
49 287 3
49 294 1
49 305 2
49 309 3
49 316 1
49 329 2
49 331 1
49 340 1
49 349 2
50 2 2
50 15 1
50 20 1
50 22 1
50 24 2
50 35 1
50 46 1
50 59 2
50 68 1
50 75 1
50 77 1
50 79 2
50 266 1
50 273 1
50 284 2
50 288 3
50 295 1
50 306 2
50 310 3
50 317 1
50 330 2
50 332 1
50 341 1
50 350 2
51 3 2
51 16 1
51 21 1
51 23 1
51 25 2
51 36 1
51 47 1
51 60 2
51 69 1
51 76 1
51 78 1
51 80 2
51 267 1
51 274 1
51 285 2
51 289 3
51 296 1
51 307 2
51 311 3
51 318 1
51 331 2
51 333 1
51 342 1
51 351 2
52 4 2
52 17 1
52 22 1
52 24 1
52 26 2
52 37 1
52 48 1
52 61 2
52 70 1
52 77 1
52 79 1
52 81 2
52 268 1
52 275 1
52 286 2
52 290 3
52 297 1
52 308 2
52 312 3
52 319 1
52 332 2
52 334 1
52 343 1
52 352 2
53 5 2
53 18 1
53 23 1
53 25 1
53 27 2
53 38 1
53 49 1
53 62 2
53 71 1
53 78 1
53 80 1
53 82 2
53 265 2
53 269 1
53 276 1
53 287 2
53 291 3
53 298 1
53 309 2
53 313 3
53 320 1
53 333 2
53 335 1
53 344 1
54 6 2
54 19 1
54 24 1
54 26 1
54 28 2
54 39 1
54 50 1
54 63 2
54 72 1
54 79 1
54 81 1
54 83 2
54 266 2
54 270 1
54 277 1
54 288 2
54 292 3
54 299 1
54 310 2
54 314 3
54 321 1
54 334 2
54 336 1
54 345 1
55 7 2
55 20 1
55 25 1
55 27 1
55 29 2
55 40 1
55 51 1
55 64 2
55 73 1
55 80 1
55 82 1
55 84 2
55 267 2
55 271 1
55 278 1
55 289 2
55 293 3
55 300 1
55 311 2
55 315 3
55 322 1
55 335 2
55 337 1
55 346 1
56 8 2
56 21 1
56 26 1
56 28 1
56 30 2
56 41 1
56 52 1
56 65 2
56 74 1
56 81 1
56 83 1
56 85 2
56 268 2
56 272 1
56 279 1
56 290 2
56 294 3
56 301 1
56 312 2
56 316 3
56 323 1
56 336 2
56 338 1
56 347 1
57 9 2
57 22 1
57 27 1
57 29 1
57 31 2
57 42 1
57 53 1
57 66 2
57 75 1
57 82 1
57 84 1
57 86 2
57 269 2
57 273 1
57 280 1
57 291 2
57 295 3
57 302 1
57 313 2
57 317 3
57 324 1
57 337 2
57 339 1
57 348 1
58 10 2
58 23 1
58 28 1
58 30 1
58 32 2
58 43 1
58 54 1
58 67 2
58 76 1
58 83 1
58 85 1
58 87 2
58 270 2
58 274 1
58 281 1
58 292 2
58 296 3
58 303 1
58 314 2
58 318 3
58 325 1
58 338 2
58 340 1
58 349 1
59 11 2
59 24 1
59 29 1
59 31 1
59 33 2
59 44 1
59 55 1
59 68 2
59 77 1
59 84 1
59 86 1
59 88 2
59 271 2
59 275 1
59 282 1
59 293 2
59 297 3
59 304 1
59 315 2
59 319 3
59 326 1
59 339 2
59 341 1
59 350 1
60 1 1
60 12 2
60 25 1
60 30 1
60 32 1
60 34 2
60 45 2
60 56 1
60 69 2
60 78 1
60 85 1
60 87 1
60 272 2
60 276 1
60 283 1
60 294 2
60 298 3
60 305 1
60 316 2
60 320 3
60 327 1
60 340 2
60 342 1
60 351 1
61 2 1
61 13 2
61 26 1
61 31 1
61 33 1
61 35 2
61 46 2
61 57 1
61 70 2
61 79 1
61 86 1
61 88 1
61 273 2
61 277 1
61 284 1
61 295 2
61 299 3
61 306 1
61 317 2
61 321 3
61 328 1
61 341 2
61 343 1
61 352 1
62 3 1
62 14 2
62 27 1
62 32 1
62 34 1
62 36 2
62 45 1
62 47 2
62 58 1
62 71 2
62 80 1
62 87 1
62 274 2
62 278 1
62 285 1
62 296 2
62 300 3
62 307 1
62 309 1
62 318 2
62 322 3
62 329 1
62 342 2
62 344 1
63 4 1
63 15 2
63 28 1
63 33 1
63 35 1
63 37 2
63 46 1
63 48 2
63 59 1
63 72 2
63 81 1
63 88 1
63 275 2
63 279 1
63 286 1
63 297 2
63 301 3
63 308 1
63 310 1
63 319 2
63 323 3
63 330 1
63 343 2
63 345 1
64 5 1
64 16 2
64 29 1
64 34 1
64 36 1
64 38 2
64 45 1
64 47 1
64 49 2
64 60 1
64 73 2
64 82 1
64 265 1
64 276 2
64 280 1
64 287 1
64 298 2
64 302 3
64 311 1
64 320 2
64 324 3
64 331 1
64 344 2
64 346 1
65 6 1
65 17 2
65 30 1
65 35 1
65 37 1
65 39 2
65 46 1
65 48 1
65 50 2
65 61 1
65 74 2
65 83 1
65 266 1
65 277 2
65 281 1
65 288 1
65 299 2
65 303 3
65 312 1
65 321 2
65 325 3
65 332 1
65 345 2
65 347 1
66 7 1
66 18 2
66 31 1
66 36 1
66 38 1
66 40 2
66 47 1
66 49 1
66 51 2
66 62 1
66 75 2
66 84 1
66 267 1
66 278 2
66 282 1
66 289 1
66 300 2
66 304 3
66 313 1
66 322 2
66 326 3
66 333 1
66 346 2
66 348 1
67 8 1
67 19 2
67 32 1
67 37 1
67 39 1
67 41 2
67 48 1
67 50 1
67 52 2
67 63 1
67 76 2
67 85 1
67 268 1
67 279 2
67 283 1
67 290 1
67 301 2
67 305 3
67 314 1
67 323 2
67 327 3
67 334 1
67 347 2
67 349 1
68 9 1
68 20 2
68 33 1
68 38 1
68 40 1
68 42 2
68 49 1
68 51 1
68 53 2
68 64 1
68 77 2
68 86 1
68 269 1
68 280 2
68 284 1
68 291 1
68 302 2
68 306 3
68 315 1
68 324 2
68 328 3
68 335 1
68 348 2
68 350 1
69 10 1
69 21 2
69 34 1
69 39 1
69 41 1
69 43 2
69 50 1
69 52 1
69 54 2
69 65 1
69 78 2
69 87 1
69 270 1
69 281 2
69 285 1
69 292 1
69 303 2
69 307 3
69 316 1
69 325 2
69 329 3
69 336 1
69 349 2
69 351 1
70 11 1
70 22 2
70 35 1
70 40 1
70 42 1
70 44 2
70 51 1
70 53 1
70 55 2
70 66 1
70 79 2
70 88 1
70 271 1
70 282 2
70 286 1
70 293 1
70 304 2
70 308 3
70 317 1
70 326 2
70 330 3
70 337 1
70 350 2
70 352 1
71 1 2
71 12 1
71 23 2
71 36 1
71 41 1
71 43 1
71 45 1
71 52 1
71 54 1
71 56 2
71 67 1
71 80 2
71 265 3
71 272 1
71 283 2
71 287 1
71 294 1
71 305 2
71 309 1
71 318 1
71 327 2
71 331 3
71 338 1
71 351 2
72 2 2
72 13 1
72 24 2
72 37 1
72 42 1
72 44 1
72 46 1
72 53 1
72 55 1
72 57 2
72 68 1
72 81 2
72 266 3
72 273 1
72 284 2
72 288 1
72 295 1
72 306 2
72 310 1
72 319 1
72 328 2
72 332 3
72 339 1
72 352 2
73 1 1
73 3 2
73 14 1
73 25 2
73 38 1
73 43 1
73 47 1
73 54 1
73 56 1
73 58 2
73 69 1
73 82 2
73 267 3
73 274 1
73 285 2
73 289 1
73 296 1
73 307 2
73 309 2
73 311 1
73 320 1
73 329 2
73 333 3
73 340 1
74 2 1
74 4 2
74 15 1
74 26 2
74 39 1
74 44 1
74 48 1
74 55 1
74 57 1
74 59 2
74 70 1
74 83 2
74 268 3
74 275 1
74 286 2
74 290 1
74 297 1
74 308 2
74 310 2
74 312 1
74 321 1
74 330 2
74 334 3
74 341 1
75 1 1
75 3 1
75 5 2
75 16 1
75 27 2
75 40 1
75 49 1
75 56 1
75 58 1
75 60 2
75 71 1
75 84 2
75 265 2
75 269 3
75 276 1
75 287 2
75 291 1
75 298 1
75 311 2
75 313 1
75 322 1
75 331 2
75 335 3
75 342 1
76 2 1
76 4 1
76 6 2
76 17 1
76 28 2
76 41 1
76 50 1
76 57 1
76 59 1
76 61 2
76 72 1
76 85 2
76 266 2
76 270 3
76 277 1
76 288 2
76 292 1
76 299 1
76 312 2
76 314 1
76 323 1
76 332 2
76 336 3
76 343 1
77 3 1
77 5 1
77 7 2
77 18 1
77 29 2
77 42 1
77 51 1
77 58 1
77 60 1
77 62 2
77 73 1
77 86 2
77 267 2
77 271 3
77 278 1
77 289 2
77 293 1
77 300 1
77 313 2
77 315 1
77 324 1
77 333 2
77 337 3
77 344 1
78 4 1
78 6 1
78 8 2
78 19 1
78 30 2
78 43 1
78 52 1
78 59 1
78 61 1
78 63 2
78 74 1
78 87 2
78 268 2
78 272 3
78 279 1
78 290 2
78 294 1
78 301 1
78 314 2
78 316 1
78 325 1
78 334 2
78 338 3
78 345 1
79 5 1
79 7 1
79 9 2
79 20 1
79 31 2
79 44 1
79 53 1
79 60 1
79 62 1
79 64 2
79 75 1
79 88 2
79 269 2
79 273 3
79 280 1
79 291 2
79 295 1
79 302 1
79 315 2
79 317 1
79 326 1
79 335 2
79 339 3
79 346 1
80 1 1
80 6 1
80 8 1
80 10 2
80 21 1
80 32 2
80 45 2
80 54 1
80 61 1
80 63 1
80 65 2
80 76 1
80 270 2
80 274 3
80 281 1
80 292 2
80 296 1
80 303 1
80 316 2
80 318 1
80 327 1
80 336 2
80 340 3
80 347 1
81 2 1
81 7 1
81 9 1
81 11 2
81 22 1
81 33 2
81 46 2
81 55 1
81 62 1
81 64 1
81 66 2
81 77 1
81 271 2
81 275 3
81 282 1
81 293 2
81 297 1
81 304 1
81 317 2
81 319 1
81 328 1
81 337 2
81 341 3
81 348 1
82 3 1
82 8 1
82 10 1
82 12 2
82 23 1
82 34 2
82 47 2
82 56 1
82 63 1
82 65 1
82 67 2
82 78 1
82 272 2
82 276 3
82 283 1
82 294 2
82 298 1
82 305 1
82 318 2
82 320 1
82 329 1
82 338 2
82 342 3
82 349 1
83 4 1
83 9 1
83 11 1
83 13 2
83 24 1
83 35 2
83 48 2
83 57 1
83 64 1
83 66 1
83 68 2
83 79 1
83 273 2
83 277 3
83 284 1
83 295 2
83 299 1
83 306 1
83 319 2
83 321 1
83 330 1
83 339 2
83 343 3
83 350 1
84 5 1
84 10 1
84 12 1
84 14 2
84 25 1
84 36 2
84 49 2
84 58 1
84 65 1
84 67 1
84 69 2
84 80 1
84 274 2
84 278 3
84 285 1
84 296 2
84 300 1
84 307 1
84 320 2
84 322 1
84 331 1
84 340 2
84 344 3
84 351 1
85 6 1
85 11 1
85 13 1
85 15 2
85 26 1
85 37 2
85 50 2
85 59 1
85 66 1
85 68 1
85 70 2
85 81 1
85 275 2
85 279 3
85 286 1
85 297 2
85 301 1
85 308 1
85 321 2
85 323 1
85 332 1
85 341 2
85 345 3
85 352 1
86 7 1
86 12 1
86 14 1
86 16 2
86 27 1
86 38 2
86 51 2
86 60 1
86 67 1
86 69 1
86 71 2
86 82 1
86 265 1
86 276 2
86 280 3
86 287 1
86 298 2
86 302 1
86 309 1
86 322 2
86 324 1
86 333 1
86 342 2
86 346 3
87 8 1
87 13 1
87 15 1
87 17 2
87 28 1
87 39 2
87 52 2
87 61 1
87 68 1
87 70 1
87 72 2
87 83 1
87 266 1
87 277 2
87 281 3
87 288 1
87 299 2
87 303 1
87 310 1
87 323 2
87 325 1
87 334 1
87 343 2
87 347 3
88 9 1
88 14 1
88 16 1
88 18 2
88 29 1
88 40 2
88 53 2
88 62 1
88 69 1
88 71 1
88 73 2
88 84 1
88 267 1
88 278 2
88 282 3
88 289 1
88 300 2
88 304 1
88 311 1
88 324 2
88 326 1
88 335 1
88 344 2
88 348 3
