%%MatrixMarket matrix coordinate integer general
% Binary matrix over GF(2).
% Coordinate indices are 1-based; omitted entries are zero.
240 640 2040
1 2 1
1 81 1
1 161 1
1 241 1
1 321 1
1 401 1
1 481 1
1 561 1
2 1 1
2 2 1
2 82 1
2 162 1
2 242 1
2 322 1
2 402 1
2 482 1
2 562 1
3 4 1
3 83 1
3 163 1
3 243 1
3 323 1
3 403 1
3 483 1
3 563 1
4 3 1
4 4 1
4 84 1
4 164 1
4 244 1
4 324 1
4 404 1
4 484 1
4 564 1
5 6 1
5 85 1
5 165 1
5 245 1
5 325 1
5 405 1
5 485 1
5 565 1
6 5 1
6 6 1
6 86 1
6 166 1
6 246 1
6 326 1
6 406 1
6 486 1
6 566 1
7 8 1
7 87 1
7 167 1
7 247 1
7 327 1
7 407 1
7 487 1
7 567 1
8 7 1
8 8 1
8 88 1
8 168 1
8 248 1
8 328 1
8 408 1
8 488 1
8 568 1
9 10 1
9 89 1
9 169 1
9 249 1
9 329 1
9 409 1
9 489 1
9 569 1
10 9 1
10 10 1
10 90 1
10 170 1
10 250 1
10 330 1
10 410 1
10 490 1
10 570 1
11 12 1
11 91 1
11 171 1
11 251 1
11 331 1
11 411 1
11 491 1
11 571 1
12 11 1
12 12 1
12 92 1
12 172 1
12 252 1
12 332 1
12 412 1
12 492 1
12 572 1
13 14 1
13 93 1
13 173 1
13 253 1
13 333 1
13 413 1
13 493 1
13 573 1
14 13 1
14 14 1
14 94 1
14 174 1
14 254 1
14 334 1
14 414 1
14 494 1
14 574 1
15 16 1
15 95 1
15 175 1
15 255 1
15 335 1
15 415 1
15 495 1
15 575 1
16 15 1
16 16 1
16 96 1
16 176 1
16 256 1
16 336 1
16 416 1
16 496 1
16 576 1
17 18 1
17 97 1
17 177 1
17 257 1
17 337 1
17 417 1
17 497 1
17 577 1
18 17 1
18 18 1
18 98 1
18 178 1
18 258 1
18 338 1
18 418 1
18 498 1
18 578 1
19 20 1
19 99 1
19 179 1
19 259 1
19 339 1
19 419 1
19 499 1
19 579 1
20 19 1
20 20 1
20 100 1
20 180 1
20 260 1
20 340 1
20 420 1
20 500 1
20 580 1
21 22 1
21 101 1
21 181 1
21 261 1
21 341 1
21 421 1
21 501 1
21 581 1
22 21 1
22 22 1
22 102 1
22 182 1
22 262 1
22 342 1
22 422 1
22 502 1
22 582 1
23 24 1
23 103 1
23 183 1
23 263 1
23 343 1
23 423 1
23 503 1
23 583 1
24 23 1
24 24 1
24 104 1
24 184 1
24 264 1
24 344 1
24 424 1
24 504 1
24 584 1
25 26 1
25 105 1
25 185 1
25 265 1
25 345 1
25 425 1
25 505 1
25 585 1
26 25 1
26 26 1
26 106 1
26 186 1
26 266 1
26 346 1
26 426 1
26 506 1
26 586 1
27 28 1
27 107 1
27 187 1
27 267 1
27 347 1
27 427 1
27 507 1
27 587 1
28 27 1
28 28 1
28 108 1
28 188 1
28 268 1
28 348 1
28 428 1
28 508 1
28 588 1
29 30 1
29 109 1
29 189 1
29 269 1
29 349 1
29 429 1
29 509 1
29 589 1
30 29 1
30 30 1
30 110 1
30 190 1
30 270 1
30 350 1
30 430 1
30 510 1
30 590 1
31 32 1
31 111 1
31 191 1
31 271 1
31 351 1
31 431 1
31 511 1
31 591 1
32 31 1
32 32 1
32 112 1
32 192 1
32 272 1
32 352 1
32 432 1
32 512 1
32 592 1
33 34 1
33 113 1
33 193 1
33 273 1
33 353 1
33 433 1
33 513 1
33 593 1
34 33 1
34 34 1
34 114 1
34 194 1
34 274 1
34 354 1
34 434 1
34 514 1
34 594 1
35 36 1
35 115 1
35 195 1
35 275 1
35 355 1
35 435 1
35 515 1
35 595 1
36 35 1
36 36 1
36 116 1
36 196 1
36 276 1
36 356 1
36 436 1
36 516 1
36 596 1
37 38 1
37 117 1
37 197 1
37 277 1
37 357 1
37 437 1
37 517 1
37 597 1
38 37 1
38 38 1
38 118 1
38 198 1
38 278 1
38 358 1
38 438 1
38 518 1
38 598 1
39 40 1
39 119 1
39 199 1
39 279 1
39 359 1
39 439 1
39 519 1
39 599 1
40 39 1
40 40 1
40 120 1
40 200 1
40 280 1
40 360 1
40 440 1
40 520 1
40 600 1
41 42 1
41 121 1
41 201 1
41 281 1
41 361 1
41 441 1
41 521 1
41 601 1
42 41 1
42 42 1
42 122 1
42 202 1
42 282 1
42 362 1
42 442 1
42 522 1
42 602 1
43 44 1
43 123 1
43 203 1
43 283 1
43 363 1
43 443 1
43 523 1
43 603 1
44 43 1
44 44 1
44 124 1
44 204 1
44 284 1
44 364 1
44 444 1
44 524 1
44 604 1
45 46 1
45 125 1
45 205 1
45 285 1
45 365 1
45 445 1
45 525 1
45 605 1
46 45 1
46 46 1
46 126 1
46 206 1
46 286 1
46 366 1
46 446 1
46 526 1
46 606 1
47 48 1
47 127 1
47 207 1
47 287 1
47 367 1
47 447 1
47 527 1
47 607 1
48 47 1
48 48 1
48 128 1
48 208 1
48 288 1
48 368 1
48 448 1
48 528 1
48 608 1
49 50 1
49 129 1
49 209 1
49 289 1
49 369 1
49 449 1
49 529 1
49 609 1
50 49 1
50 50 1
50 130 1
50 210 1
50 290 1
50 370 1
50 450 1
50 530 1
50 610 1
51 52 1
51 131 1
51 211 1
51 291 1
51 371 1
51 451 1
51 531 1
51 611 1
52 51 1
52 52 1
52 132 1
52 212 1
52 292 1
52 372 1
52 452 1
52 532 1
52 612 1
53 54 1
53 133 1
53 213 1
53 293 1
53 373 1
53 453 1
53 533 1
53 613 1
54 53 1
54 54 1
54 134 1
54 214 1
54 294 1
54 374 1
54 454 1
54 534 1
54 614 1
55 56 1
55 135 1
55 215 1
55 295 1
55 375 1
55 455 1
55 535 1
55 615 1
56 55 1
56 56 1
56 136 1
56 216 1
56 296 1
56 376 1
56 456 1
56 536 1
56 616 1
57 58 1
57 137 1
57 217 1
57 297 1
57 377 1
57 457 1
57 537 1
57 617 1
58 57 1
58 58 1
58 138 1
58 218 1
58 298 1
58 378 1
58 458 1
58 538 1
58 618 1
59 60 1
59 139 1
59 219 1
59 299 1
59 379 1
59 459 1
59 539 1
59 619 1
60 59 1
60 60 1
60 140 1
60 220 1
60 300 1
60 380 1
60 460 1
60 540 1
60 620 1
61 62 1
61 141 1
61 221 1
61 301 1
61 381 1
61 461 1
61 541 1
61 621 1
62 61 1
62 62 1
62 142 1
62 222 1
62 302 1
62 382 1
62 462 1
62 542 1
62 622 1
63 64 1
63 143 1
63 223 1
63 303 1
63 383 1
63 463 1
63 543 1
63 623 1
64 63 1
64 64 1
64 144 1
64 224 1
64 304 1
64 384 1
64 464 1
64 544 1
64 624 1
65 66 1
65 145 1
65 225 1
65 305 1
65 385 1
65 465 1
65 545 1
65 625 1
66 65 1
66 66 1
66 146 1
66 226 1
66 306 1
66 386 1
66 466 1
66 546 1
66 626 1
67 68 1
67 147 1
67 227 1
67 307 1
67 387 1
67 467 1
67 547 1
67 627 1
68 67 1
68 68 1
68 148 1
68 228 1
68 308 1
68 388 1
68 468 1
68 548 1
68 628 1
69 70 1
69 149 1
69 229 1
69 309 1
69 389 1
69 469 1
69 549 1
69 629 1
70 69 1
70 70 1
70 150 1
70 230 1
70 310 1
70 390 1
70 470 1
70 550 1
70 630 1
71 72 1
71 151 1
71 231 1
71 311 1
71 391 1
71 471 1
71 551 1
71 631 1
72 71 1
72 72 1
72 152 1
72 232 1
72 312 1
72 392 1
72 472 1
72 552 1
72 632 1
73 74 1
73 153 1
73 233 1
73 313 1
73 393 1
73 473 1
73 553 1
73 633 1
74 73 1
74 74 1
74 154 1
74 234 1
74 314 1
74 394 1
74 474 1
74 554 1
74 634 1
75 76 1
75 155 1
75 235 1
75 315 1
75 395 1
75 475 1
75 555 1
75 635 1
76 75 1
76 76 1
76 156 1
76 236 1
76 316 1
76 396 1
76 476 1
76 556 1
76 636 1
77 78 1
77 157 1
77 237 1
77 317 1
77 397 1
77 477 1
77 557 1
77 637 1
78 77 1
78 78 1
78 158 1
78 238 1
78 318 1
78 398 1
78 478 1
78 558 1
78 638 1
79 80 1
79 159 1
79 239 1
79 319 1
79 399 1
79 479 1
79 559 1
79 639 1
80 79 1
80 80 1
80 160 1
80 240 1
80 320 1
80 400 1
80 480 1
80 560 1
80 640 1
81 1 1
81 122 1
81 239 1
81 279 1
81 389 1
81 425 1
81 529 1
81 621 1
82 2 1
82 121 1
82 122 1
82 240 1
82 280 1
82 390 1
82 426 1
82 530 1
82 622 1
83 3 1
83 124 1
83 161 1
83 281 1
83 391 1
83 427 1
83 531 1
83 623 1
84 4 1
84 123 1
84 124 1
84 162 1
84 282 1
84 392 1
84 428 1
84 532 1
84 624 1
85 5 1
85 126 1
85 163 1
85 283 1
85 393 1
85 429 1
85 533 1
85 625 1
86 6 1
86 125 1
86 126 1
86 164 1
86 284 1
86 394 1
86 430 1
86 534 1
86 626 1
87 7 1
87 128 1
87 165 1
87 285 1
87 395 1
87 431 1
87 535 1
87 627 1
88 8 1
88 127 1
88 128 1
88 166 1
88 286 1
88 396 1
88 432 1
88 536 1
88 628 1
89 9 1
89 130 1
89 167 1
89 287 1
89 397 1
89 433 1
89 537 1
89 629 1
90 10 1
90 129 1
90 130 1
90 168 1
90 288 1
90 398 1
90 434 1
90 538 1
90 630 1
91 11 1
91 132 1
91 169 1
91 289 1
91 399 1
91 435 1
91 539 1
91 631 1
92 12 1
92 131 1
92 132 1
92 170 1
92 290 1
92 400 1
92 436 1
92 540 1
92 632 1
93 13 1
93 134 1
93 171 1
93 291 1
93 321 1
93 437 1
93 541 1
93 633 1
94 14 1
94 133 1
94 134 1
94 172 1
94 292 1
94 322 1
94 438 1
94 542 1
94 634 1
95 15 1
95 136 1
95 173 1
95 293 1
95 323 1
95 439 1
95 543 1
95 635 1
96 16 1
96 135 1
96 136 1
96 174 1
96 294 1
96 324 1
96 440 1
96 544 1
96 636 1
97 17 1
97 138 1
97 175 1
97 295 1
97 325 1
97 441 1
97 545 1
97 637 1
98 18 1
98 137 1
98 138 1
98 176 1
98 296 1
98 326 1
98 442 1
98 546 1
98 638 1
99 19 1
99 140 1
99 177 1
99 297 1
99 327 1
99 443 1
99 547 1
99 639 1
100 20 1
100 139 1
100 140 1
100 178 1
100 298 1
100 328 1
100 444 1
100 548 1
100 640 1
101 21 1
101 142 1
101 179 1
101 299 1
101 329 1
101 445 1
101 549 1
101 561 1
102 22 1
102 141 1
102 142 1
102 180 1
102 300 1
102 330 1
102 446 1
102 550 1
102 562 1
103 23 1
103 144 1
103 181 1
103 301 1
103 331 1
103 447 1
103 551 1
103 563 1
104 24 1
104 143 1
104 144 1
104 182 1
104 302 1
104 332 1
104 448 1
104 552 1
104 564 1
105 25 1
105 146 1
105 183 1
105 303 1
105 333 1
105 449 1
105 553 1
105 565 1
106 26 1
106 145 1
106 146 1
106 184 1
106 304 1
106 334 1
106 450 1
106 554 1
106 566 1
107 27 1
107 148 1
107 185 1
107 305 1
107 335 1
107 451 1
107 555 1
107 567 1
108 28 1
108 147 1
108 148 1
108 186 1
108 306 1
108 336 1
108 452 1
108 556 1
108 568 1
109 29 1
109 150 1
109 187 1
109 307 1
109 337 1
109 453 1
109 557 1
109 569 1
110 30 1
110 149 1
110 150 1
110 188 1
110 308 1
110 338 1
110 454 1
110 558 1
110 570 1
111 31 1
111 152 1
111 189 1
111 309 1
111 339 1
111 455 1
111 559 1
111 571 1
112 32 1
112 151 1
112 152 1
112 190 1
112 310 1
112 340 1
112 456 1
112 560 1
112 572 1
113 33 1
113 154 1
113 191 1
113 311 1
113 341 1
113 457 1
113 481 1
113 573 1
114 34 1
114 153 1
114 154 1
114 192 1
114 312 1
114 342 1
114 458 1
114 482 1
114 574 1
115 35 1
115 156 1
115 193 1
115 313 1
115 343 1
115 459 1
115 483 1
115 575 1
116 36 1
116 155 1
116 156 1
116 194 1
116 314 1
116 344 1
116 460 1
116 484 1
116 576 1
117 37 1
117 158 1
117 195 1
117 315 1
117 345 1
117 461 1
117 485 1
117 577 1
118 38 1
118 157 1
118 158 1
118 196 1
118 316 1
118 346 1
118 462 1
118 486 1
118 578 1
119 39 1
119 160 1
119 197 1
119 317 1
119 347 1
119 463 1
119 487 1
119 579 1
120 40 1
120 159 1
120 160 1
120 198 1
120 318 1
120 348 1
120 464 1
120 488 1
120 580 1
121 41 1
121 82 1
121 199 1
121 319 1
121 349 1
121 465 1
121 489 1
121 581 1
122 42 1
122 81 1
122 82 1
122 200 1
122 320 1
122 350 1
122 466 1
122 490 1
122 582 1
123 43 1
123 84 1
123 201 1
123 241 1
123 351 1
123 467 1
123 491 1
123 583 1
124 44 1
124 83 1
124 84 1
124 202 1
124 242 1
124 352 1
124 468 1
124 492 1
124 584 1
125 45 1
125 86 1
125 203 1
125 243 1
125 353 1
125 469 1
125 493 1
125 585 1
126 46 1
126 85 1
126 86 1
126 204 1
126 244 1
126 354 1
126 470 1
126 494 1
126 586 1
127 47 1
127 88 1
127 205 1
127 245 1
127 355 1
127 471 1
127 495 1
127 587 1
128 48 1
128 87 1
128 88 1
128 206 1
128 246 1
128 356 1
128 472 1
128 496 1
128 588 1
129 49 1
129 90 1
129 207 1
129 247 1
129 357 1
129 473 1
129 497 1
129 589 1
130 50 1
130 89 1
130 90 1
130 208 1
130 248 1
130 358 1
130 474 1
130 498 1
130 590 1
131 51 1
131 92 1
131 209 1
131 249 1
131 359 1
131 475 1
131 499 1
131 591 1
132 52 1
132 91 1
132 92 1
132 210 1
132 250 1
132 360 1
132 476 1
132 500 1
132 592 1
133 53 1
133 94 1
133 211 1
133 251 1
133 361 1
133 477 1
133 501 1
133 593 1
134 54 1
134 93 1
134 94 1
134 212 1
134 252 1
134 362 1
134 478 1
134 502 1
134 594 1
135 55 1
135 96 1
135 213 1
135 253 1
135 363 1
135 479 1
135 503 1
135 595 1
136 56 1
136 95 1
136 96 1
136 214 1
136 254 1
136 364 1
136 480 1
136 504 1
136 596 1
137 57 1
137 98 1
137 215 1
137 255 1
137 365 1
137 401 1
137 505 1
137 597 1
138 58 1
138 97 1
138 98 1
138 216 1
138 256 1
138 366 1
138 402 1
138 506 1
138 598 1
139 59 1
139 100 1
139 217 1
139 257 1
139 367 1
139 403 1
139 507 1
139 599 1
140 60 1
140 99 1
140 100 1
140 218 1
140 258 1
140 368 1
140 404 1
140 508 1
140 600 1
141 61 1
141 102 1
141 219 1
141 259 1
141 369 1
141 405 1
141 509 1
141 601 1
142 62 1
142 101 1
142 102 1
142 220 1
142 260 1
142 370 1
142 406 1
142 510 1
142 602 1
143 63 1
143 104 1
143 221 1
143 261 1
143 371 1
143 407 1
143 511 1
143 603 1
144 64 1
144 103 1
144 104 1
144 222 1
144 262 1
144 372 1
144 408 1
144 512 1
144 604 1
145 65 1
145 106 1
145 223 1
145 263 1
145 373 1
145 409 1
145 513 1
145 605 1
146 66 1
146 105 1
146 106 1
146 224 1
146 264 1
146 374 1
146 410 1
146 514 1
146 606 1
147 67 1
147 108 1
147 225 1
147 265 1
147 375 1
147 411 1
147 515 1
147 607 1
148 68 1
148 107 1
148 108 1
148 226 1
148 266 1
148 376 1
148 412 1
148 516 1
148 608 1
149 69 1
149 110 1
149 227 1
149 267 1
149 377 1
149 413 1
149 517 1
149 609 1
150 70 1
150 109 1
150 110 1
150 228 1
150 268 1
150 378 1
150 414 1
150 518 1
150 610 1
151 71 1
151 112 1
151 229 1
151 269 1
151 379 1
151 415 1
151 519 1
151 611 1
152 72 1
152 111 1
152 112 1
152 230 1
152 270 1
152 380 1
152 416 1
152 520 1
152 612 1
153 73 1
153 114 1
153 231 1
153 271 1
153 381 1
153 417 1
153 521 1
153 613 1
154 74 1
154 113 1
154 114 1
154 232 1
154 272 1
154 382 1
154 418 1
154 522 1
154 614 1
155 75 1
155 116 1
155 233 1
155 273 1
155 383 1
155 419 1
155 523 1
155 615 1
156 76 1
156 115 1
156 116 1
156 234 1
156 274 1
156 384 1
156 420 1
156 524 1
156 616 1
157 77 1
157 118 1
157 235 1
157 275 1
157 385 1
157 421 1
157 525 1
157 617 1
158 78 1
158 117 1
158 118 1
158 236 1
158 276 1
158 386 1
158 422 1
158 526 1
158 618 1
159 79 1
159 120 1
159 237 1
159 277 1
159 387 1
159 423 1
159 527 1
159 619 1
160 80 1
160 119 1
160 120 1
160 238 1
160 278 1
160 388 1
160 424 1
160 528 1
160 620 1
161 1 1
161 101 1
161 202 1
161 253 1
161 337 1
161 473 1
161 515 1
161 635 1
162 2 1
162 102 1
162 201 1
162 202 1
162 254 1
162 338 1
162 474 1
162 516 1
162 636 1
163 3 1
163 103 1
163 204 1
163 255 1
163 339 1
163 475 1
163 517 1
163 637 1
164 4 1
164 104 1
164 203 1
164 204 1
164 256 1
164 340 1
164 476 1
164 518 1
164 638 1
165 5 1
165 105 1
165 206 1
165 257 1
165 341 1
165 477 1
165 519 1
165 639 1
166 6 1
166 106 1
166 205 1
166 206 1
166 258 1
166 342 1
166 478 1
166 520 1
166 640 1
167 7 1
167 107 1
167 208 1
167 259 1
167 343 1
167 479 1
167 521 1
167 561 1
168 8 1
168 108 1
168 207 1
168 208 1
168 260 1
168 344 1
168 480 1
168 522 1
168 562 1
169 9 1
169 109 1
169 210 1
169 261 1
169 345 1
169 401 1
169 523 1
169 563 1
170 10 1
170 110 1
170 209 1
170 210 1
170 262 1
170 346 1
170 402 1
170 524 1
170 564 1
171 11 1
171 111 1
171 212 1
171 263 1
171 347 1
171 403 1
171 525 1
171 565 1
172 12 1
172 112 1
172 211 1
172 212 1
172 264 1
172 348 1
172 404 1
172 526 1
172 566 1
173 13 1
173 113 1
173 214 1
173 265 1
173 349 1
173 405 1
173 527 1
173 567 1
174 14 1
174 114 1
174 213 1
174 214 1
174 266 1
174 350 1
174 406 1
174 528 1
174 568 1
175 15 1
175 115 1
175 216 1
175 267 1
175 351 1
175 407 1
175 529 1
175 569 1
176 16 1
176 116 1
176 215 1
176 216 1
176 268 1
176 352 1
176 408 1
176 530 1
176 570 1
177 17 1
177 117 1
177 218 1
177 269 1
177 353 1
177 409 1
177 531 1
177 571 1
178 18 1
178 118 1
178 217 1
178 218 1
178 270 1
178 354 1
178 410 1
178 532 1
178 572 1
179 19 1
179 119 1
179 220 1
179 271 1
179 355 1
179 411 1
179 533 1
179 573 1
180 20 1
180 120 1
180 219 1
180 220 1
180 272 1
180 356 1
180 412 1
180 534 1
180 574 1
181 21 1
181 121 1
181 222 1
181 273 1
181 357 1
181 413 1
181 535 1
181 575 1
182 22 1
182 122 1
182 221 1
182 222 1
182 274 1
182 358 1
182 414 1
182 536 1
182 576 1
183 23 1
183 123 1
183 224 1
183 275 1
183 359 1
183 415 1
183 537 1
183 577 1
184 24 1
184 124 1
184 223 1
184 224 1
184 276 1
184 360 1
184 416 1
184 538 1
184 578 1
185 25 1
185 125 1
185 226 1
185 277 1
185 361 1
185 417 1
185 539 1
185 579 1
186 26 1
186 126 1
186 225 1
186 226 1
186 278 1
186 362 1
186 418 1
186 540 1
186 580 1
187 27 1
187 127 1
187 228 1
187 279 1
187 363 1
187 419 1
187 541 1
187 581 1
188 28 1
188 128 1
188 227 1
188 228 1
188 280 1
188 364 1
188 420 1
188 542 1
188 582 1
189 29 1
189 129 1
189 230 1
189 281 1
189 365 1
189 421 1
189 543 1
189 583 1
190 30 1
190 130 1
190 229 1
190 230 1
190 282 1
190 366 1
190 422 1
190 544 1
190 584 1
191 31 1
191 131 1
191 232 1
191 283 1
191 367 1
191 423 1
191 545 1
191 585 1
192 32 1
192 132 1
192 231 1
192 232 1
192 284 1
192 368 1
192 424 1
192 546 1
192 586 1
193 33 1
193 133 1
193 234 1
193 285 1
193 369 1
193 425 1
193 547 1
193 587 1
194 34 1
194 134 1
194 233 1
194 234 1
194 286 1
194 370 1
194 426 1
194 548 1
194 588 1
195 35 1
195 135 1
195 236 1
195 287 1
195 371 1
195 427 1
195 549 1
195 589 1
196 36 1
196 136 1
196 235 1
196 236 1
196 288 1
196 372 1
196 428 1
196 550 1
196 590 1
197 37 1
197 137 1
197 238 1
197 289 1
197 373 1
197 429 1
197 551 1
197 591 1
198 38 1
198 138 1
198 237 1
198 238 1
198 290 1
198 374 1
198 430 1
198 552 1
198 592 1
199 39 1
199 139 1
199 240 1
199 291 1
199 375 1
199 431 1
199 553 1
199 593 1
200 40 1
200 140 1
200 239 1
200 240 1
200 292 1
200 376 1
200 432 1
200 554 1
200 594 1
201 41 1
201 141 1
201 162 1
201 293 1
201 377 1
201 433 1
201 555 1
201 595 1
202 42 1
202 142 1
202 161 1
202 162 1
202 294 1
202 378 1
202 434 1
202 556 1
202 596 1
203 43 1
203 143 1
203 164 1
203 295 1
203 379 1
203 435 1
203 557 1
203 597 1
204 44 1
204 144 1
204 163 1
204 164 1
204 296 1
204 380 1
204 436 1
204 558 1
204 598 1
205 45 1
205 145 1
205 166 1
205 297 1
205 381 1
205 437 1
205 559 1
205 599 1
206 46 1
206 146 1
206 165 1
206 166 1
206 298 1
206 382 1
206 438 1
206 560 1
206 600 1
207 47 1
207 147 1
207 168 1
207 299 1
207 383 1
207 439 1
207 481 1
207 601 1
208 48 1
208 148 1
208 167 1
208 168 1
208 300 1
208 384 1
208 440 1
208 482 1
208 602 1
209 49 1
209 149 1
209 170 1
209 301 1
209 385 1
209 441 1
209 483 1
209 603 1
210 50 1
210 150 1
210 169 1
210 170 1
210 302 1
210 386 1
210 442 1
210 484 1
210 604 1
211 51 1
211 151 1
211 172 1
211 303 1
211 387 1
211 443 1
211 485 1
211 605 1
212 52 1
212 152 1
212 171 1
212 172 1
212 304 1
212 388 1
212 444 1
212 486 1
212 606 1
213 53 1
213 153 1
213 174 1
213 305 1
213 389 1
213 445 1
213 487 1
213 607 1
214 54 1
214 154 1
214 173 1
214 174 1
214 306 1
214 390 1
214 446 1
214 488 1
214 608 1
215 55 1
215 155 1
215 176 1
215 307 1
215 391 1
215 447 1
215 489 1
215 609 1
216 56 1
216 156 1
216 175 1
216 176 1
216 308 1
216 392 1
216 448 1
216 490 1
216 610 1
217 57 1
217 157 1
217 178 1
217 309 1
217 393 1
217 449 1
217 491 1
217 611 1
218 58 1
218 158 1
218 177 1
218 178 1
218 310 1
218 394 1
218 450 1
218 492 1
218 612 1
219 59 1
219 159 1
219 180 1
219 311 1
219 395 1
219 451 1
219 493 1
219 613 1
220 60 1
220 160 1
220 179 1
220 180 1
220 312 1
220 396 1
220 452 1
220 494 1
220 614 1
221 61 1
221 81 1
221 182 1
221 313 1
221 397 1
221 453 1
221 495 1
221 615 1
222 62 1
222 82 1
222 181 1
222 182 1
222 314 1
222 398 1
222 454 1
222 496 1
222 616 1
223 63 1
223 83 1
223 184 1
223 315 1
223 399 1
223 455 1
223 497 1
223 617 1
224 64 1
224 84 1
224 183 1
224 184 1
224 316 1
224 400 1
224 456 1
224 498 1
224 618 1
225 65 1
225 85 1
225 186 1
225 317 1
225 321 1
225 457 1
225 499 1
225 619 1
226 66 1
226 86 1
226 185 1
226 186 1
226 318 1
226 322 1
226 458 1
226 500 1
226 620 1
227 67 1
227 87 1
227 188 1
227 319 1
227 323 1
227 459 1
227 501 1
227 621 1
228 68 1
228 88 1
228 187 1
228 188 1
228 320 1
228 324 1
228 460 1
228 502 1
228 622 1
229 69 1
229 89 1
229 190 1
229 241 1
229 325 1
229 461 1
229 503 1
229 623 1
230 70 1
230 90 1
230 189 1
230 190 1
230 242 1
230 326 1
230 462 1
230 504 1
230 624 1
231 71 1
231 91 1
231 192 1
231 243 1
231 327 1
231 463 1
231 505 1
231 625 1
232 72 1
232 92 1
232 191 1
232 192 1
232 244 1
232 328 1
232 464 1
232 506 1
232 626 1
233 73 1
233 93 1
233 194 1
233 245 1
233 329 1
233 465 1
233 507 1
233 627 1
234 74 1
234 94 1
234 193 1
234 194 1
234 246 1
234 330 1
234 466 1
234 508 1
234 628 1
235 75 1
235 95 1
235 196 1
235 247 1
235 331 1
235 467 1
235 509 1
235 629 1
236 76 1
236 96 1
236 195 1
236 196 1
236 248 1
236 332 1
236 468 1
236 510 1
236 630 1
237 77 1
237 97 1
237 198 1
237 249 1
237 333 1
237 469 1
237 511 1
237 631 1
238 78 1
238 98 1
238 197 1
238 198 1
238 250 1
238 334 1
238 470 1
238 512 1
238 632 1
239 79 1
239 99 1
239 200 1
239 251 1
239 335 1
239 471 1
239 513 1
239 633 1
240 80 1
240 100 1
240 199 1
240 200 1
240 252 1
240 336 1
240 472 1
240 514 1
240 634 1
