%%MatrixMarket matrix coordinate integer general
% GF(4) labels 0,1,2=omega,3=omega+1; arithmetic is NOT integer arithmetic.
% Coordinate indices are 1-based; omitted entries are zero.
120 320 960
1 1 2
1 41 1
1 81 1
1 121 1
1 161 1
1 201 1
1 241 1
1 281 1
2 2 2
2 42 1
2 82 1
2 122 1
2 162 1
2 202 1
2 242 1
2 282 1
3 3 2
3 43 1
3 83 1
3 123 1
3 163 1
3 203 1
3 243 1
3 283 1
4 4 2
4 44 1
4 84 1
4 124 1
4 164 1
4 204 1
4 244 1
4 284 1
5 5 2
5 45 1
5 85 1
5 125 1
5 165 1
5 205 1
5 245 1
5 285 1
6 6 2
6 46 1
6 86 1
6 126 1
6 166 1
6 206 1
6 246 1
6 286 1
7 7 2
7 47 1
7 87 1
7 127 1
7 167 1
7 207 1
7 247 1
7 287 1
8 8 2
8 48 1
8 88 1
8 128 1
8 168 1
8 208 1
8 248 1
8 288 1
9 9 2
9 49 1
9 89 1
9 129 1
9 169 1
9 209 1
9 249 1
9 289 1
10 10 2
10 50 1
10 90 1
10 130 1
10 170 1
10 210 1
10 250 1
10 290 1
11 11 2
11 51 1
11 91 1
11 131 1
11 171 1
11 211 1
11 251 1
11 291 1
12 12 2
12 52 1
12 92 1
12 132 1
12 172 1
12 212 1
12 252 1
12 292 1
13 13 2
13 53 1
13 93 1
13 133 1
13 173 1
13 213 1
13 253 1
13 293 1
14 14 2
14 54 1
14 94 1
14 134 1
14 174 1
14 214 1
14 254 1
14 294 1
15 15 2
15 55 1
15 95 1
15 135 1
15 175 1
15 215 1
15 255 1
15 295 1
16 16 2
16 56 1
16 96 1
16 136 1
16 176 1
16 216 1
16 256 1
16 296 1
17 17 2
17 57 1
17 97 1
17 137 1
17 177 1
17 217 1
17 257 1
17 297 1
18 18 2
18 58 1
18 98 1
18 138 1
18 178 1
18 218 1
18 258 1
18 298 1
19 19 2
19 59 1
19 99 1
19 139 1
19 179 1
19 219 1
19 259 1
19 299 1
20 20 2
20 60 1
20 100 1
20 140 1
20 180 1
20 220 1
20 260 1
20 300 1
21 21 2
21 61 1
21 101 1
21 141 1
21 181 1
21 221 1
21 261 1
21 301 1
22 22 2
22 62 1
22 102 1
22 142 1
22 182 1
22 222 1
22 262 1
22 302 1
23 23 2
23 63 1
23 103 1
23 143 1
23 183 1
23 223 1
23 263 1
23 303 1
24 24 2
24 64 1
24 104 1
24 144 1
24 184 1
24 224 1
24 264 1
24 304 1
25 25 2
25 65 1
25 105 1
25 145 1
25 185 1
25 225 1
25 265 1
25 305 1
26 26 2
26 66 1
26 106 1
26 146 1
26 186 1
26 226 1
26 266 1
26 306 1
27 27 2
27 67 1
27 107 1
27 147 1
27 187 1
27 227 1
27 267 1
27 307 1
28 28 2
28 68 1
28 108 1
28 148 1
28 188 1
28 228 1
28 268 1
28 308 1
29 29 2
29 69 1
29 109 1
29 149 1
29 189 1
29 229 1
29 269 1
29 309 1
30 30 2
30 70 1
30 110 1
30 150 1
30 190 1
30 230 1
30 270 1
30 310 1
31 31 2
31 71 1
31 111 1
31 151 1
31 191 1
31 231 1
31 271 1
31 311 1
32 32 2
32 72 1
32 112 1
32 152 1
32 192 1
32 232 1
32 272 1
32 312 1
33 33 2
33 73 1
33 113 1
33 153 1
33 193 1
33 233 1
33 273 1
33 313 1
34 34 2
34 74 1
34 114 1
34 154 1
34 194 1
34 234 1
34 274 1
34 314 1
35 35 2
35 75 1
35 115 1
35 155 1
35 195 1
35 235 1
35 275 1
35 315 1
36 36 2
36 76 1
36 116 1
36 156 1
36 196 1
36 236 1
36 276 1
36 316 1
37 37 2
37 77 1
37 117 1
37 157 1
37 197 1
37 237 1
37 277 1
37 317 1
38 38 2
38 78 1
38 118 1
38 158 1
38 198 1
38 238 1
38 278 1
38 318 1
39 39 2
39 79 1
39 119 1
39 159 1
39 199 1
39 239 1
39 279 1
39 319 1
40 40 2
40 80 1
40 120 1
40 160 1
40 200 1
40 240 1
40 280 1
40 320 1
41 1 1
41 61 2
41 120 1
41 140 1
41 195 1
41 213 1
41 265 1
41 311 1
42 2 1
42 62 2
42 81 1
42 141 1
42 196 1
42 214 1
42 266 1
42 312 1
43 3 1
43 63 2
43 82 1
43 142 1
43 197 1
43 215 1
43 267 1
43 313 1
44 4 1
44 64 2
44 83 1
44 143 1
44 198 1
44 216 1
44 268 1
44 314 1
45 5 1
45 65 2
45 84 1
45 144 1
45 199 1
45 217 1
45 269 1
45 315 1
46 6 1
46 66 2
46 85 1
46 145 1
46 200 1
46 218 1
46 270 1
46 316 1
47 7 1
47 67 2
47 86 1
47 146 1
47 161 1
47 219 1
47 271 1
47 317 1
48 8 1
48 68 2
48 87 1
48 147 1
48 162 1
48 220 1
48 272 1
48 318 1
49 9 1
49 69 2
49 88 1
49 148 1
49 163 1
49 221 1
49 273 1
49 319 1
50 10 1
50 70 2
50 89 1
50 149 1
50 164 1
50 222 1
50 274 1
50 320 1
51 11 1
51 71 2
51 90 1
51 150 1
51 165 1
51 223 1
51 275 1
51 281 1
52 12 1
52 72 2
52 91 1
52 151 1
52 166 1
52 224 1
52 276 1
52 282 1
53 13 1
53 73 2
53 92 1
53 152 1
53 167 1
53 225 1
53 277 1
53 283 1
54 14 1
54 74 2
54 93 1
54 153 1
54 168 1
54 226 1
54 278 1
54 284 1
55 15 1
55 75 2
55 94 1
55 154 1
55 169 1
55 227 1
55 279 1
55 285 1
56 16 1
56 76 2
56 95 1
56 155 1
56 170 1
56 228 1
56 280 1
56 286 1
57 17 1
57 77 2
57 96 1
57 156 1
57 171 1
57 229 1
57 241 1
57 287 1
58 18 1
58 78 2
58 97 1
58 157 1
58 172 1
58 230 1
58 242 1
58 288 1
59 19 1
59 79 2
59 98 1
59 158 1
59 173 1
59 231 1
59 243 1
59 289 1
60 20 1
60 80 2
60 99 1
60 159 1
60 174 1
60 232 1
60 244 1
60 290 1
61 21 1
61 41 2
61 100 1
61 160 1
61 175 1
61 233 1
61 245 1
61 291 1
62 22 1
62 42 2
62 101 1
62 121 1
62 176 1
62 234 1
62 246 1
62 292 1
63 23 1
63 43 2
63 102 1
63 122 1
63 177 1
63 235 1
63 247 1
63 293 1
64 24 1
64 44 2
64 103 1
64 123 1
64 178 1
64 236 1
64 248 1
64 294 1
65 25 1
65 45 2
65 104 1
65 124 1
65 179 1
65 237 1
65 249 1
65 295 1
66 26 1
66 46 2
66 105 1
66 125 1
66 180 1
66 238 1
66 250 1
66 296 1
67 27 1
67 47 2
67 106 1
67 126 1
67 181 1
67 239 1
67 251 1
67 297 1
68 28 1
68 48 2
68 107 1
68 127 1
68 182 1
68 240 1
68 252 1
68 298 1
69 29 1
69 49 2
69 108 1
69 128 1
69 183 1
69 201 1
69 253 1
69 299 1
70 30 1
70 50 2
70 109 1
70 129 1
70 184 1
70 202 1
70 254 1
70 300 1
71 31 1
71 51 2
71 110 1
71 130 1
71 185 1
71 203 1
71 255 1
71 301 1
72 32 1
72 52 2
72 111 1
72 131 1
72 186 1
72 204 1
72 256 1
72 302 1
73 33 1
73 53 2
73 112 1
73 132 1
73 187 1
73 205 1
73 257 1
73 303 1
74 34 1
74 54 2
74 113 1
74 133 1
74 188 1
74 206 1
74 258 1
74 304 1
75 35 1
75 55 2
75 114 1
75 134 1
75 189 1
75 207 1
75 259 1
75 305 1
76 36 1
76 56 2
76 115 1
76 135 1
76 190 1
76 208 1
76 260 1
76 306 1
77 37 1
77 57 2
77 116 1
77 136 1
77 191 1
77 209 1
77 261 1
77 307 1
78 38 1
78 58 2
78 117 1
78 137 1
78 192 1
78 210 1
78 262 1
78 308 1
79 39 1
79 59 2
79 118 1
79 138 1
79 193 1
79 211 1
79 263 1
79 309 1
80 40 1
80 60 2
80 119 1
80 139 1
80 194 1
80 212 1
80 264 1
80 310 1
81 1 1
81 51 1
81 101 2
81 127 1
81 169 1
81 237 1
81 258 1
81 318 1
82 2 1
82 52 1
82 102 2
82 128 1
82 170 1
82 238 1
82 259 1
82 319 1
83 3 1
83 53 1
83 103 2
83 129 1
83 171 1
83 239 1
83 260 1
83 320 1
84 4 1
84 54 1
84 104 2
84 130 1
84 172 1
84 240 1
84 261 1
84 281 1
85 5 1
85 55 1
85 105 2
85 131 1
85 173 1
85 201 1
85 262 1
85 282 1
86 6 1
86 56 1
86 106 2
86 132 1
86 174 1
86 202 1
86 263 1
86 283 1
87 7 1
87 57 1
87 107 2
87 133 1
87 175 1
87 203 1
87 264 1
87 284 1
88 8 1
88 58 1
88 108 2
88 134 1
88 176 1
88 204 1
88 265 1
88 285 1
89 9 1
89 59 1
89 109 2
89 135 1
89 177 1
89 205 1
89 266 1
89 286 1
90 10 1
90 60 1
90 110 2
90 136 1
90 178 1
90 206 1
90 267 1
90 287 1
91 11 1
91 61 1
91 111 2
91 137 1
91 179 1
91 207 1
91 268 1
91 288 1
92 12 1
92 62 1
92 112 2
92 138 1
92 180 1
92 208 1
92 269 1
92 289 1
93 13 1
93 63 1
93 113 2
93 139 1
93 181 1
93 209 1
93 270 1
93 290 1
94 14 1
94 64 1
94 114 2
94 140 1
94 182 1
94 210 1
94 271 1
94 291 1
95 15 1
95 65 1
95 115 2
95 141 1
95 183 1
95 211 1
95 272 1
95 292 1
96 16 1
96 66 1
96 116 2
96 142 1
96 184 1
96 212 1
96 273 1
96 293 1
97 17 1
97 67 1
97 117 2
97 143 1
97 185 1
97 213 1
97 274 1
97 294 1
98 18 1
98 68 1
98 118 2
98 144 1
98 186 1
98 214 1
98 275 1
98 295 1
99 19 1
99 69 1
99 119 2
99 145 1
99 187 1
99 215 1
99 276 1
99 296 1
100 20 1
100 70 1
100 120 2
100 146 1
100 188 1
100 216 1
100 277 1
100 297 1
101 21 1
101 71 1
101 81 2
101 147 1
101 189 1
101 217 1
101 278 1
101 298 1
102 22 1
102 72 1
102 82 2
102 148 1
102 190 1
102 218 1
102 279 1
102 299 1
103 23 1
103 73 1
103 83 2
103 149 1
103 191 1
103 219 1
103 280 1
103 300 1
104 24 1
104 74 1
104 84 2
104 150 1
104 192 1
104 220 1
104 241 1
104 301 1
105 25 1
105 75 1
105 85 2
105 151 1
105 193 1
105 221 1
105 242 1
105 302 1
106 26 1
106 76 1
106 86 2
106 152 1
106 194 1
106 222 1
106 243 1
106 303 1
107 27 1
107 77 1
107 87 2
107 153 1
107 195 1
107 223 1
107 244 1
107 304 1
108 28 1
108 78 1
108 88 2
108 154 1
108 196 1
108 224 1
108 245 1
108 305 1
109 29 1
109 79 1
109 89 2
109 155 1
109 197 1
109 225 1
109 246 1
109 306 1
110 30 1
110 80 1
110 90 2
110 156 1
110 198 1
110 226 1
110 247 1
110 307 1
111 31 1
111 41 1
111 91 2
111 157 1
111 199 1
111 227 1
111 248 1
111 308 1
112 32 1
112 42 1
112 92 2
112 158 1
112 200 1
112 228 1
112 249 1
112 309 1
113 33 1
113 43 1
113 93 2
113 159 1
113 161 1
113 229 1
113 250 1
113 310 1
114 34 1
114 44 1
114 94 2
114 160 1
114 162 1
114 230 1
114 251 1
114 311 1
115 35 1
115 45 1
115 95 2
115 121 1
115 163 1
115 231 1
115 252 1
115 312 1
116 36 1
116 46 1
116 96 2
116 122 1
116 164 1
116 232 1
116 253 1
116 313 1
117 37 1
117 47 1
117 97 2
117 123 1
117 165 1
117 233 1
117 254 1
117 314 1
118 38 1
118 48 1
118 98 2
118 124 1
118 166 1
118 234 1
118 255 1
118 315 1
119 39 1
119 49 1
119 99 2
119 125 1
119 167 1
119 235 1
119 256 1
119 316 1
120 40 1
120 50 1
120 100 2
120 126 1
120 168 1
120 236 1
120 257 1
120 317 1
