%%MatrixMarket matrix coordinate integer general
% Binary matrix over GF(2).
% Coordinate indices are 1-based; omitted entries are zero.
240 640 2040
1 1 1
1 133 1
1 185 1
1 293 1
1 322 1
1 425 1
1 555 1
1 635 1
2 2 1
2 134 1
2 186 1
2 294 1
2 321 1
2 322 1
2 426 1
2 556 1
2 636 1
3 3 1
3 135 1
3 187 1
3 295 1
3 324 1
3 427 1
3 557 1
3 637 1
4 4 1
4 136 1
4 188 1
4 296 1
4 323 1
4 324 1
4 428 1
4 558 1
4 638 1
5 5 1
5 137 1
5 189 1
5 297 1
5 326 1
5 429 1
5 559 1
5 639 1
6 6 1
6 138 1
6 190 1
6 298 1
6 325 1
6 326 1
6 430 1
6 560 1
6 640 1
7 7 1
7 139 1
7 191 1
7 299 1
7 328 1
7 431 1
7 481 1
7 561 1
8 8 1
8 140 1
8 192 1
8 300 1
8 327 1
8 328 1
8 432 1
8 482 1
8 562 1
9 9 1
9 141 1
9 193 1
9 301 1
9 330 1
9 433 1
9 483 1
9 563 1
10 10 1
10 142 1
10 194 1
10 302 1
10 329 1
10 330 1
10 434 1
10 484 1
10 564 1
11 11 1
11 143 1
11 195 1
11 303 1
11 332 1
11 435 1
11 485 1
11 565 1
12 12 1
12 144 1
12 196 1
12 304 1
12 331 1
12 332 1
12 436 1
12 486 1
12 566 1
13 13 1
13 145 1
13 197 1
13 305 1
13 334 1
13 437 1
13 487 1
13 567 1
14 14 1
14 146 1
14 198 1
14 306 1
14 333 1
14 334 1
14 438 1
14 488 1
14 568 1
15 15 1
15 147 1
15 199 1
15 307 1
15 336 1
15 439 1
15 489 1
15 569 1
16 16 1
16 148 1
16 200 1
16 308 1
16 335 1
16 336 1
16 440 1
16 490 1
16 570 1
17 17 1
17 149 1
17 201 1
17 309 1
17 338 1
17 441 1
17 491 1
17 571 1
18 18 1
18 150 1
18 202 1
18 310 1
18 337 1
18 338 1
18 442 1
18 492 1
18 572 1
19 19 1
19 151 1
19 203 1
19 311 1
19 340 1
19 443 1
19 493 1
19 573 1
20 20 1
20 152 1
20 204 1
20 312 1
20 339 1
20 340 1
20 444 1
20 494 1
20 574 1
21 21 1
21 153 1
21 205 1
21 313 1
21 342 1
21 445 1
21 495 1
21 575 1
22 22 1
22 154 1
22 206 1
22 314 1
22 341 1
22 342 1
22 446 1
22 496 1
22 576 1
23 23 1
23 155 1
23 207 1
23 315 1
23 344 1
23 447 1
23 497 1
23 577 1
24 24 1
24 156 1
24 208 1
24 316 1
24 343 1
24 344 1
24 448 1
24 498 1
24 578 1
25 25 1
25 157 1
25 209 1
25 317 1
25 346 1
25 449 1
25 499 1
25 579 1
26 26 1
26 158 1
26 210 1
26 318 1
26 345 1
26 346 1
26 450 1
26 500 1
26 580 1
27 27 1
27 159 1
27 211 1
27 319 1
27 348 1
27 451 1
27 501 1
27 581 1
28 28 1
28 160 1
28 212 1
28 320 1
28 347 1
28 348 1
28 452 1
28 502 1
28 582 1
29 29 1
29 81 1
29 213 1
29 241 1
29 350 1
29 453 1
29 503 1
29 583 1
30 30 1
30 82 1
30 214 1
30 242 1
30 349 1
30 350 1
30 454 1
30 504 1
30 584 1
31 31 1
31 83 1
31 215 1
31 243 1
31 352 1
31 455 1
31 505 1
31 585 1
32 32 1
32 84 1
32 216 1
32 244 1
32 351 1
32 352 1
32 456 1
32 506 1
32 586 1
33 33 1
33 85 1
33 217 1
33 245 1
33 354 1
33 457 1
33 507 1
33 587 1
34 34 1
34 86 1
34 218 1
34 246 1
34 353 1
34 354 1
34 458 1
34 508 1
34 588 1
35 35 1
35 87 1
35 219 1
35 247 1
35 356 1
35 459 1
35 509 1
35 589 1
36 36 1
36 88 1
36 220 1
36 248 1
36 355 1
36 356 1
36 460 1
36 510 1
36 590 1
37 37 1
37 89 1
37 221 1
37 249 1
37 358 1
37 461 1
37 511 1
37 591 1
38 38 1
38 90 1
38 222 1
38 250 1
38 357 1
38 358 1
38 462 1
38 512 1
38 592 1
39 39 1
39 91 1
39 223 1
39 251 1
39 360 1
39 463 1
39 513 1
39 593 1
40 40 1
40 92 1
40 224 1
40 252 1
40 359 1
40 360 1
40 464 1
40 514 1
40 594 1
41 41 1
41 93 1
41 225 1
41 253 1
41 362 1
41 465 1
41 515 1
41 595 1
42 42 1
42 94 1
42 226 1
42 254 1
42 361 1
42 362 1
42 466 1
42 516 1
42 596 1
43 43 1
43 95 1
43 227 1
43 255 1
43 364 1
43 467 1
43 517 1
43 597 1
44 44 1
44 96 1
44 228 1
44 256 1
44 363 1
44 364 1
44 468 1
44 518 1
44 598 1
45 45 1
45 97 1
45 229 1
45 257 1
45 366 1
45 469 1
45 519 1
45 599 1
46 46 1
46 98 1
46 230 1
46 258 1
46 365 1
46 366 1
46 470 1
46 520 1
46 600 1
47 47 1
47 99 1
47 231 1
47 259 1
47 368 1
47 471 1
47 521 1
47 601 1
48 48 1
48 100 1
48 232 1
48 260 1
48 367 1
48 368 1
48 472 1
48 522 1
48 602 1
49 49 1
49 101 1
49 233 1
49 261 1
49 370 1
49 473 1
49 523 1
49 603 1
50 50 1
50 102 1
50 234 1
50 262 1
50 369 1
50 370 1
50 474 1
50 524 1
50 604 1
51 51 1
51 103 1
51 235 1
51 263 1
51 372 1
51 475 1
51 525 1
51 605 1
52 52 1
52 104 1
52 236 1
52 264 1
52 371 1
52 372 1
52 476 1
52 526 1
52 606 1
53 53 1
53 105 1
53 237 1
53 265 1
53 374 1
53 477 1
53 527 1
53 607 1
54 54 1
54 106 1
54 238 1
54 266 1
54 373 1
54 374 1
54 478 1
54 528 1
54 608 1
55 55 1
55 107 1
55 239 1
55 267 1
55 376 1
55 479 1
55 529 1
55 609 1
56 56 1
56 108 1
56 240 1
56 268 1
56 375 1
56 376 1
56 480 1
56 530 1
56 610 1
57 57 1
57 109 1
57 161 1
57 269 1
57 378 1
57 401 1
57 531 1
57 611 1
58 58 1
58 110 1
58 162 1
58 270 1
58 377 1
58 378 1
58 402 1
58 532 1
58 612 1
59 59 1
59 111 1
59 163 1
59 271 1
59 380 1
59 403 1
59 533 1
59 613 1
60 60 1
60 112 1
60 164 1
60 272 1
60 379 1
60 380 1
60 404 1
60 534 1
60 614 1
61 61 1
61 113 1
61 165 1
61 273 1
61 382 1
61 405 1
61 535 1
61 615 1
62 62 1
62 114 1
62 166 1
62 274 1
62 381 1
62 382 1
62 406 1
62 536 1
62 616 1
63 63 1
63 115 1
63 167 1
63 275 1
63 384 1
63 407 1
63 537 1
63 617 1
64 64 1
64 116 1
64 168 1
64 276 1
64 383 1
64 384 1
64 408 1
64 538 1
64 618 1
65 65 1
65 117 1
65 169 1
65 277 1
65 386 1
65 409 1
65 539 1
65 619 1
66 66 1
66 118 1
66 170 1
66 278 1
66 385 1
66 386 1
66 410 1
66 540 1
66 620 1
67 67 1
67 119 1
67 171 1
67 279 1
67 388 1
67 411 1
67 541 1
67 621 1
68 68 1
68 120 1
68 172 1
68 280 1
68 387 1
68 388 1
68 412 1
68 542 1
68 622 1
69 69 1
69 121 1
69 173 1
69 281 1
69 390 1
69 413 1
69 543 1
69 623 1
70 70 1
70 122 1
70 174 1
70 282 1
70 389 1
70 390 1
70 414 1
70 544 1
70 624 1
71 71 1
71 123 1
71 175 1
71 283 1
71 392 1
71 415 1
71 545 1
71 625 1
72 72 1
72 124 1
72 176 1
72 284 1
72 391 1
72 392 1
72 416 1
72 546 1
72 626 1
73 73 1
73 125 1
73 177 1
73 285 1
73 394 1
73 417 1
73 547 1
73 627 1
74 74 1
74 126 1
74 178 1
74 286 1
74 393 1
74 394 1
74 418 1
74 548 1
74 628 1
75 75 1
75 127 1
75 179 1
75 287 1
75 396 1
75 419 1
75 549 1
75 629 1
76 76 1
76 128 1
76 180 1
76 288 1
76 395 1
76 396 1
76 420 1
76 550 1
76 630 1
77 77 1
77 129 1
77 181 1
77 289 1
77 398 1
77 421 1
77 551 1
77 631 1
78 78 1
78 130 1
78 182 1
78 290 1
78 397 1
78 398 1
78 422 1
78 552 1
78 632 1
79 79 1
79 131 1
79 183 1
79 291 1
79 400 1
79 423 1
79 553 1
79 633 1
80 80 1
80 132 1
80 184 1
80 292 1
80 399 1
80 400 1
80 424 1
80 554 1
80 634 1
81 1 1
81 97 1
81 209 1
81 249 1
81 337 1
81 402 1
81 529 1
81 569 1
82 2 1
82 98 1
82 210 1
82 250 1
82 338 1
82 401 1
82 402 1
82 530 1
82 570 1
83 3 1
83 99 1
83 211 1
83 251 1
83 339 1
83 404 1
83 531 1
83 571 1
84 4 1
84 100 1
84 212 1
84 252 1
84 340 1
84 403 1
84 404 1
84 532 1
84 572 1
85 5 1
85 101 1
85 213 1
85 253 1
85 341 1
85 406 1
85 533 1
85 573 1
86 6 1
86 102 1
86 214 1
86 254 1
86 342 1
86 405 1
86 406 1
86 534 1
86 574 1
87 7 1
87 103 1
87 215 1
87 255 1
87 343 1
87 408 1
87 535 1
87 575 1
88 8 1
88 104 1
88 216 1
88 256 1
88 344 1
88 407 1
88 408 1
88 536 1
88 576 1
89 9 1
89 105 1
89 217 1
89 257 1
89 345 1
89 410 1
89 537 1
89 577 1
90 10 1
90 106 1
90 218 1
90 258 1
90 346 1
90 409 1
90 410 1
90 538 1
90 578 1
91 11 1
91 107 1
91 219 1
91 259 1
91 347 1
91 412 1
91 539 1
91 579 1
92 12 1
92 108 1
92 220 1
92 260 1
92 348 1
92 411 1
92 412 1
92 540 1
92 580 1
93 13 1
93 109 1
93 221 1
93 261 1
93 349 1
93 414 1
93 541 1
93 581 1
94 14 1
94 110 1
94 222 1
94 262 1
94 350 1
94 413 1
94 414 1
94 542 1
94 582 1
95 15 1
95 111 1
95 223 1
95 263 1
95 351 1
95 416 1
95 543 1
95 583 1
96 16 1
96 112 1
96 224 1
96 264 1
96 352 1
96 415 1
96 416 1
96 544 1
96 584 1
97 17 1
97 113 1
97 225 1
97 265 1
97 353 1
97 418 1
97 545 1
97 585 1
98 18 1
98 114 1
98 226 1
98 266 1
98 354 1
98 417 1
98 418 1
98 546 1
98 586 1
99 19 1
99 115 1
99 227 1
99 267 1
99 355 1
99 420 1
99 547 1
99 587 1
100 20 1
100 116 1
100 228 1
100 268 1
100 356 1
100 419 1
100 420 1
100 548 1
100 588 1
101 21 1
101 117 1
101 229 1
101 269 1
101 357 1
101 422 1
101 549 1
101 589 1
102 22 1
102 118 1
102 230 1
102 270 1
102 358 1
102 421 1
102 422 1
102 550 1
102 590 1
103 23 1
103 119 1
103 231 1
103 271 1
103 359 1
103 424 1
103 551 1
103 591 1
104 24 1
104 120 1
104 232 1
104 272 1
104 360 1
104 423 1
104 424 1
104 552 1
104 592 1
105 25 1
105 121 1
105 233 1
105 273 1
105 361 1
105 426 1
105 553 1
105 593 1
106 26 1
106 122 1
106 234 1
106 274 1
106 362 1
106 425 1
106 426 1
106 554 1
106 594 1
107 27 1
107 123 1
107 235 1
107 275 1
107 363 1
107 428 1
107 555 1
107 595 1
108 28 1
108 124 1
108 236 1
108 276 1
108 364 1
108 427 1
108 428 1
108 556 1
108 596 1
109 29 1
109 125 1
109 237 1
109 277 1
109 365 1
109 430 1
109 557 1
109 597 1
110 30 1
110 126 1
110 238 1
110 278 1
110 366 1
110 429 1
110 430 1
110 558 1
110 598 1
111 31 1
111 127 1
111 239 1
111 279 1
111 367 1
111 432 1
111 559 1
111 599 1
112 32 1
112 128 1
112 240 1
112 280 1
112 368 1
112 431 1
112 432 1
112 560 1
112 600 1
113 33 1
113 129 1
113 161 1
113 281 1
113 369 1
113 434 1
113 481 1
113 601 1
114 34 1
114 130 1
114 162 1
114 282 1
114 370 1
114 433 1
114 434 1
114 482 1
114 602 1
115 35 1
115 131 1
115 163 1
115 283 1
115 371 1
115 436 1
115 483 1
115 603 1
116 36 1
116 132 1
116 164 1
116 284 1
116 372 1
116 435 1
116 436 1
116 484 1
116 604 1
117 37 1
117 133 1
117 165 1
117 285 1
117 373 1
117 438 1
117 485 1
117 605 1
118 38 1
118 134 1
118 166 1
118 286 1
118 374 1
118 437 1
118 438 1
118 486 1
118 606 1
119 39 1
119 135 1
119 167 1
119 287 1
119 375 1
119 440 1
119 487 1
119 607 1
120 40 1
120 136 1
120 168 1
120 288 1
120 376 1
120 439 1
120 440 1
120 488 1
120 608 1
121 41 1
121 137 1
121 169 1
121 289 1
121 377 1
121 442 1
121 489 1
121 609 1
122 42 1
122 138 1
122 170 1
122 290 1
122 378 1
122 441 1
122 442 1
122 490 1
122 610 1
123 43 1
123 139 1
123 171 1
123 291 1
123 379 1
123 444 1
123 491 1
123 611 1
124 44 1
124 140 1
124 172 1
124 292 1
124 380 1
124 443 1
124 444 1
124 492 1
124 612 1
125 45 1
125 141 1
125 173 1
125 293 1
125 381 1
125 446 1
125 493 1
125 613 1
126 46 1
126 142 1
126 174 1
126 294 1
126 382 1
126 445 1
126 446 1
126 494 1
126 614 1
127 47 1
127 143 1
127 175 1
127 295 1
127 383 1
127 448 1
127 495 1
127 615 1
128 48 1
128 144 1
128 176 1
128 296 1
128 384 1
128 447 1
128 448 1
128 496 1
128 616 1
129 49 1
129 145 1
129 177 1
129 297 1
129 385 1
129 450 1
129 497 1
129 617 1
130 50 1
130 146 1
130 178 1
130 298 1
130 386 1
130 449 1
130 450 1
130 498 1
130 618 1
131 51 1
131 147 1
131 179 1
131 299 1
131 387 1
131 452 1
131 499 1
131 619 1
132 52 1
132 148 1
132 180 1
132 300 1
132 388 1
132 451 1
132 452 1
132 500 1
132 620 1
133 53 1
133 149 1
133 181 1
133 301 1
133 389 1
133 454 1
133 501 1
133 621 1
134 54 1
134 150 1
134 182 1
134 302 1
134 390 1
134 453 1
134 454 1
134 502 1
134 622 1
135 55 1
135 151 1
135 183 1
135 303 1
135 391 1
135 456 1
135 503 1
135 623 1
136 56 1
136 152 1
136 184 1
136 304 1
136 392 1
136 455 1
136 456 1
136 504 1
136 624 1
137 57 1
137 153 1
137 185 1
137 305 1
137 393 1
137 458 1
137 505 1
137 625 1
138 58 1
138 154 1
138 186 1
138 306 1
138 394 1
138 457 1
138 458 1
138 506 1
138 626 1
139 59 1
139 155 1
139 187 1
139 307 1
139 395 1
139 460 1
139 507 1
139 627 1
140 60 1
140 156 1
140 188 1
140 308 1
140 396 1
140 459 1
140 460 1
140 508 1
140 628 1
141 61 1
141 157 1
141 189 1
141 309 1
141 397 1
141 462 1
141 509 1
141 629 1
142 62 1
142 158 1
142 190 1
142 310 1
142 398 1
142 461 1
142 462 1
142 510 1
142 630 1
143 63 1
143 159 1
143 191 1
143 311 1
143 399 1
143 464 1
143 511 1
143 631 1
144 64 1
144 160 1
144 192 1
144 312 1
144 400 1
144 463 1
144 464 1
144 512 1
144 632 1
145 65 1
145 81 1
145 193 1
145 313 1
145 321 1
145 466 1
145 513 1
145 633 1
146 66 1
146 82 1
146 194 1
146 314 1
146 322 1
146 465 1
146 466 1
146 514 1
146 634 1
147 67 1
147 83 1
147 195 1
147 315 1
147 323 1
147 468 1
147 515 1
147 635 1
148 68 1
148 84 1
148 196 1
148 316 1
148 324 1
148 467 1
148 468 1
148 516 1
148 636 1
149 69 1
149 85 1
149 197 1
149 317 1
149 325 1
149 470 1
149 517 1
149 637 1
150 70 1
150 86 1
150 198 1
150 318 1
150 326 1
150 469 1
150 470 1
150 518 1
150 638 1
151 71 1
151 87 1
151 199 1
151 319 1
151 327 1
151 472 1
151 519 1
151 639 1
152 72 1
152 88 1
152 200 1
152 320 1
152 328 1
152 471 1
152 472 1
152 520 1
152 640 1
153 73 1
153 89 1
153 201 1
153 241 1
153 329 1
153 474 1
153 521 1
153 561 1
154 74 1
154 90 1
154 202 1
154 242 1
154 330 1
154 473 1
154 474 1
154 522 1
154 562 1
155 75 1
155 91 1
155 203 1
155 243 1
155 331 1
155 476 1
155 523 1
155 563 1
156 76 1
156 92 1
156 204 1
156 244 1
156 332 1
156 475 1
156 476 1
156 524 1
156 564 1
157 77 1
157 93 1
157 205 1
157 245 1
157 333 1
157 478 1
157 525 1
157 565 1
158 78 1
158 94 1
158 206 1
158 246 1
158 334 1
158 477 1
158 478 1
158 526 1
158 566 1
159 79 1
159 95 1
159 207 1
159 247 1
159 335 1
159 480 1
159 527 1
159 567 1
160 80 1
160 96 1
160 208 1
160 248 1
160 336 1
160 479 1
160 480 1
160 528 1
160 568 1
161 1 1
161 153 1
161 167 1
161 247 1
161 389 1
161 473 1
161 482 1
161 629 1
162 2 1
162 154 1
162 168 1
162 248 1
162 390 1
162 474 1
162 481 1
162 482 1
162 630 1
163 3 1
163 155 1
163 169 1
163 249 1
163 391 1
163 475 1
163 484 1
163 631 1
164 4 1
164 156 1
164 170 1
164 250 1
164 392 1
164 476 1
164 483 1
164 484 1
164 632 1
165 5 1
165 157 1
165 171 1
165 251 1
165 393 1
165 477 1
165 486 1
165 633 1
166 6 1
166 158 1
166 172 1
166 252 1
166 394 1
166 478 1
166 485 1
166 486 1
166 634 1
167 7 1
167 159 1
167 173 1
167 253 1
167 395 1
167 479 1
167 488 1
167 635 1
168 8 1
168 160 1
168 174 1
168 254 1
168 396 1
168 480 1
168 487 1
168 488 1
168 636 1
169 9 1
169 81 1
169 175 1
169 255 1
169 397 1
169 401 1
169 490 1
169 637 1
170 10 1
170 82 1
170 176 1
170 256 1
170 398 1
170 402 1
170 489 1
170 490 1
170 638 1
171 11 1
171 83 1
171 177 1
171 257 1
171 399 1
171 403 1
171 492 1
171 639 1
172 12 1
172 84 1
172 178 1
172 258 1
172 400 1
172 404 1
172 491 1
172 492 1
172 640 1
173 13 1
173 85 1
173 179 1
173 259 1
173 321 1
173 405 1
173 494 1
173 561 1
174 14 1
174 86 1
174 180 1
174 260 1
174 322 1
174 406 1
174 493 1
174 494 1
174 562 1
175 15 1
175 87 1
175 181 1
175 261 1
175 323 1
175 407 1
175 496 1
175 563 1
176 16 1
176 88 1
176 182 1
176 262 1
176 324 1
176 408 1
176 495 1
176 496 1
176 564 1
177 17 1
177 89 1
177 183 1
177 263 1
177 325 1
177 409 1
177 498 1
177 565 1
178 18 1
178 90 1
178 184 1
178 264 1
178 326 1
178 410 1
178 497 1
178 498 1
178 566 1
179 19 1
179 91 1
179 185 1
179 265 1
179 327 1
179 411 1
179 500 1
179 567 1
180 20 1
180 92 1
180 186 1
180 266 1
180 328 1
180 412 1
180 499 1
180 500 1
180 568 1
181 21 1
181 93 1
181 187 1
181 267 1
181 329 1
181 413 1
181 502 1
181 569 1
182 22 1
182 94 1
182 188 1
182 268 1
182 330 1
182 414 1
182 501 1
182 502 1
182 570 1
183 23 1
183 95 1
183 189 1
183 269 1
183 331 1
183 415 1
183 504 1
183 571 1
184 24 1
184 96 1
184 190 1
184 270 1
184 332 1
184 416 1
184 503 1
184 504 1
184 572 1
185 25 1
185 97 1
185 191 1
185 271 1
185 333 1
185 417 1
185 506 1
185 573 1
186 26 1
186 98 1
186 192 1
186 272 1
186 334 1
186 418 1
186 505 1
186 506 1
186 574 1
187 27 1
187 99 1
187 193 1
187 273 1
187 335 1
187 419 1
187 508 1
187 575 1
188 28 1
188 100 1
188 194 1
188 274 1
188 336 1
188 420 1
188 507 1
188 508 1
188 576 1
189 29 1
189 101 1
189 195 1
189 275 1
189 337 1
189 421 1
189 510 1
189 577 1
190 30 1
190 102 1
190 196 1
190 276 1
190 338 1
190 422 1
190 509 1
190 510 1
190 578 1
191 31 1
191 103 1
191 197 1
191 277 1
191 339 1
191 423 1
191 512 1
191 579 1
192 32 1
192 104 1
192 198 1
192 278 1
192 340 1
192 424 1
192 511 1
192 512 1
192 580 1
193 33 1
193 105 1
193 199 1
193 279 1
193 341 1
193 425 1
193 514 1
193 581 1
194 34 1
194 106 1
194 200 1
194 280 1
194 342 1
194 426 1
194 513 1
194 514 1
194 582 1
195 35 1
195 107 1
195 201 1
195 281 1
195 343 1
195 427 1
195 516 1
195 583 1
196 36 1
196 108 1
196 202 1
196 282 1
196 344 1
196 428 1
196 515 1
196 516 1
196 584 1
197 37 1
197 109 1
197 203 1
197 283 1
197 345 1
197 429 1
197 518 1
197 585 1
198 38 1
198 110 1
198 204 1
198 284 1
198 346 1
198 430 1
198 517 1
198 518 1
198 586 1
199 39 1
199 111 1
199 205 1
199 285 1
199 347 1
199 431 1
199 520 1
199 587 1
200 40 1
200 112 1
200 206 1
200 286 1
200 348 1
200 432 1
200 519 1
200 520 1
200 588 1
201 41 1
201 113 1
201 207 1
201 287 1
201 349 1
201 433 1
201 522 1
201 589 1
202 42 1
202 114 1
202 208 1
202 288 1
202 350 1
202 434 1
202 521 1
202 522 1
202 590 1
203 43 1
203 115 1
203 209 1
203 289 1
203 351 1
203 435 1
203 524 1
203 591 1
204 44 1
204 116 1
204 210 1
204 290 1
204 352 1
204 436 1
204 523 1
204 524 1
204 592 1
205 45 1
205 117 1
205 211 1
205 291 1
205 353 1
205 437 1
205 526 1
205 593 1
206 46 1
206 118 1
206 212 1
206 292 1
206 354 1
206 438 1
206 525 1
206 526 1
206 594 1
207 47 1
207 119 1
207 213 1
207 293 1
207 355 1
207 439 1
207 528 1
207 595 1
208 48 1
208 120 1
208 214 1
208 294 1
208 356 1
208 440 1
208 527 1
208 528 1
208 596 1
209 49 1
209 121 1
209 215 1
209 295 1
209 357 1
209 441 1
209 530 1
209 597 1
210 50 1
210 122 1
210 216 1
210 296 1
210 358 1
210 442 1
210 529 1
210 530 1
210 598 1
211 51 1
211 123 1
211 217 1
211 297 1
211 359 1
211 443 1
211 532 1
211 599 1
212 52 1
212 124 1
212 218 1
212 298 1
212 360 1
212 444 1
212 531 1
212 532 1
212 600 1
213 53 1
213 125 1
213 219 1
213 299 1
213 361 1
213 445 1
213 534 1
213 601 1
214 54 1
214 126 1
214 220 1
214 300 1
214 362 1
214 446 1
214 533 1
214 534 1
214 602 1
215 55 1
215 127 1
215 221 1
215 301 1
215 363 1
215 447 1
215 536 1
215 603 1
216 56 1
216 128 1
216 222 1
216 302 1
216 364 1
216 448 1
216 535 1
216 536 1
216 604 1
217 57 1
217 129 1
217 223 1
217 303 1
217 365 1
217 449 1
217 538 1
217 605 1
218 58 1
218 130 1
218 224 1
218 304 1
218 366 1
218 450 1
218 537 1
218 538 1
218 606 1
219 59 1
219 131 1
219 225 1
219 305 1
219 367 1
219 451 1
219 540 1
219 607 1
220 60 1
220 132 1
220 226 1
220 306 1
220 368 1
220 452 1
220 539 1
220 540 1
220 608 1
221 61 1
221 133 1
221 227 1
221 307 1
221 369 1
221 453 1
221 542 1
221 609 1
222 62 1
222 134 1
222 228 1
222 308 1
222 370 1
222 454 1
222 541 1
222 542 1
222 610 1
223 63 1
223 135 1
223 229 1
223 309 1
223 371 1
223 455 1
223 544 1
223 611 1
224 64 1
224 136 1
224 230 1
224 310 1
224 372 1
224 456 1
224 543 1
224 544 1
224 612 1
225 65 1
225 137 1
225 231 1
225 311 1
225 373 1
225 457 1
225 546 1
225 613 1
226 66 1
226 138 1
226 232 1
226 312 1
226 374 1
226 458 1
226 545 1
226 546 1
226 614 1
227 67 1
227 139 1
227 233 1
227 313 1
227 375 1
227 459 1
227 548 1
227 615 1
228 68 1
228 140 1
228 234 1
228 314 1
228 376 1
228 460 1
228 547 1
228 548 1
228 616 1
229 69 1
229 141 1
229 235 1
229 315 1
229 377 1
229 461 1
229 550 1
229 617 1
230 70 1
230 142 1
230 236 1
230 316 1
230 378 1
230 462 1
230 549 1
230 550 1
230 618 1
231 71 1
231 143 1
231 237 1
231 317 1
231 379 1
231 463 1
231 552 1
231 619 1
232 72 1
232 144 1
232 238 1
232 318 1
232 380 1
232 464 1
232 551 1
232 552 1
232 620 1
233 73 1
233 145 1
233 239 1
233 319 1
233 381 1
233 465 1
233 554 1
233 621 1
234 74 1
234 146 1
234 240 1
234 320 1
234 382 1
234 466 1
234 553 1
234 554 1
234 622 1
235 75 1
235 147 1
235 161 1
235 241 1
235 383 1
235 467 1
235 556 1
235 623 1
236 76 1
236 148 1
236 162 1
236 242 1
236 384 1
236 468 1
236 555 1
236 556 1
236 624 1
237 77 1
237 149 1
237 163 1
237 243 1
237 385 1
237 469 1
237 558 1
237 625 1
238 78 1
238 150 1
238 164 1
238 244 1
238 386 1
238 470 1
238 557 1
238 558 1
238 626 1
239 79 1
239 151 1
239 165 1
239 245 1
239 387 1
239 471 1
239 560 1
239 627 1
240 80 1
240 152 1
240 166 1
240 246 1
240 388 1
240 472 1
240 559 1
240 560 1
240 628 1
