%%MatrixMarket matrix coordinate integer general
% GF(4) labels 0,1,2=omega,3=omega+1; arithmetic is NOT integer arithmetic.
% Coordinate indices are 1-based; omitted entries are zero.
120 320 960
1 1 1
1 67 1
1 93 1
1 147 1
1 161 2
1 213 1
1 278 1
1 318 1
2 2 1
2 68 1
2 94 1
2 148 1
2 162 2
2 214 1
2 279 1
2 319 1
3 3 1
3 69 1
3 95 1
3 149 1
3 163 2
3 215 1
3 280 1
3 320 1
4 4 1
4 70 1
4 96 1
4 150 1
4 164 2
4 216 1
4 241 1
4 281 1
5 5 1
5 71 1
5 97 1
5 151 1
5 165 2
5 217 1
5 242 1
5 282 1
6 6 1
6 72 1
6 98 1
6 152 1
6 166 2
6 218 1
6 243 1
6 283 1
7 7 1
7 73 1
7 99 1
7 153 1
7 167 2
7 219 1
7 244 1
7 284 1
8 8 1
8 74 1
8 100 1
8 154 1
8 168 2
8 220 1
8 245 1
8 285 1
9 9 1
9 75 1
9 101 1
9 155 1
9 169 2
9 221 1
9 246 1
9 286 1
10 10 1
10 76 1
10 102 1
10 156 1
10 170 2
10 222 1
10 247 1
10 287 1
11 11 1
11 77 1
11 103 1
11 157 1
11 171 2
11 223 1
11 248 1
11 288 1
12 12 1
12 78 1
12 104 1
12 158 1
12 172 2
12 224 1
12 249 1
12 289 1
13 13 1
13 79 1
13 105 1
13 159 1
13 173 2
13 225 1
13 250 1
13 290 1
14 14 1
14 80 1
14 106 1
14 160 1
14 174 2
14 226 1
14 251 1
14 291 1
15 15 1
15 41 1
15 107 1
15 121 1
15 175 2
15 227 1
15 252 1
15 292 1
16 16 1
16 42 1
16 108 1
16 122 1
16 176 2
16 228 1
16 253 1
16 293 1
17 17 1
17 43 1
17 109 1
17 123 1
17 177 2
17 229 1
17 254 1
17 294 1
18 18 1
18 44 1
18 110 1
18 124 1
18 178 2
18 230 1
18 255 1
18 295 1
19 19 1
19 45 1
19 111 1
19 125 1
19 179 2
19 231 1
19 256 1
19 296 1
20 20 1
20 46 1
20 112 1
20 126 1
20 180 2
20 232 1
20 257 1
20 297 1
21 21 1
21 47 1
21 113 1
21 127 1
21 181 2
21 233 1
21 258 1
21 298 1
22 22 1
22 48 1
22 114 1
22 128 1
22 182 2
22 234 1
22 259 1
22 299 1
23 23 1
23 49 1
23 115 1
23 129 1
23 183 2
23 235 1
23 260 1
23 300 1
24 24 1
24 50 1
24 116 1
24 130 1
24 184 2
24 236 1
24 261 1
24 301 1
25 25 1
25 51 1
25 117 1
25 131 1
25 185 2
25 237 1
25 262 1
25 302 1
26 26 1
26 52 1
26 118 1
26 132 1
26 186 2
26 238 1
26 263 1
26 303 1
27 27 1
27 53 1
27 119 1
27 133 1
27 187 2
27 239 1
27 264 1
27 304 1
28 28 1
28 54 1
28 120 1
28 134 1
28 188 2
28 240 1
28 265 1
28 305 1
29 29 1
29 55 1
29 81 1
29 135 1
29 189 2
29 201 1
29 266 1
29 306 1
30 30 1
30 56 1
30 82 1
30 136 1
30 190 2
30 202 1
30 267 1
30 307 1
31 31 1
31 57 1
31 83 1
31 137 1
31 191 2
31 203 1
31 268 1
31 308 1
32 32 1
32 58 1
32 84 1
32 138 1
32 192 2
32 204 1
32 269 1
32 309 1
33 33 1
33 59 1
33 85 1
33 139 1
33 193 2
33 205 1
33 270 1
33 310 1
34 34 1
34 60 1
34 86 1
34 140 1
34 194 2
34 206 1
34 271 1
34 311 1
35 35 1
35 61 1
35 87 1
35 141 1
35 195 2
35 207 1
35 272 1
35 312 1
36 36 1
36 62 1
36 88 1
36 142 1
36 196 2
36 208 1
36 273 1
36 313 1
37 37 1
37 63 1
37 89 1
37 143 1
37 197 2
37 209 1
37 274 1
37 314 1
38 38 1
38 64 1
38 90 1
38 144 1
38 198 2
38 210 1
38 275 1
38 315 1
39 39 1
39 65 1
39 91 1
39 145 1
39 199 2
39 211 1
39 276 1
39 316 1
40 40 1
40 66 1
40 92 1
40 146 1
40 200 2
40 212 1
40 277 1
40 317 1
41 1 1
41 49 1
41 105 1
41 125 1
41 169 1
41 201 2
41 265 1
41 285 1
42 2 1
42 50 1
42 106 1
42 126 1
42 170 1
42 202 2
42 266 1
42 286 1
43 3 1
43 51 1
43 107 1
43 127 1
43 171 1
43 203 2
43 267 1
43 287 1
44 4 1
44 52 1
44 108 1
44 128 1
44 172 1
44 204 2
44 268 1
44 288 1
45 5 1
45 53 1
45 109 1
45 129 1
45 173 1
45 205 2
45 269 1
45 289 1
46 6 1
46 54 1
46 110 1
46 130 1
46 174 1
46 206 2
46 270 1
46 290 1
47 7 1
47 55 1
47 111 1
47 131 1
47 175 1
47 207 2
47 271 1
47 291 1
48 8 1
48 56 1
48 112 1
48 132 1
48 176 1
48 208 2
48 272 1
48 292 1
49 9 1
49 57 1
49 113 1
49 133 1
49 177 1
49 209 2
49 273 1
49 293 1
50 10 1
50 58 1
50 114 1
50 134 1
50 178 1
50 210 2
50 274 1
50 294 1
51 11 1
51 59 1
51 115 1
51 135 1
51 179 1
51 211 2
51 275 1
51 295 1
52 12 1
52 60 1
52 116 1
52 136 1
52 180 1
52 212 2
52 276 1
52 296 1
53 13 1
53 61 1
53 117 1
53 137 1
53 181 1
53 213 2
53 277 1
53 297 1
54 14 1
54 62 1
54 118 1
54 138 1
54 182 1
54 214 2
54 278 1
54 298 1
55 15 1
55 63 1
55 119 1
55 139 1
55 183 1
55 215 2
55 279 1
55 299 1
56 16 1
56 64 1
56 120 1
56 140 1
56 184 1
56 216 2
56 280 1
56 300 1
57 17 1
57 65 1
57 81 1
57 141 1
57 185 1
57 217 2
57 241 1
57 301 1
58 18 1
58 66 1
58 82 1
58 142 1
58 186 1
58 218 2
58 242 1
58 302 1
59 19 1
59 67 1
59 83 1
59 143 1
59 187 1
59 219 2
59 243 1
59 303 1
60 20 1
60 68 1
60 84 1
60 144 1
60 188 1
60 220 2
60 244 1
60 304 1
61 21 1
61 69 1
61 85 1
61 145 1
61 189 1
61 221 2
61 245 1
61 305 1
62 22 1
62 70 1
62 86 1
62 146 1
62 190 1
62 222 2
62 246 1
62 306 1
63 23 1
63 71 1
63 87 1
63 147 1
63 191 1
63 223 2
63 247 1
63 307 1
64 24 1
64 72 1
64 88 1
64 148 1
64 192 1
64 224 2
64 248 1
64 308 1
65 25 1
65 73 1
65 89 1
65 149 1
65 193 1
65 225 2
65 249 1
65 309 1
66 26 1
66 74 1
66 90 1
66 150 1
66 194 1
66 226 2
66 250 1
66 310 1
67 27 1
67 75 1
67 91 1
67 151 1
67 195 1
67 227 2
67 251 1
67 311 1
68 28 1
68 76 1
68 92 1
68 152 1
68 196 1
68 228 2
68 252 1
68 312 1
69 29 1
69 77 1
69 93 1
69 153 1
69 197 1
69 229 2
69 253 1
69 313 1
70 30 1
70 78 1
70 94 1
70 154 1
70 198 1
70 230 2
70 254 1
70 314 1
71 31 1
71 79 1
71 95 1
71 155 1
71 199 1
71 231 2
71 255 1
71 315 1
72 32 1
72 80 1
72 96 1
72 156 1
72 200 1
72 232 2
72 256 1
72 316 1
73 33 1
73 41 1
73 97 1
73 157 1
73 161 1
73 233 2
73 257 1
73 317 1
74 34 1
74 42 1
74 98 1
74 158 1
74 162 1
74 234 2
74 258 1
74 318 1
75 35 1
75 43 1
75 99 1
75 159 1
75 163 1
75 235 2
75 259 1
75 319 1
76 36 1
76 44 1
76 100 1
76 160 1
76 164 1
76 236 2
76 260 1
76 320 1
77 37 1
77 45 1
77 101 1
77 121 1
77 165 1
77 237 2
77 261 1
77 281 1
78 38 1
78 46 1
78 102 1
78 122 1
78 166 1
78 238 2
78 262 1
78 282 1
79 39 1
79 47 1
79 103 1
79 123 1
79 167 1
79 239 2
79 263 1
79 283 1
80 40 1
80 48 1
80 104 1
80 124 1
80 168 1
80 240 2
80 264 1
80 284 1
81 1 1
81 77 1
81 84 1
81 124 1
81 195 1
81 237 1
81 241 2
81 315 1
82 2 1
82 78 1
82 85 1
82 125 1
82 196 1
82 238 1
82 242 2
82 316 1
83 3 1
83 79 1
83 86 1
83 126 1
83 197 1
83 239 1
83 243 2
83 317 1
84 4 1
84 80 1
84 87 1
84 127 1
84 198 1
84 240 1
84 244 2
84 318 1
85 5 1
85 41 1
85 88 1
85 128 1
85 199 1
85 201 1
85 245 2
85 319 1
86 6 1
86 42 1
86 89 1
86 129 1
86 200 1
86 202 1
86 246 2
86 320 1
87 7 1
87 43 1
87 90 1
87 130 1
87 161 1
87 203 1
87 247 2
87 281 1
88 8 1
88 44 1
88 91 1
88 131 1
88 162 1
88 204 1
88 248 2
88 282 1
89 9 1
89 45 1
89 92 1
89 132 1
89 163 1
89 205 1
89 249 2
89 283 1
90 10 1
90 46 1
90 93 1
90 133 1
90 164 1
90 206 1
90 250 2
90 284 1
91 11 1
91 47 1
91 94 1
91 134 1
91 165 1
91 207 1
91 251 2
91 285 1
92 12 1
92 48 1
92 95 1
92 135 1
92 166 1
92 208 1
92 252 2
92 286 1
93 13 1
93 49 1
93 96 1
93 136 1
93 167 1
93 209 1
93 253 2
93 287 1
94 14 1
94 50 1
94 97 1
94 137 1
94 168 1
94 210 1
94 254 2
94 288 1
95 15 1
95 51 1
95 98 1
95 138 1
95 169 1
95 211 1
95 255 2
95 289 1
96 16 1
96 52 1
96 99 1
96 139 1
96 170 1
96 212 1
96 256 2
96 290 1
97 17 1
97 53 1
97 100 1
97 140 1
97 171 1
97 213 1
97 257 2
97 291 1
98 18 1
98 54 1
98 101 1
98 141 1
98 172 1
98 214 1
98 258 2
98 292 1
99 19 1
99 55 1
99 102 1
99 142 1
99 173 1
99 215 1
99 259 2
99 293 1
100 20 1
100 56 1
100 103 1
100 143 1
100 174 1
100 216 1
100 260 2
100 294 1
101 21 1
101 57 1
101 104 1
101 144 1
101 175 1
101 217 1
101 261 2
101 295 1
102 22 1
102 58 1
102 105 1
102 145 1
102 176 1
102 218 1
102 262 2
102 296 1
103 23 1
103 59 1
103 106 1
103 146 1
103 177 1
103 219 1
103 263 2
103 297 1
104 24 1
104 60 1
104 107 1
104 147 1
104 178 1
104 220 1
104 264 2
104 298 1
105 25 1
105 61 1
105 108 1
105 148 1
105 179 1
105 221 1
105 265 2
105 299 1
106 26 1
106 62 1
106 109 1
106 149 1
106 180 1
106 222 1
106 266 2
106 300 1
107 27 1
107 63 1
107 110 1
107 150 1
107 181 1
107 223 1
107 267 2
107 301 1
108 28 1
108 64 1
108 111 1
108 151 1
108 182 1
108 224 1
108 268 2
108 302 1
109 29 1
109 65 1
109 112 1
109 152 1
109 183 1
109 225 1
109 269 2
109 303 1
110 30 1
110 66 1
110 113 1
110 153 1
110 184 1
110 226 1
110 270 2
110 304 1
111 31 1
111 67 1
111 114 1
111 154 1
111 185 1
111 227 1
111 271 2
111 305 1
112 32 1
112 68 1
112 115 1
112 155 1
112 186 1
112 228 1
112 272 2
112 306 1
113 33 1
113 69 1
113 116 1
113 156 1
113 187 1
113 229 1
113 273 2
113 307 1
114 34 1
114 70 1
114 117 1
114 157 1
114 188 1
114 230 1
114 274 2
114 308 1
115 35 1
115 71 1
115 118 1
115 158 1
115 189 1
115 231 1
115 275 2
115 309 1
116 36 1
116 72 1
116 119 1
116 159 1
116 190 1
116 232 1
116 276 2
116 310 1
117 37 1
117 73 1
117 120 1
117 160 1
117 191 1
117 233 1
117 277 2
117 311 1
118 38 1
118 74 1
118 81 1
118 121 1
118 192 1
118 234 1
118 278 2
118 312 1
119 39 1
119 75 1
119 82 1
119 122 1
119 193 1
119 235 1
119 279 2
119 313 1
120 40 1
120 76 1
120 83 1
120 123 1
120 194 1
120 236 1
120 280 2
120 314 1
