%%MatrixMarket matrix coordinate integer general
% Binary matrix over GF(2).
% Coordinate indices are 1-based; omitted entries are zero.
160 640 4760
1 162 1
1 181 1
1 195 1
1 202 1
1 221 1
1 235 1
1 236 1
1 261 1
1 275 1
1 282 1
1 289 1
1 310 1
1 315 1
1 316 1
1 323 1
1 344 1
1 363 1
1 372 1
1 377 1
1 389 1
1 407 1
1 428 1
1 435 1
1 461 1
1 468 1
1 473 1
2 164 1
2 183 1
2 197 1
2 204 1
2 223 1
2 237 1
2 238 1
2 263 1
2 277 1
2 284 1
2 291 1
2 312 1
2 317 1
2 318 1
2 325 1
2 346 1
2 365 1
2 374 1
2 379 1
2 391 1
2 409 1
2 430 1
2 437 1
2 463 1
2 470 1
2 475 1
3 166 1
3 185 1
3 199 1
3 206 1
3 225 1
3 239 1
3 240 1
3 265 1
3 279 1
3 286 1
3 293 1
3 314 1
3 319 1
3 320 1
3 327 1
3 348 1
3 367 1
3 376 1
3 381 1
3 393 1
3 411 1
3 432 1
3 439 1
3 465 1
3 472 1
3 477 1
4 161 1
4 162 1
4 168 1
4 187 1
4 201 1
4 208 1
4 227 1
4 241 1
4 242 1
4 267 1
4 281 1
4 288 1
4 295 1
4 316 1
4 329 1
4 350 1
4 369 1
4 378 1
4 383 1
4 395 1
4 413 1
4 434 1
4 441 1
4 467 1
4 474 1
4 479 1
5 163 1
5 164 1
5 170 1
5 189 1
5 203 1
5 210 1
5 229 1
5 243 1
5 244 1
5 269 1
5 283 1
5 290 1
5 297 1
5 318 1
5 331 1
5 352 1
5 371 1
5 380 1
5 385 1
5 397 1
5 401 1
5 415 1
5 436 1
5 443 1
5 469 1
5 476 1
6 165 1
6 166 1
6 172 1
6 191 1
6 205 1
6 212 1
6 231 1
6 245 1
6 246 1
6 271 1
6 285 1
6 292 1
6 299 1
6 320 1
6 333 1
6 354 1
6 373 1
6 382 1
6 387 1
6 399 1
6 403 1
6 417 1
6 438 1
6 445 1
6 471 1
6 478 1
7 167 1
7 168 1
7 174 1
7 193 1
7 207 1
7 214 1
7 233 1
7 242 1
7 247 1
7 248 1
7 273 1
7 287 1
7 294 1
7 301 1
7 321 1
7 335 1
7 356 1
7 375 1
7 384 1
7 389 1
7 405 1
7 419 1
7 440 1
7 447 1
7 473 1
7 480 1
8 169 1
8 170 1
8 176 1
8 195 1
8 209 1
8 216 1
8 235 1
8 244 1
8 249 1
8 250 1
8 275 1
8 289 1
8 296 1
8 303 1
8 323 1
8 337 1
8 358 1
8 377 1
8 386 1
8 391 1
8 402 1
8 407 1
8 421 1
8 442 1
8 449 1
8 475 1
9 171 1
9 172 1
9 178 1
9 197 1
9 211 1
9 218 1
9 237 1
9 246 1
9 251 1
9 252 1
9 277 1
9 291 1
9 298 1
9 305 1
9 325 1
9 339 1
9 360 1
9 379 1
9 388 1
9 393 1
9 404 1
9 409 1
9 423 1
9 444 1
9 451 1
9 477 1
10 173 1
10 174 1
10 180 1
10 199 1
10 213 1
10 220 1
10 239 1
10 248 1
10 253 1
10 254 1
10 279 1
10 293 1
10 300 1
10 307 1
10 327 1
10 341 1
10 362 1
10 381 1
10 390 1
10 395 1
10 406 1
10 411 1
10 425 1
10 446 1
10 453 1
10 479 1
11 161 1
11 175 1
11 176 1
11 182 1
11 201 1
11 215 1
11 222 1
11 250 1
11 255 1
11 256 1
11 281 1
11 295 1
11 302 1
11 309 1
11 329 1
11 343 1
11 364 1
11 383 1
11 392 1
11 397 1
11 401 1
11 408 1
11 413 1
11 427 1
11 448 1
11 455 1
12 163 1
12 177 1
12 178 1
12 184 1
12 203 1
12 217 1
12 224 1
12 252 1
12 257 1
12 258 1
12 283 1
12 297 1
12 304 1
12 311 1
12 331 1
12 345 1
12 366 1
12 385 1
12 394 1
12 399 1
12 403 1
12 410 1
12 415 1
12 429 1
12 450 1
12 457 1
13 165 1
13 179 1
13 180 1
13 186 1
13 205 1
13 219 1
13 226 1
13 254 1
13 259 1
13 260 1
13 285 1
13 299 1
13 306 1
13 313 1
13 321 1
13 333 1
13 347 1
13 368 1
13 387 1
13 396 1
13 405 1
13 412 1
13 417 1
13 431 1
13 452 1
13 459 1
14 167 1
14 181 1
14 182 1
14 188 1
14 207 1
14 221 1
14 228 1
14 256 1
14 261 1
14 262 1
14 287 1
14 301 1
14 308 1
14 315 1
14 323 1
14 335 1
14 349 1
14 370 1
14 389 1
14 398 1
14 407 1
14 414 1
14 419 1
14 433 1
14 454 1
14 461 1
15 169 1
15 183 1
15 184 1
15 190 1
15 209 1
15 223 1
15 230 1
15 258 1
15 263 1
15 264 1
15 289 1
15 303 1
15 310 1
15 317 1
15 325 1
15 337 1
15 351 1
15 372 1
15 391 1
15 400 1
15 409 1
15 416 1
15 421 1
15 435 1
15 456 1
15 463 1
16 171 1
16 185 1
16 186 1
16 192 1
16 211 1
16 225 1
16 232 1
16 260 1
16 265 1
16 266 1
16 291 1
16 305 1
16 312 1
16 319 1
16 322 1
16 327 1
16 339 1
16 353 1
16 374 1
16 393 1
16 411 1
16 418 1
16 423 1
16 437 1
16 458 1
16 465 1
17 173 1
17 187 1
17 188 1
17 194 1
17 213 1
17 227 1
17 234 1
17 241 1
17 262 1
17 267 1
17 268 1
17 293 1
17 307 1
17 314 1
17 324 1
17 329 1
17 341 1
17 355 1
17 376 1
17 395 1
17 413 1
17 420 1
17 425 1
17 439 1
17 460 1
17 467 1
18 175 1
18 189 1
18 190 1
18 196 1
18 215 1
18 229 1
18 236 1
18 243 1
18 264 1
18 269 1
18 270 1
18 295 1
18 309 1
18 316 1
18 326 1
18 331 1
18 343 1
18 357 1
18 378 1
18 397 1
18 415 1
18 422 1
18 427 1
18 441 1
18 462 1
18 469 1
19 177 1
19 191 1
19 192 1
19 198 1
19 217 1
19 231 1
19 238 1
19 245 1
19 266 1
19 271 1
19 272 1
19 297 1
19 311 1
19 318 1
19 328 1
19 333 1
19 345 1
19 359 1
19 380 1
19 399 1
19 417 1
19 424 1
19 429 1
19 443 1
19 464 1
19 471 1
20 179 1
20 193 1
20 194 1
20 200 1
20 219 1
20 233 1
20 240 1
20 247 1
20 268 1
20 273 1
20 274 1
20 299 1
20 313 1
20 320 1
20 321 1
20 330 1
20 335 1
20 347 1
20 361 1
20 382 1
20 419 1
20 426 1
20 431 1
20 445 1
20 466 1
20 473 1
21 162 1
21 181 1
21 195 1
21 196 1
21 202 1
21 221 1
21 235 1
21 242 1
21 249 1
21 270 1
21 275 1
21 276 1
21 301 1
21 315 1
21 323 1
21 332 1
21 337 1
21 349 1
21 363 1
21 384 1
21 421 1
21 428 1
21 433 1
21 447 1
21 468 1
21 475 1
22 164 1
22 183 1
22 197 1
22 198 1
22 204 1
22 223 1
22 237 1
22 244 1
22 251 1
22 272 1
22 277 1
22 278 1
22 303 1
22 317 1
22 325 1
22 334 1
22 339 1
22 351 1
22 365 1
22 386 1
22 423 1
22 430 1
22 435 1
22 449 1
22 470 1
22 477 1
23 166 1
23 185 1
23 199 1
23 200 1
23 206 1
23 225 1
23 239 1
23 246 1
23 253 1
23 274 1
23 279 1
23 280 1
23 305 1
23 319 1
23 327 1
23 336 1
23 341 1
23 353 1
23 367 1
23 388 1
23 425 1
23 432 1
23 437 1
23 451 1
23 472 1
23 479 1
24 161 1
24 168 1
24 187 1
24 201 1
24 202 1
24 208 1
24 227 1
24 241 1
24 248 1
24 255 1
24 276 1
24 281 1
24 282 1
24 307 1
24 329 1
24 338 1
24 343 1
24 355 1
24 369 1
24 390 1
24 401 1
24 427 1
24 434 1
24 439 1
24 453 1
24 474 1
25 163 1
25 170 1
25 189 1
25 203 1
25 204 1
25 210 1
25 229 1
25 243 1
25 250 1
25 257 1
25 278 1
25 283 1
25 284 1
25 309 1
25 331 1
25 340 1
25 345 1
25 357 1
25 371 1
25 392 1
25 403 1
25 429 1
25 436 1
25 441 1
25 455 1
25 476 1
26 165 1
26 172 1
26 191 1
26 205 1
26 206 1
26 212 1
26 231 1
26 245 1
26 252 1
26 259 1
26 280 1
26 285 1
26 286 1
26 311 1
26 333 1
26 342 1
26 347 1
26 359 1
26 373 1
26 394 1
26 405 1
26 431 1
26 438 1
26 443 1
26 457 1
26 478 1
27 167 1
27 174 1
27 193 1
27 207 1
27 208 1
27 214 1
27 233 1
27 247 1
27 254 1
27 261 1
27 282 1
27 287 1
27 288 1
27 313 1
27 335 1
27 344 1
27 349 1
27 361 1
27 375 1
27 396 1
27 407 1
27 433 1
27 440 1
27 445 1
27 459 1
27 480 1
28 169 1
28 176 1
28 195 1
28 209 1
28 210 1
28 216 1
28 235 1
28 249 1
28 256 1
28 263 1
28 284 1
28 289 1
28 290 1
28 315 1
28 337 1
28 346 1
28 351 1
28 363 1
28 377 1
28 398 1
28 402 1
28 409 1
28 435 1
28 442 1
28 447 1
28 461 1
29 171 1
29 178 1
29 197 1
29 211 1
29 212 1
29 218 1
29 237 1
29 251 1
29 258 1
29 265 1
29 286 1
29 291 1
29 292 1
29 317 1
29 339 1
29 348 1
29 353 1
29 365 1
29 379 1
29 400 1
29 404 1
29 411 1
29 437 1
29 444 1
29 449 1
29 463 1
30 173 1
30 180 1
30 199 1
30 213 1
30 214 1
30 220 1
30 239 1
30 253 1
30 260 1
30 267 1
30 288 1
30 293 1
30 294 1
30 319 1
30 322 1
30 341 1
30 350 1
30 355 1
30 367 1
30 381 1
30 406 1
30 413 1
30 439 1
30 446 1
30 451 1
30 465 1
31 161 1
31 175 1
31 182 1
31 201 1
31 215 1
31 216 1
31 222 1
31 241 1
31 255 1
31 262 1
31 269 1
31 290 1
31 295 1
31 296 1
31 324 1
31 343 1
31 352 1
31 357 1
31 369 1
31 383 1
31 408 1
31 415 1
31 441 1
31 448 1
31 453 1
31 467 1
32 163 1
32 177 1
32 184 1
32 203 1
32 217 1
32 218 1
32 224 1
32 243 1
32 257 1
32 264 1
32 271 1
32 292 1
32 297 1
32 298 1
32 326 1
32 345 1
32 354 1
32 359 1
32 371 1
32 385 1
32 410 1
32 417 1
32 443 1
32 450 1
32 455 1
32 469 1
33 165 1
33 179 1
33 186 1
33 205 1
33 219 1
33 220 1
33 226 1
33 245 1
33 259 1
33 266 1
33 273 1
33 294 1
33 299 1
33 300 1
33 328 1
33 347 1
33 356 1
33 361 1
33 373 1
33 387 1
33 412 1
33 419 1
33 445 1
33 452 1
33 457 1
33 471 1
34 167 1
34 181 1
34 188 1
34 207 1
34 221 1
34 222 1
34 228 1
34 247 1
34 261 1
34 268 1
34 275 1
34 296 1
34 301 1
34 302 1
34 330 1
34 349 1
34 358 1
34 363 1
34 375 1
34 389 1
34 414 1
34 421 1
34 447 1
34 454 1
34 459 1
34 473 1
35 169 1
35 183 1
35 190 1
35 209 1
35 223 1
35 224 1
35 230 1
35 249 1
35 263 1
35 270 1
35 277 1
35 298 1
35 303 1
35 304 1
35 332 1
35 351 1
35 360 1
35 365 1
35 377 1
35 391 1
35 416 1
35 423 1
35 449 1
35 456 1
35 461 1
35 475 1
36 171 1
36 185 1
36 192 1
36 211 1
36 225 1
36 226 1
36 232 1
36 251 1
36 265 1
36 272 1
36 279 1
36 300 1
36 305 1
36 306 1
36 334 1
36 353 1
36 362 1
36 367 1
36 379 1
36 393 1
36 418 1
36 425 1
36 451 1
36 458 1
36 463 1
36 477 1
37 173 1
37 187 1
37 194 1
37 213 1
37 227 1
37 228 1
37 234 1
37 253 1
37 267 1
37 274 1
37 281 1
37 302 1
37 307 1
37 308 1
37 336 1
37 355 1
37 364 1
37 369 1
37 381 1
37 395 1
37 420 1
37 427 1
37 453 1
37 460 1
37 465 1
37 479 1
38 175 1
38 189 1
38 196 1
38 215 1
38 229 1
38 230 1
38 236 1
38 255 1
38 269 1
38 276 1
38 283 1
38 304 1
38 309 1
38 310 1
38 338 1
38 357 1
38 366 1
38 371 1
38 383 1
38 397 1
38 401 1
38 422 1
38 429 1
38 455 1
38 462 1
38 467 1
39 177 1
39 191 1
39 198 1
39 217 1
39 231 1
39 232 1
39 238 1
39 257 1
39 271 1
39 278 1
39 285 1
39 306 1
39 311 1
39 312 1
39 340 1
39 359 1
39 368 1
39 373 1
39 385 1
39 399 1
39 403 1
39 424 1
39 431 1
39 457 1
39 464 1
39 469 1
40 179 1
40 193 1
40 200 1
40 219 1
40 233 1
40 234 1
40 240 1
40 259 1
40 273 1
40 280 1
40 287 1
40 308 1
40 313 1
40 314 1
40 321 1
40 342 1
40 361 1
40 370 1
40 375 1
40 387 1
40 405 1
40 426 1
40 433 1
40 459 1
40 466 1
40 471 1
41 161 1
41 162 1
41 182 1
41 196 1
41 201 1
41 202 1
41 222 1
41 235 1
41 262 1
41 276 1
41 281 1
41 282 1
41 290 1
41 309 1
41 310 1
41 315 1
41 324 1
41 343 1
41 344 1
41 364 1
41 371 1
41 372 1
41 378 1
41 390 1
41 408 1
41 427 1
41 428 1
41 436 1
41 462 1
41 467 1
41 468 1
41 474 1
42 163 1
42 164 1
42 184 1
42 198 1
42 203 1
42 204 1
42 224 1
42 237 1
42 264 1
42 278 1
42 283 1
42 284 1
42 292 1
42 311 1
42 312 1
42 317 1
42 326 1
42 345 1
42 346 1
42 366 1
42 373 1
42 374 1
42 380 1
42 392 1
42 410 1
42 429 1
42 430 1
42 438 1
42 464 1
42 469 1
42 470 1
42 476 1
43 165 1
43 166 1
43 186 1
43 200 1
43 205 1
43 206 1
43 226 1
43 239 1
43 266 1
43 280 1
43 285 1
43 286 1
43 294 1
43 313 1
43 314 1
43 319 1
43 328 1
43 347 1
43 348 1
43 368 1
43 375 1
43 376 1
43 382 1
43 394 1
43 412 1
43 431 1
43 432 1
43 440 1
43 466 1
43 471 1
43 472 1
43 478 1
44 161 1
44 167 1
44 168 1
44 188 1
44 202 1
44 207 1
44 208 1
44 228 1
44 241 1
44 268 1
44 282 1
44 287 1
44 288 1
44 296 1
44 315 1
44 316 1
44 330 1
44 349 1
44 350 1
44 370 1
44 377 1
44 378 1
44 384 1
44 396 1
44 414 1
44 433 1
44 434 1
44 442 1
44 468 1
44 473 1
44 474 1
44 480 1
45 163 1
45 169 1
45 170 1
45 190 1
45 204 1
45 209 1
45 210 1
45 230 1
45 243 1
45 270 1
45 284 1
45 289 1
45 290 1
45 298 1
45 317 1
45 318 1
45 332 1
45 351 1
45 352 1
45 372 1
45 379 1
45 380 1
45 386 1
45 398 1
45 402 1
45 416 1
45 435 1
45 436 1
45 444 1
45 470 1
45 475 1
45 476 1
46 165 1
46 171 1
46 172 1
46 192 1
46 206 1
46 211 1
46 212 1
46 232 1
46 245 1
46 272 1
46 286 1
46 291 1
46 292 1
46 300 1
46 319 1
46 320 1
46 334 1
46 353 1
46 354 1
46 374 1
46 381 1
46 382 1
46 388 1
46 400 1
46 404 1
46 418 1
46 437 1
46 438 1
46 446 1
46 472 1
46 477 1
46 478 1
47 167 1
47 173 1
47 174 1
47 194 1
47 208 1
47 213 1
47 214 1
47 234 1
47 241 1
47 242 1
47 247 1
47 274 1
47 288 1
47 293 1
47 294 1
47 302 1
47 322 1
47 336 1
47 355 1
47 356 1
47 376 1
47 383 1
47 384 1
47 390 1
47 406 1
47 420 1
47 439 1
47 440 1
47 448 1
47 474 1
47 479 1
47 480 1
48 169 1
48 175 1
48 176 1
48 196 1
48 210 1
48 215 1
48 216 1
48 236 1
48 243 1
48 244 1
48 249 1
48 276 1
48 290 1
48 295 1
48 296 1
48 304 1
48 324 1
48 338 1
48 357 1
48 358 1
48 378 1
48 385 1
48 386 1
48 392 1
48 401 1
48 402 1
48 408 1
48 422 1
48 441 1
48 442 1
48 450 1
48 476 1
49 171 1
49 177 1
49 178 1
49 198 1
49 212 1
49 217 1
49 218 1
49 238 1
49 245 1
49 246 1
49 251 1
49 278 1
49 292 1
49 297 1
49 298 1
49 306 1
49 326 1
49 340 1
49 359 1
49 360 1
49 380 1
49 387 1
49 388 1
49 394 1
49 403 1
49 404 1
49 410 1
49 424 1
49 443 1
49 444 1
49 452 1
49 478 1
50 173 1
50 179 1
50 180 1
50 200 1
50 214 1
50 219 1
50 220 1
50 240 1
50 247 1
50 248 1
50 253 1
50 280 1
50 294 1
50 299 1
50 300 1
50 308 1
50 328 1
50 342 1
50 361 1
50 362 1
50 382 1
50 389 1
50 390 1
50 396 1
50 405 1
50 406 1
50 412 1
50 426 1
50 445 1
50 446 1
50 454 1
50 480 1
51 162 1
51 175 1
51 181 1
51 182 1
51 202 1
51 216 1
51 221 1
51 222 1
51 249 1
51 250 1
51 255 1
51 282 1
51 296 1
51 301 1
51 302 1
51 310 1
51 330 1
51 344 1
51 363 1
51 364 1
51 384 1
51 391 1
51 392 1
51 398 1
51 402 1
51 407 1
51 408 1
51 414 1
51 428 1
51 447 1
51 448 1
51 456 1
52 164 1
52 177 1
52 183 1
52 184 1
52 204 1
52 218 1
52 223 1
52 224 1
52 251 1
52 252 1
52 257 1
52 284 1
52 298 1
52 303 1
52 304 1
52 312 1
52 332 1
52 346 1
52 365 1
52 366 1
52 386 1
52 393 1
52 394 1
52 400 1
52 404 1
52 409 1
52 410 1
52 416 1
52 430 1
52 449 1
52 450 1
52 458 1
53 166 1
53 179 1
53 185 1
53 186 1
53 206 1
53 220 1
53 225 1
53 226 1
53 253 1
53 254 1
53 259 1
53 286 1
53 300 1
53 305 1
53 306 1
53 314 1
53 322 1
53 334 1
53 348 1
53 367 1
53 368 1
53 388 1
53 395 1
53 396 1
53 406 1
53 411 1
53 412 1
53 418 1
53 432 1
53 451 1
53 452 1
53 460 1
54 168 1
54 181 1
54 187 1
54 188 1
54 208 1
54 222 1
54 227 1
54 228 1
54 255 1
54 256 1
54 261 1
54 288 1
54 302 1
54 307 1
54 308 1
54 316 1
54 324 1
54 336 1
54 350 1
54 369 1
54 370 1
54 390 1
54 397 1
54 398 1
54 408 1
54 413 1
54 414 1
54 420 1
54 434 1
54 453 1
54 454 1
54 462 1
55 170 1
55 183 1
55 189 1
55 190 1
55 210 1
55 224 1
55 229 1
55 230 1
55 257 1
55 258 1
55 263 1
55 290 1
55 304 1
55 309 1
55 310 1
55 318 1
55 326 1
55 338 1
55 352 1
55 371 1
55 372 1
55 392 1
55 399 1
55 400 1
55 410 1
55 415 1
55 416 1
55 422 1
55 436 1
55 455 1
55 456 1
55 464 1
56 172 1
56 185 1
56 191 1
56 192 1
56 212 1
56 226 1
56 231 1
56 232 1
56 259 1
56 260 1
56 265 1
56 292 1
56 306 1
56 311 1
56 312 1
56 320 1
56 321 1
56 322 1
56 328 1
56 340 1
56 354 1
56 373 1
56 374 1
56 394 1
56 412 1
56 417 1
56 418 1
56 424 1
56 438 1
56 457 1
56 458 1
56 466 1
57 174 1
57 187 1
57 193 1
57 194 1
57 214 1
57 228 1
57 233 1
57 234 1
57 242 1
57 261 1
57 262 1
57 267 1
57 294 1
57 308 1
57 313 1
57 314 1
57 323 1
57 324 1
57 330 1
57 342 1
57 356 1
57 375 1
57 376 1
57 396 1
57 414 1
57 419 1
57 420 1
57 426 1
57 440 1
57 459 1
57 460 1
57 468 1
58 176 1
58 189 1
58 195 1
58 196 1
58 216 1
58 230 1
58 235 1
58 236 1
58 244 1
58 263 1
58 264 1
58 269 1
58 296 1
58 310 1
58 315 1
58 316 1
58 325 1
58 326 1
58 332 1
58 344 1
58 358 1
58 377 1
58 378 1
58 398 1
58 416 1
58 421 1
58 422 1
58 428 1
58 442 1
58 461 1
58 462 1
58 470 1
59 178 1
59 191 1
59 197 1
59 198 1
59 218 1
59 232 1
59 237 1
59 238 1
59 246 1
59 265 1
59 266 1
59 271 1
59 298 1
59 312 1
59 317 1
59 318 1
59 327 1
59 328 1
59 334 1
59 346 1
59 360 1
59 379 1
59 380 1
59 400 1
59 418 1
59 423 1
59 424 1
59 430 1
59 444 1
59 463 1
59 464 1
59 472 1
60 180 1
60 193 1
60 199 1
60 200 1
60 220 1
60 234 1
60 239 1
60 240 1
60 248 1
60 267 1
60 268 1
60 273 1
60 300 1
60 314 1
60 319 1
60 320 1
60 322 1
60 329 1
60 330 1
60 336 1
60 348 1
60 362 1
60 381 1
60 382 1
60 420 1
60 425 1
60 426 1
60 432 1
60 446 1
60 465 1
60 466 1
60 474 1
61 161 1
61 162 1
61 182 1
61 195 1
61 201 1
61 202 1
61 222 1
61 236 1
61 241 1
61 242 1
61 250 1
61 269 1
61 270 1
61 275 1
61 302 1
61 316 1
61 324 1
61 331 1
61 332 1
61 338 1
61 350 1
61 364 1
61 383 1
61 384 1
61 422 1
61 427 1
61 428 1
61 434 1
61 448 1
61 467 1
61 468 1
61 476 1
62 163 1
62 164 1
62 184 1
62 197 1
62 203 1
62 204 1
62 224 1
62 238 1
62 243 1
62 244 1
62 252 1
62 271 1
62 272 1
62 277 1
62 304 1
62 318 1
62 326 1
62 333 1
62 334 1
62 340 1
62 352 1
62 366 1
62 385 1
62 386 1
62 424 1
62 429 1
62 430 1
62 436 1
62 450 1
62 469 1
62 470 1
62 478 1
63 165 1
63 166 1
63 186 1
63 199 1
63 205 1
63 206 1
63 226 1
63 240 1
63 245 1
63 246 1
63 254 1
63 273 1
63 274 1
63 279 1
63 306 1
63 320 1
63 328 1
63 335 1
63 336 1
63 342 1
63 354 1
63 368 1
63 387 1
63 388 1
63 426 1
63 431 1
63 432 1
63 438 1
63 452 1
63 471 1
63 472 1
63 480 1
64 162 1
64 167 1
64 168 1
64 188 1
64 201 1
64 207 1
64 208 1
64 228 1
64 242 1
64 247 1
64 248 1
64 256 1
64 275 1
64 276 1
64 281 1
64 308 1
64 330 1
64 337 1
64 338 1
64 344 1
64 356 1
64 370 1
64 389 1
64 390 1
64 402 1
64 428 1
64 433 1
64 434 1
64 440 1
64 454 1
64 473 1
64 474 1
65 164 1
65 169 1
65 170 1
65 190 1
65 203 1
65 209 1
65 210 1
65 230 1
65 244 1
65 249 1
65 250 1
65 258 1
65 277 1
65 278 1
65 283 1
65 310 1
65 332 1
65 339 1
65 340 1
65 346 1
65 358 1
65 372 1
65 391 1
65 392 1
65 404 1
65 430 1
65 435 1
65 436 1
65 442 1
65 456 1
65 475 1
65 476 1
66 166 1
66 171 1
66 172 1
66 192 1
66 205 1
66 211 1
66 212 1
66 232 1
66 246 1
66 251 1
66 252 1
66 260 1
66 279 1
66 280 1
66 285 1
66 312 1
66 334 1
66 341 1
66 342 1
66 348 1
66 360 1
66 374 1
66 393 1
66 394 1
66 406 1
66 432 1
66 437 1
66 438 1
66 444 1
66 458 1
66 477 1
66 478 1
67 168 1
67 173 1
67 174 1
67 194 1
67 207 1
67 213 1
67 214 1
67 234 1
67 248 1
67 253 1
67 254 1
67 262 1
67 281 1
67 282 1
67 287 1
67 314 1
67 336 1
67 343 1
67 344 1
67 350 1
67 362 1
67 376 1
67 395 1
67 396 1
67 408 1
67 434 1
67 439 1
67 440 1
67 446 1
67 460 1
67 479 1
67 480 1
68 170 1
68 175 1
68 176 1
68 196 1
68 209 1
68 215 1
68 216 1
68 236 1
68 250 1
68 255 1
68 256 1
68 264 1
68 283 1
68 284 1
68 289 1
68 316 1
68 338 1
68 345 1
68 346 1
68 352 1
68 364 1
68 378 1
68 397 1
68 398 1
68 401 1
68 402 1
68 410 1
68 436 1
68 441 1
68 442 1
68 448 1
68 462 1
69 172 1
69 177 1
69 178 1
69 198 1
69 211 1
69 217 1
69 218 1
69 238 1
69 252 1
69 257 1
69 258 1
69 266 1
69 285 1
69 286 1
69 291 1
69 318 1
69 340 1
69 347 1
69 348 1
69 354 1
69 366 1
69 380 1
69 399 1
69 400 1
69 403 1
69 404 1
69 412 1
69 438 1
69 443 1
69 444 1
69 450 1
69 464 1
70 174 1
70 179 1
70 180 1
70 200 1
70 213 1
70 219 1
70 220 1
70 240 1
70 254 1
70 259 1
70 260 1
70 268 1
70 287 1
70 288 1
70 293 1
70 320 1
70 321 1
70 322 1
70 342 1
70 349 1
70 350 1
70 356 1
70 368 1
70 382 1
70 405 1
70 406 1
70 414 1
70 440 1
70 445 1
70 446 1
70 452 1
70 466 1
71 162 1
71 176 1
71 181 1
71 182 1
71 202 1
71 215 1
71 221 1
71 222 1
71 242 1
71 256 1
71 261 1
71 262 1
71 270 1
71 289 1
71 290 1
71 295 1
71 323 1
71 324 1
71 344 1
71 351 1
71 352 1
71 358 1
71 370 1
71 384 1
71 407 1
71 408 1
71 416 1
71 442 1
71 447 1
71 448 1
71 454 1
71 468 1
72 164 1
72 178 1
72 183 1
72 184 1
72 204 1
72 217 1
72 223 1
72 224 1
72 244 1
72 258 1
72 263 1
72 264 1
72 272 1
72 291 1
72 292 1
72 297 1
72 325 1
72 326 1
72 346 1
72 353 1
72 354 1
72 360 1
72 372 1
72 386 1
72 409 1
72 410 1
72 418 1
72 444 1
72 449 1
72 450 1
72 456 1
72 470 1
73 166 1
73 180 1
73 185 1
73 186 1
73 206 1
73 219 1
73 225 1
73 226 1
73 246 1
73 260 1
73 265 1
73 266 1
73 274 1
73 293 1
73 294 1
73 299 1
73 327 1
73 328 1
73 348 1
73 355 1
73 356 1
73 362 1
73 374 1
73 388 1
73 411 1
73 412 1
73 420 1
73 446 1
73 451 1
73 452 1
73 458 1
73 472 1
74 168 1
74 182 1
74 187 1
74 188 1
74 208 1
74 221 1
74 227 1
74 228 1
74 248 1
74 262 1
74 267 1
74 268 1
74 276 1
74 295 1
74 296 1
74 301 1
74 329 1
74 330 1
74 350 1
74 357 1
74 358 1
74 364 1
74 376 1
74 390 1
74 413 1
74 414 1
74 422 1
74 448 1
74 453 1
74 454 1
74 460 1
74 474 1
75 170 1
75 184 1
75 189 1
75 190 1
75 210 1
75 223 1
75 229 1
75 230 1
75 250 1
75 264 1
75 269 1
75 270 1
75 278 1
75 297 1
75 298 1
75 303 1
75 331 1
75 332 1
75 352 1
75 359 1
75 360 1
75 366 1
75 378 1
75 392 1
75 415 1
75 416 1
75 424 1
75 450 1
75 455 1
75 456 1
75 462 1
75 476 1
76 172 1
76 186 1
76 191 1
76 192 1
76 212 1
76 225 1
76 231 1
76 232 1
76 252 1
76 266 1
76 271 1
76 272 1
76 280 1
76 299 1
76 300 1
76 305 1
76 333 1
76 334 1
76 354 1
76 361 1
76 362 1
76 368 1
76 380 1
76 394 1
76 417 1
76 418 1
76 426 1
76 452 1
76 457 1
76 458 1
76 464 1
76 478 1
77 174 1
77 188 1
77 193 1
77 194 1
77 214 1
77 227 1
77 233 1
77 234 1
77 254 1
77 268 1
77 273 1
77 274 1
77 282 1
77 301 1
77 302 1
77 307 1
77 335 1
77 336 1
77 356 1
77 363 1
77 364 1
77 370 1
77 382 1
77 396 1
77 419 1
77 420 1
77 428 1
77 454 1
77 459 1
77 460 1
77 466 1
77 480 1
78 176 1
78 190 1
78 195 1
78 196 1
78 216 1
78 229 1
78 235 1
78 236 1
78 256 1
78 270 1
78 275 1
78 276 1
78 284 1
78 303 1
78 304 1
78 309 1
78 337 1
78 338 1
78 358 1
78 365 1
78 366 1
78 372 1
78 384 1
78 398 1
78 402 1
78 421 1
78 422 1
78 430 1
78 456 1
78 461 1
78 462 1
78 468 1
79 178 1
79 192 1
79 197 1
79 198 1
79 218 1
79 231 1
79 237 1
79 238 1
79 258 1
79 272 1
79 277 1
79 278 1
79 286 1
79 305 1
79 306 1
79 311 1
79 339 1
79 340 1
79 360 1
79 367 1
79 368 1
79 374 1
79 386 1
79 400 1
79 404 1
79 423 1
79 424 1
79 432 1
79 458 1
79 463 1
79 464 1
79 470 1
80 180 1
80 194 1
80 199 1
80 200 1
80 220 1
80 233 1
80 239 1
80 240 1
80 260 1
80 274 1
80 279 1
80 280 1
80 288 1
80 307 1
80 308 1
80 313 1
80 322 1
80 341 1
80 342 1
80 362 1
80 369 1
80 370 1
80 376 1
80 388 1
80 406 1
80 425 1
80 426 1
80 434 1
80 460 1
80 465 1
80 466 1
80 472 1
81 242 1
81 259 1
81 260 1
81 262 1
81 320 1
81 321 1
81 322 1
81 324 1
81 328 1
81 349 1
81 369 1
81 370 1
81 390 1
81 412 1
81 413 1
81 414 1
81 427 1
81 428 1
81 466 1
81 473 1
81 474 1
81 481 1
81 482 1
81 502 1
81 516 1
81 521 1
81 522 1
81 542 1
81 555 1
82 242 1
82 244 1
82 261 1
82 262 1
82 264 1
82 323 1
82 324 1
82 326 1
82 330 1
82 351 1
82 371 1
82 372 1
82 392 1
82 414 1
82 415 1
82 416 1
82 429 1
82 430 1
82 468 1
82 475 1
82 476 1
82 483 1
82 484 1
82 504 1
82 518 1
82 523 1
82 524 1
82 544 1
82 557 1
83 244 1
83 246 1
83 263 1
83 264 1
83 266 1
83 325 1
83 326 1
83 328 1
83 332 1
83 353 1
83 373 1
83 374 1
83 394 1
83 416 1
83 417 1
83 418 1
83 431 1
83 432 1
83 470 1
83 477 1
83 478 1
83 485 1
83 486 1
83 506 1
83 520 1
83 525 1
83 526 1
83 546 1
83 559 1
84 246 1
84 248 1
84 265 1
84 266 1
84 268 1
84 327 1
84 328 1
84 330 1
84 334 1
84 355 1
84 375 1
84 376 1
84 396 1
84 418 1
84 419 1
84 420 1
84 433 1
84 434 1
84 472 1
84 479 1
84 480 1
84 481 1
84 487 1
84 488 1
84 508 1
84 522 1
84 527 1
84 528 1
84 548 1
85 248 1
85 250 1
85 267 1
85 268 1
85 270 1
85 329 1
85 330 1
85 332 1
85 336 1
85 357 1
85 377 1
85 378 1
85 398 1
85 401 1
85 402 1
85 420 1
85 421 1
85 422 1
85 435 1
85 436 1
85 474 1
85 483 1
85 489 1
85 490 1
85 510 1
85 524 1
85 529 1
85 530 1
85 550 1
86 250 1
86 252 1
86 269 1
86 270 1
86 272 1
86 331 1
86 332 1
86 334 1
86 338 1
86 359 1
86 379 1
86 380 1
86 400 1
86 403 1
86 404 1
86 422 1
86 423 1
86 424 1
86 437 1
86 438 1
86 476 1
86 485 1
86 491 1
86 492 1
86 512 1
86 526 1
86 531 1
86 532 1
86 552 1
87 252 1
87 254 1
87 271 1
87 272 1
87 274 1
87 322 1
87 333 1
87 334 1
87 336 1
87 340 1
87 361 1
87 381 1
87 382 1
87 405 1
87 406 1
87 424 1
87 425 1
87 426 1
87 439 1
87 440 1
87 478 1
87 487 1
87 493 1
87 494 1
87 514 1
87 528 1
87 533 1
87 534 1
87 554 1
88 254 1
88 256 1
88 273 1
88 274 1
88 276 1
88 324 1
88 335 1
88 336 1
88 338 1
88 342 1
88 363 1
88 383 1
88 384 1
88 407 1
88 408 1
88 426 1
88 427 1
88 428 1
88 441 1
88 442 1
88 480 1
88 489 1
88 495 1
88 496 1
88 516 1
88 530 1
88 535 1
88 536 1
88 556 1
89 256 1
89 258 1
89 275 1
89 276 1
89 278 1
89 326 1
89 337 1
89 338 1
89 340 1
89 344 1
89 365 1
89 385 1
89 386 1
89 402 1
89 409 1
89 410 1
89 428 1
89 429 1
89 430 1
89 443 1
89 444 1
89 491 1
89 497 1
89 498 1
89 518 1
89 532 1
89 537 1
89 538 1
89 558 1
90 258 1
90 260 1
90 277 1
90 278 1
90 280 1
90 328 1
90 339 1
90 340 1
90 342 1
90 346 1
90 367 1
90 387 1
90 388 1
90 404 1
90 411 1
90 412 1
90 430 1
90 431 1
90 432 1
90 445 1
90 446 1
90 493 1
90 499 1
90 500 1
90 520 1
90 534 1
90 539 1
90 540 1
90 560 1
91 260 1
91 262 1
91 279 1
91 280 1
91 282 1
91 330 1
91 341 1
91 342 1
91 344 1
91 348 1
91 369 1
91 389 1
91 390 1
91 406 1
91 413 1
91 414 1
91 432 1
91 433 1
91 434 1
91 447 1
91 448 1
91 482 1
91 495 1
91 501 1
91 502 1
91 522 1
91 536 1
91 541 1
91 542 1
92 262 1
92 264 1
92 281 1
92 282 1
92 284 1
92 332 1
92 343 1
92 344 1
92 346 1
92 350 1
92 371 1
92 391 1
92 392 1
92 408 1
92 415 1
92 416 1
92 434 1
92 435 1
92 436 1
92 449 1
92 450 1
92 484 1
92 497 1
92 503 1
92 504 1
92 524 1
92 538 1
92 543 1
92 544 1
93 264 1
93 266 1
93 283 1
93 284 1
93 286 1
93 334 1
93 345 1
93 346 1
93 348 1
93 352 1
93 373 1
93 393 1
93 394 1
93 410 1
93 417 1
93 418 1
93 436 1
93 437 1
93 438 1
93 451 1
93 452 1
93 486 1
93 499 1
93 505 1
93 506 1
93 526 1
93 540 1
93 545 1
93 546 1
94 266 1
94 268 1
94 285 1
94 286 1
94 288 1
94 336 1
94 347 1
94 348 1
94 350 1
94 354 1
94 375 1
94 395 1
94 396 1
94 412 1
94 419 1
94 420 1
94 438 1
94 439 1
94 440 1
94 453 1
94 454 1
94 488 1
94 501 1
94 507 1
94 508 1
94 528 1
94 542 1
94 547 1
94 548 1
95 268 1
95 270 1
95 287 1
95 288 1
95 290 1
95 338 1
95 349 1
95 350 1
95 352 1
95 356 1
95 377 1
95 397 1
95 398 1
95 414 1
95 421 1
95 422 1
95 440 1
95 441 1
95 442 1
95 455 1
95 456 1
95 490 1
95 503 1
95 509 1
95 510 1
95 530 1
95 544 1
95 549 1
95 550 1
96 270 1
96 272 1
96 289 1
96 290 1
96 292 1
96 340 1
96 351 1
96 352 1
96 354 1
96 358 1
96 379 1
96 399 1
96 400 1
96 416 1
96 423 1
96 424 1
96 442 1
96 443 1
96 444 1
96 457 1
96 458 1
96 492 1
96 505 1
96 511 1
96 512 1
96 532 1
96 546 1
96 551 1
96 552 1
97 272 1
97 274 1
97 291 1
97 292 1
97 294 1
97 321 1
97 322 1
97 342 1
97 353 1
97 354 1
97 356 1
97 360 1
97 381 1
97 418 1
97 425 1
97 426 1
97 444 1
97 445 1
97 446 1
97 459 1
97 460 1
97 494 1
97 507 1
97 513 1
97 514 1
97 534 1
97 548 1
97 553 1
97 554 1
98 274 1
98 276 1
98 293 1
98 294 1
98 296 1
98 323 1
98 324 1
98 344 1
98 355 1
98 356 1
98 358 1
98 362 1
98 383 1
98 420 1
98 427 1
98 428 1
98 446 1
98 447 1
98 448 1
98 461 1
98 462 1
98 496 1
98 509 1
98 515 1
98 516 1
98 536 1
98 550 1
98 555 1
98 556 1
99 276 1
99 278 1
99 295 1
99 296 1
99 298 1
99 325 1
99 326 1
99 346 1
99 357 1
99 358 1
99 360 1
99 364 1
99 385 1
99 422 1
99 429 1
99 430 1
99 448 1
99 449 1
99 450 1
99 463 1
99 464 1
99 498 1
99 511 1
99 517 1
99 518 1
99 538 1
99 552 1
99 557 1
99 558 1
100 278 1
100 280 1
100 297 1
100 298 1
100 300 1
100 327 1
100 328 1
100 348 1
100 359 1
100 360 1
100 362 1
100 366 1
100 387 1
100 424 1
100 431 1
100 432 1
100 450 1
100 451 1
100 452 1
100 465 1
100 466 1
100 500 1
100 513 1
100 519 1
100 520 1
100 540 1
100 554 1
100 559 1
100 560 1
101 280 1
101 282 1
101 299 1
101 300 1
101 302 1
101 329 1
101 330 1
101 350 1
101 361 1
101 362 1
101 364 1
101 368 1
101 389 1
101 426 1
101 433 1
101 434 1
101 452 1
101 453 1
101 454 1
101 467 1
101 468 1
101 481 1
101 482 1
101 502 1
101 515 1
101 521 1
101 522 1
101 542 1
101 556 1
102 282 1
102 284 1
102 301 1
102 302 1
102 304 1
102 331 1
102 332 1
102 352 1
102 363 1
102 364 1
102 366 1
102 370 1
102 391 1
102 428 1
102 435 1
102 436 1
102 454 1
102 455 1
102 456 1
102 469 1
102 470 1
102 483 1
102 484 1
102 504 1
102 517 1
102 523 1
102 524 1
102 544 1
102 558 1
103 284 1
103 286 1
103 303 1
103 304 1
103 306 1
103 333 1
103 334 1
103 354 1
103 365 1
103 366 1
103 368 1
103 372 1
103 393 1
103 430 1
103 437 1
103 438 1
103 456 1
103 457 1
103 458 1
103 471 1
103 472 1
103 485 1
103 486 1
103 506 1
103 519 1
103 525 1
103 526 1
103 546 1
103 560 1
104 286 1
104 288 1
104 305 1
104 306 1
104 308 1
104 335 1
104 336 1
104 356 1
104 367 1
104 368 1
104 370 1
104 374 1
104 395 1
104 432 1
104 439 1
104 440 1
104 458 1
104 459 1
104 460 1
104 473 1
104 474 1
104 482 1
104 487 1
104 488 1
104 508 1
104 521 1
104 527 1
104 528 1
104 548 1
105 288 1
105 290 1
105 307 1
105 308 1
105 310 1
105 337 1
105 338 1
105 358 1
105 369 1
105 370 1
105 372 1
105 376 1
105 397 1
105 434 1
105 441 1
105 442 1
105 460 1
105 461 1
105 462 1
105 475 1
105 476 1
105 484 1
105 489 1
105 490 1
105 510 1
105 523 1
105 529 1
105 530 1
105 550 1
106 290 1
106 292 1
106 309 1
106 310 1
106 312 1
106 339 1
106 340 1
106 360 1
106 371 1
106 372 1
106 374 1
106 378 1
106 399 1
106 436 1
106 443 1
106 444 1
106 462 1
106 463 1
106 464 1
106 477 1
106 478 1
106 486 1
106 491 1
106 492 1
106 512 1
106 525 1
106 531 1
106 532 1
106 552 1
107 292 1
107 294 1
107 311 1
107 312 1
107 314 1
107 321 1
107 341 1
107 342 1
107 362 1
107 373 1
107 374 1
107 376 1
107 380 1
107 438 1
107 445 1
107 446 1
107 464 1
107 465 1
107 466 1
107 479 1
107 480 1
107 488 1
107 493 1
107 494 1
107 514 1
107 527 1
107 533 1
107 534 1
107 554 1
108 294 1
108 296 1
108 313 1
108 314 1
108 316 1
108 323 1
108 343 1
108 344 1
108 364 1
108 375 1
108 376 1
108 378 1
108 382 1
108 401 1
108 402 1
108 440 1
108 447 1
108 448 1
108 466 1
108 467 1
108 468 1
108 490 1
108 495 1
108 496 1
108 516 1
108 529 1
108 535 1
108 536 1
108 556 1
109 296 1
109 298 1
109 315 1
109 316 1
109 318 1
109 325 1
109 345 1
109 346 1
109 366 1
109 377 1
109 378 1
109 380 1
109 384 1
109 403 1
109 404 1
109 442 1
109 449 1
109 450 1
109 468 1
109 469 1
109 470 1
109 492 1
109 497 1
109 498 1
109 518 1
109 531 1
109 537 1
109 538 1
109 558 1
110 298 1
110 300 1
110 317 1
110 318 1
110 320 1
110 327 1
110 347 1
110 348 1
110 368 1
110 379 1
110 380 1
110 382 1
110 386 1
110 405 1
110 406 1
110 444 1
110 451 1
110 452 1
110 470 1
110 471 1
110 472 1
110 494 1
110 499 1
110 500 1
110 520 1
110 533 1
110 539 1
110 540 1
110 560 1
111 242 1
111 300 1
111 302 1
111 319 1
111 320 1
111 329 1
111 349 1
111 350 1
111 370 1
111 381 1
111 382 1
111 384 1
111 388 1
111 407 1
111 408 1
111 446 1
111 453 1
111 454 1
111 472 1
111 473 1
111 474 1
111 482 1
111 496 1
111 501 1
111 502 1
111 522 1
111 535 1
111 541 1
111 542 1
112 241 1
112 242 1
112 244 1
112 302 1
112 304 1
112 331 1
112 351 1
112 352 1
112 372 1
112 383 1
112 384 1
112 386 1
112 390 1
112 409 1
112 410 1
112 448 1
112 455 1
112 456 1
112 474 1
112 475 1
112 476 1
112 484 1
112 498 1
112 503 1
112 504 1
112 524 1
112 537 1
112 543 1
112 544 1
113 243 1
113 244 1
113 246 1
113 304 1
113 306 1
113 333 1
113 353 1
113 354 1
113 374 1
113 385 1
113 386 1
113 388 1
113 392 1
113 411 1
113 412 1
113 450 1
113 457 1
113 458 1
113 476 1
113 477 1
113 478 1
113 486 1
113 500 1
113 505 1
113 506 1
113 526 1
113 539 1
113 545 1
113 546 1
114 245 1
114 246 1
114 248 1
114 306 1
114 308 1
114 335 1
114 355 1
114 356 1
114 376 1
114 387 1
114 388 1
114 390 1
114 394 1
114 413 1
114 414 1
114 452 1
114 459 1
114 460 1
114 478 1
114 479 1
114 480 1
114 488 1
114 502 1
114 507 1
114 508 1
114 528 1
114 541 1
114 547 1
114 548 1
115 247 1
115 248 1
115 250 1
115 308 1
115 310 1
115 337 1
115 357 1
115 358 1
115 378 1
115 389 1
115 390 1
115 392 1
115 396 1
115 401 1
115 402 1
115 415 1
115 416 1
115 454 1
115 461 1
115 462 1
115 480 1
115 490 1
115 504 1
115 509 1
115 510 1
115 530 1
115 543 1
115 549 1
115 550 1
116 249 1
116 250 1
116 252 1
116 310 1
116 312 1
116 339 1
116 359 1
116 360 1
116 380 1
116 391 1
116 392 1
116 394 1
116 398 1
116 402 1
116 403 1
116 404 1
116 417 1
116 418 1
116 456 1
116 463 1
116 464 1
116 492 1
116 506 1
116 511 1
116 512 1
116 532 1
116 545 1
116 551 1
116 552 1
117 251 1
117 252 1
117 254 1
117 312 1
117 314 1
117 341 1
117 361 1
117 362 1
117 382 1
117 393 1
117 394 1
117 396 1
117 400 1
117 404 1
117 405 1
117 406 1
117 419 1
117 420 1
117 458 1
117 465 1
117 466 1
117 494 1
117 508 1
117 513 1
117 514 1
117 534 1
117 547 1
117 553 1
117 554 1
118 253 1
118 254 1
118 256 1
118 314 1
118 316 1
118 322 1
118 343 1
118 363 1
118 364 1
118 384 1
118 395 1
118 396 1
118 398 1
118 406 1
118 407 1
118 408 1
118 421 1
118 422 1
118 460 1
118 467 1
118 468 1
118 496 1
118 510 1
118 515 1
118 516 1
118 536 1
118 549 1
118 555 1
118 556 1
119 255 1
119 256 1
119 258 1
119 316 1
119 318 1
119 324 1
119 345 1
119 365 1
119 366 1
119 386 1
119 397 1
119 398 1
119 400 1
119 408 1
119 409 1
119 410 1
119 423 1
119 424 1
119 462 1
119 469 1
119 470 1
119 498 1
119 512 1
119 517 1
119 518 1
119 538 1
119 551 1
119 557 1
119 558 1
120 257 1
120 258 1
120 260 1
120 318 1
120 320 1
120 322 1
120 326 1
120 347 1
120 367 1
120 368 1
120 388 1
120 399 1
120 400 1
120 410 1
120 411 1
120 412 1
120 425 1
120 426 1
120 464 1
120 471 1
120 472 1
120 500 1
120 514 1
120 519 1
120 520 1
120 540 1
120 553 1
120 559 1
120 560 1
121 241 1
121 242 1
121 259 1
121 261 1
121 262 1
121 319 1
121 320 1
121 321 1
121 323 1
121 324 1
121 327 1
121 328 1
121 350 1
121 369 1
121 389 1
121 390 1
121 411 1
121 412 1
121 413 1
121 427 1
121 465 1
121 466 1
121 473 1
121 481 1
121 501 1
121 502 1
121 515 1
121 516 1
121 521 1
121 541 1
121 542 1
121 556 1
122 241 1
122 242 1
122 243 1
122 244 1
122 261 1
122 263 1
122 264 1
122 323 1
122 325 1
122 326 1
122 329 1
122 330 1
122 352 1
122 371 1
122 391 1
122 392 1
122 413 1
122 414 1
122 415 1
122 429 1
122 467 1
122 468 1
122 475 1
122 483 1
122 503 1
122 504 1
122 517 1
122 518 1
122 523 1
122 543 1
122 544 1
122 558 1
123 243 1
123 244 1
123 245 1
123 246 1
123 263 1
123 265 1
123 266 1
123 325 1
123 327 1
123 328 1
123 331 1
123 332 1
123 354 1
123 373 1
123 393 1
123 394 1
123 415 1
123 416 1
123 417 1
123 431 1
123 469 1
123 470 1
123 477 1
123 485 1
123 505 1
123 506 1
123 519 1
123 520 1
123 525 1
123 545 1
123 546 1
123 560 1
124 245 1
124 246 1
124 247 1
124 248 1
124 265 1
124 267 1
124 268 1
124 327 1
124 329 1
124 330 1
124 333 1
124 334 1
124 356 1
124 375 1
124 395 1
124 396 1
124 417 1
124 418 1
124 419 1
124 433 1
124 471 1
124 472 1
124 479 1
124 482 1
124 487 1
124 507 1
124 508 1
124 521 1
124 522 1
124 527 1
124 547 1
124 548 1
125 247 1
125 248 1
125 249 1
125 250 1
125 267 1
125 269 1
125 270 1
125 329 1
125 331 1
125 332 1
125 335 1
125 336 1
125 358 1
125 377 1
125 397 1
125 398 1
125 401 1
125 419 1
125 420 1
125 421 1
125 435 1
125 473 1
125 474 1
125 484 1
125 489 1
125 509 1
125 510 1
125 523 1
125 524 1
125 529 1
125 549 1
125 550 1
126 249 1
126 250 1
126 251 1
126 252 1
126 269 1
126 271 1
126 272 1
126 331 1
126 333 1
126 334 1
126 337 1
126 338 1
126 360 1
126 379 1
126 399 1
126 400 1
126 403 1
126 421 1
126 422 1
126 423 1
126 437 1
126 475 1
126 476 1
126 486 1
126 491 1
126 511 1
126 512 1
126 525 1
126 526 1
126 531 1
126 551 1
126 552 1
127 251 1
127 252 1
127 253 1
127 254 1
127 271 1
127 273 1
127 274 1
127 321 1
127 322 1
127 333 1
127 335 1
127 336 1
127 339 1
127 340 1
127 362 1
127 381 1
127 405 1
127 423 1
127 424 1
127 425 1
127 439 1
127 477 1
127 478 1
127 488 1
127 493 1
127 513 1
127 514 1
127 527 1
127 528 1
127 533 1
127 553 1
127 554 1
128 253 1
128 254 1
128 255 1
128 256 1
128 273 1
128 275 1
128 276 1
128 323 1
128 324 1
128 335 1
128 337 1
128 338 1
128 341 1
128 342 1
128 364 1
128 383 1
128 407 1
128 425 1
128 426 1
128 427 1
128 441 1
128 479 1
128 480 1
128 490 1
128 495 1
128 515 1
128 516 1
128 529 1
128 530 1
128 535 1
128 555 1
128 556 1
129 255 1
129 256 1
129 257 1
129 258 1
129 275 1
129 277 1
129 278 1
129 325 1
129 326 1
129 337 1
129 339 1
129 340 1
129 343 1
129 344 1
129 366 1
129 385 1
129 401 1
129 402 1
129 409 1
129 427 1
129 428 1
129 429 1
129 443 1
129 492 1
129 497 1
129 517 1
129 518 1
129 531 1
129 532 1
129 537 1
129 557 1
129 558 1
130 257 1
130 258 1
130 259 1
130 260 1
130 277 1
130 279 1
130 280 1
130 327 1
130 328 1
130 339 1
130 341 1
130 342 1
130 345 1
130 346 1
130 368 1
130 387 1
130 403 1
130 404 1
130 411 1
130 429 1
130 430 1
130 431 1
130 445 1
130 494 1
130 499 1
130 519 1
130 520 1
130 533 1
130 534 1
130 539 1
130 559 1
130 560 1
131 259 1
131 260 1
131 261 1
131 262 1
131 279 1
131 281 1
131 282 1
131 329 1
131 330 1
131 341 1
131 343 1
131 344 1
131 347 1
131 348 1
131 370 1
131 389 1
131 405 1
131 406 1
131 413 1
131 431 1
131 432 1
131 433 1
131 447 1
131 481 1
131 482 1
131 496 1
131 501 1
131 521 1
131 522 1
131 535 1
131 536 1
131 541 1
132 261 1
132 262 1
132 263 1
132 264 1
132 281 1
132 283 1
132 284 1
132 331 1
132 332 1
132 343 1
132 345 1
132 346 1
132 349 1
132 350 1
132 372 1
132 391 1
132 407 1
132 408 1
132 415 1
132 433 1
132 434 1
132 435 1
132 449 1
132 483 1
132 484 1
132 498 1
132 503 1
132 523 1
132 524 1
132 537 1
132 538 1
132 543 1
133 263 1
133 264 1
133 265 1
133 266 1
133 283 1
133 285 1
133 286 1
133 333 1
133 334 1
133 345 1
133 347 1
133 348 1
133 351 1
133 352 1
133 374 1
133 393 1
133 409 1
133 410 1
133 417 1
133 435 1
133 436 1
133 437 1
133 451 1
133 485 1
133 486 1
133 500 1
133 505 1
133 525 1
133 526 1
133 539 1
133 540 1
133 545 1
134 265 1
134 266 1
134 267 1
134 268 1
134 285 1
134 287 1
134 288 1
134 335 1
134 336 1
134 347 1
134 349 1
134 350 1
134 353 1
134 354 1
134 376 1
134 395 1
134 411 1
134 412 1
134 419 1
134 437 1
134 438 1
134 439 1
134 453 1
134 487 1
134 488 1
134 502 1
134 507 1
134 527 1
134 528 1
134 541 1
134 542 1
134 547 1
135 267 1
135 268 1
135 269 1
135 270 1
135 287 1
135 289 1
135 290 1
135 337 1
135 338 1
135 349 1
135 351 1
135 352 1
135 355 1
135 356 1
135 378 1
135 397 1
135 413 1
135 414 1
135 421 1
135 439 1
135 440 1
135 441 1
135 455 1
135 489 1
135 490 1
135 504 1
135 509 1
135 529 1
135 530 1
135 543 1
135 544 1
135 549 1
136 269 1
136 270 1
136 271 1
136 272 1
136 289 1
136 291 1
136 292 1
136 339 1
136 340 1
136 351 1
136 353 1
136 354 1
136 357 1
136 358 1
136 380 1
136 399 1
136 415 1
136 416 1
136 423 1
136 441 1
136 442 1
136 443 1
136 457 1
136 491 1
136 492 1
136 506 1
136 511 1
136 531 1
136 532 1
136 545 1
136 546 1
136 551 1
137 271 1
137 272 1
137 273 1
137 274 1
137 291 1
137 293 1
137 294 1
137 321 1
137 341 1
137 342 1
137 353 1
137 355 1
137 356 1
137 359 1
137 360 1
137 382 1
137 417 1
137 418 1
137 425 1
137 443 1
137 444 1
137 445 1
137 459 1
137 493 1
137 494 1
137 508 1
137 513 1
137 533 1
137 534 1
137 547 1
137 548 1
137 553 1
138 273 1
138 274 1
138 275 1
138 276 1
138 293 1
138 295 1
138 296 1
138 323 1
138 343 1
138 344 1
138 355 1
138 357 1
138 358 1
138 361 1
138 362 1
138 384 1
138 419 1
138 420 1
138 427 1
138 445 1
138 446 1
138 447 1
138 461 1
138 495 1
138 496 1
138 510 1
138 515 1
138 535 1
138 536 1
138 549 1
138 550 1
138 555 1
139 275 1
139 276 1
139 277 1
139 278 1
139 295 1
139 297 1
139 298 1
139 325 1
139 345 1
139 346 1
139 357 1
139 359 1
139 360 1
139 363 1
139 364 1
139 386 1
139 421 1
139 422 1
139 429 1
139 447 1
139 448 1
139 449 1
139 463 1
139 497 1
139 498 1
139 512 1
139 517 1
139 537 1
139 538 1
139 551 1
139 552 1
139 557 1
140 277 1
140 278 1
140 279 1
140 280 1
140 297 1
140 299 1
140 300 1
140 327 1
140 347 1
140 348 1
140 359 1
140 361 1
140 362 1
140 365 1
140 366 1
140 388 1
140 423 1
140 424 1
140 431 1
140 449 1
140 450 1
140 451 1
140 465 1
140 499 1
140 500 1
140 514 1
140 519 1
140 539 1
140 540 1
140 553 1
140 554 1
140 559 1
141 279 1
141 280 1
141 281 1
141 282 1
141 299 1
141 301 1
141 302 1
141 329 1
141 349 1
141 350 1
141 361 1
141 363 1
141 364 1
141 367 1
141 368 1
141 390 1
141 425 1
141 426 1
141 433 1
141 451 1
141 452 1
141 453 1
141 467 1
141 481 1
141 501 1
141 502 1
141 516 1
141 521 1
141 541 1
141 542 1
141 555 1
141 556 1
142 281 1
142 282 1
142 283 1
142 284 1
142 301 1
142 303 1
142 304 1
142 331 1
142 351 1
142 352 1
142 363 1
142 365 1
142 366 1
142 369 1
142 370 1
142 392 1
142 427 1
142 428 1
142 435 1
142 453 1
142 454 1
142 455 1
142 469 1
142 483 1
142 503 1
142 504 1
142 518 1
142 523 1
142 543 1
142 544 1
142 557 1
142 558 1
143 283 1
143 284 1
143 285 1
143 286 1
143 303 1
143 305 1
143 306 1
143 333 1
143 353 1
143 354 1
143 365 1
143 367 1
143 368 1
143 371 1
143 372 1
143 394 1
143 429 1
143 430 1
143 437 1
143 455 1
143 456 1
143 457 1
143 471 1
143 485 1
143 505 1
143 506 1
143 520 1
143 525 1
143 545 1
143 546 1
143 559 1
143 560 1
144 285 1
144 286 1
144 287 1
144 288 1
144 305 1
144 307 1
144 308 1
144 335 1
144 355 1
144 356 1
144 367 1
144 369 1
144 370 1
144 373 1
144 374 1
144 396 1
144 431 1
144 432 1
144 439 1
144 457 1
144 458 1
144 459 1
144 473 1
144 481 1
144 482 1
144 487 1
144 507 1
144 508 1
144 522 1
144 527 1
144 547 1
144 548 1
145 287 1
145 288 1
145 289 1
145 290 1
145 307 1
145 309 1
145 310 1
145 337 1
145 357 1
145 358 1
145 369 1
145 371 1
145 372 1
145 375 1
145 376 1
145 398 1
145 433 1
145 434 1
145 441 1
145 459 1
145 460 1
145 461 1
145 475 1
145 483 1
145 484 1
145 489 1
145 509 1
145 510 1
145 524 1
145 529 1
145 549 1
145 550 1
146 289 1
146 290 1
146 291 1
146 292 1
146 309 1
146 311 1
146 312 1
146 339 1
146 359 1
146 360 1
146 371 1
146 373 1
146 374 1
146 377 1
146 378 1
146 400 1
146 435 1
146 436 1
146 443 1
146 461 1
146 462 1
146 463 1
146 477 1
146 485 1
146 486 1
146 491 1
146 511 1
146 512 1
146 526 1
146 531 1
146 551 1
146 552 1
147 291 1
147 292 1
147 293 1
147 294 1
147 311 1
147 313 1
147 314 1
147 322 1
147 341 1
147 361 1
147 362 1
147 373 1
147 375 1
147 376 1
147 379 1
147 380 1
147 437 1
147 438 1
147 445 1
147 463 1
147 464 1
147 465 1
147 479 1
147 487 1
147 488 1
147 493 1
147 513 1
147 514 1
147 528 1
147 533 1
147 553 1
147 554 1
148 293 1
148 294 1
148 295 1
148 296 1
148 313 1
148 315 1
148 316 1
148 324 1
148 343 1
148 363 1
148 364 1
148 375 1
148 377 1
148 378 1
148 381 1
148 382 1
148 401 1
148 439 1
148 440 1
148 447 1
148 465 1
148 466 1
148 467 1
148 489 1
148 490 1
148 495 1
148 515 1
148 516 1
148 530 1
148 535 1
148 555 1
148 556 1
149 295 1
149 296 1
149 297 1
149 298 1
149 315 1
149 317 1
149 318 1
149 326 1
149 345 1
149 365 1
149 366 1
149 377 1
149 379 1
149 380 1
149 383 1
149 384 1
149 403 1
149 441 1
149 442 1
149 449 1
149 467 1
149 468 1
149 469 1
149 491 1
149 492 1
149 497 1
149 517 1
149 518 1
149 532 1
149 537 1
149 557 1
149 558 1
150 297 1
150 298 1
150 299 1
150 300 1
150 317 1
150 319 1
150 320 1
150 328 1
150 347 1
150 367 1
150 368 1
150 379 1
150 381 1
150 382 1
150 385 1
150 386 1
150 405 1
150 443 1
150 444 1
150 451 1
150 469 1
150 470 1
150 471 1
150 493 1
150 494 1
150 499 1
150 519 1
150 520 1
150 534 1
150 539 1
150 559 1
150 560 1
151 241 1
151 242 1
151 299 1
151 300 1
151 301 1
151 302 1
151 319 1
151 330 1
151 349 1
151 369 1
151 370 1
151 381 1
151 383 1
151 384 1
151 387 1
151 388 1
151 407 1
151 445 1
151 446 1
151 453 1
151 471 1
151 472 1
151 473 1
151 481 1
151 482 1
151 495 1
151 496 1
151 501 1
151 521 1
151 522 1
151 536 1
151 541 1
152 241 1
152 243 1
152 244 1
152 301 1
152 302 1
152 303 1
152 304 1
152 332 1
152 351 1
152 371 1
152 372 1
152 383 1
152 385 1
152 386 1
152 389 1
152 390 1
152 409 1
152 447 1
152 448 1
152 455 1
152 473 1
152 474 1
152 475 1
152 483 1
152 484 1
152 497 1
152 498 1
152 503 1
152 523 1
152 524 1
152 538 1
152 543 1
153 243 1
153 245 1
153 246 1
153 303 1
153 304 1
153 305 1
153 306 1
153 334 1
153 353 1
153 373 1
153 374 1
153 385 1
153 387 1
153 388 1
153 391 1
153 392 1
153 411 1
153 449 1
153 450 1
153 457 1
153 475 1
153 476 1
153 477 1
153 485 1
153 486 1
153 499 1
153 500 1
153 505 1
153 525 1
153 526 1
153 540 1
153 545 1
154 245 1
154 247 1
154 248 1
154 305 1
154 306 1
154 307 1
154 308 1
154 336 1
154 355 1
154 375 1
154 376 1
154 387 1
154 389 1
154 390 1
154 393 1
154 394 1
154 413 1
154 451 1
154 452 1
154 459 1
154 477 1
154 478 1
154 479 1
154 487 1
154 488 1
154 501 1
154 502 1
154 507 1
154 527 1
154 528 1
154 542 1
154 547 1
155 247 1
155 249 1
155 250 1
155 307 1
155 308 1
155 309 1
155 310 1
155 338 1
155 357 1
155 377 1
155 378 1
155 389 1
155 391 1
155 392 1
155 395 1
155 396 1
155 401 1
155 415 1
155 453 1
155 454 1
155 461 1
155 479 1
155 480 1
155 489 1
155 490 1
155 503 1
155 504 1
155 509 1
155 529 1
155 530 1
155 544 1
155 549 1
156 249 1
156 251 1
156 252 1
156 309 1
156 310 1
156 311 1
156 312 1
156 340 1
156 359 1
156 379 1
156 380 1
156 391 1
156 393 1
156 394 1
156 397 1
156 398 1
156 401 1
156 402 1
156 403 1
156 417 1
156 455 1
156 456 1
156 463 1
156 491 1
156 492 1
156 505 1
156 506 1
156 511 1
156 531 1
156 532 1
156 546 1
156 551 1
157 251 1
157 253 1
157 254 1
157 311 1
157 312 1
157 313 1
157 314 1
157 342 1
157 361 1
157 381 1
157 382 1
157 393 1
157 395 1
157 396 1
157 399 1
157 400 1
157 403 1
157 404 1
157 405 1
157 419 1
157 457 1
157 458 1
157 465 1
157 493 1
157 494 1
157 507 1
157 508 1
157 513 1
157 533 1
157 534 1
157 548 1
157 553 1
158 253 1
158 255 1
158 256 1
158 313 1
158 314 1
158 315 1
158 316 1
158 321 1
158 322 1
158 344 1
158 363 1
158 383 1
158 384 1
158 395 1
158 397 1
158 398 1
158 405 1
158 406 1
158 407 1
158 421 1
158 459 1
158 460 1
158 467 1
158 495 1
158 496 1
158 509 1
158 510 1
158 515 1
158 535 1
158 536 1
158 550 1
158 555 1
159 255 1
159 257 1
159 258 1
159 315 1
159 316 1
159 317 1
159 318 1
159 323 1
159 324 1
159 346 1
159 365 1
159 385 1
159 386 1
159 397 1
159 399 1
159 400 1
159 407 1
159 408 1
159 409 1
159 423 1
159 461 1
159 462 1
159 469 1
159 497 1
159 498 1
159 511 1
159 512 1
159 517 1
159 537 1
159 538 1
159 552 1
159 557 1
160 257 1
160 259 1
160 260 1
160 317 1
160 318 1
160 319 1
160 320 1
160 321 1
160 322 1
160 325 1
160 326 1
160 348 1
160 367 1
160 387 1
160 388 1
160 399 1
160 409 1
160 410 1
160 411 1
160 425 1
160 463 1
160 464 1
160 471 1
160 499 1
160 500 1
160 513 1
160 514 1
160 519 1
160 539 1
160 540 1
160 554 1
160 559 1
