%%MatrixMarket matrix coordinate integer general
% GF(4) labels 0,1,2=omega,3=omega+1; arithmetic is NOT integer arithmetic.
% Coordinate indices are 1-based; omitted entries are zero.
80 320 1800
1 81 2
1 91 1
1 98 1
1 101 2
1 111 1
1 118 3
1 131 1
1 138 1
1 141 2
1 145 1
1 155 2
1 158 3
1 162 1
1 172 2
1 182 1
1 186 2
1 189 1
1 195 1
1 204 1
1 214 2
1 218 1
1 231 1
1 234 2
1 237 1
2 82 2
2 92 1
2 99 1
2 102 2
2 112 1
2 119 3
2 132 1
2 139 1
2 142 2
2 146 1
2 156 2
2 159 3
2 163 1
2 173 2
2 183 1
2 187 2
2 190 1
2 196 1
2 205 1
2 215 2
2 219 1
2 232 1
2 235 2
2 238 1
3 83 2
3 93 1
3 100 1
3 103 2
3 113 1
3 120 3
3 133 1
3 140 1
3 143 2
3 147 1
3 157 2
3 160 3
3 164 1
3 174 2
3 184 1
3 188 2
3 191 1
3 197 1
3 206 1
3 216 2
3 220 1
3 233 1
3 236 2
3 239 1
4 81 3
4 84 2
4 94 1
4 101 1
4 104 2
4 114 1
4 121 3
4 134 1
4 141 1
4 144 2
4 148 1
4 158 2
4 165 1
4 175 2
4 185 1
4 189 2
4 192 1
4 198 1
4 207 1
4 217 2
4 221 1
4 234 1
4 237 2
4 240 1
5 82 3
5 85 2
5 95 1
5 102 1
5 105 2
5 115 1
5 122 3
5 135 1
5 142 1
5 145 2
5 149 1
5 159 2
5 166 1
5 176 2
5 186 1
5 190 2
5 193 1
5 199 1
5 201 1
5 208 1
5 218 2
5 222 1
5 235 1
5 238 2
6 83 3
6 86 2
6 96 1
6 103 1
6 106 2
6 116 1
6 123 3
6 136 1
6 143 1
6 146 2
6 150 1
6 160 2
6 167 1
6 177 2
6 187 1
6 191 2
6 194 1
6 200 1
6 202 1
6 209 1
6 219 2
6 223 1
6 236 1
6 239 2
7 84 3
7 87 2
7 97 1
7 104 1
7 107 2
7 117 1
7 121 2
7 124 3
7 137 1
7 144 1
7 147 2
7 151 1
7 161 1
7 168 1
7 178 2
7 188 1
7 192 2
7 195 1
7 203 1
7 210 1
7 220 2
7 224 1
7 237 1
7 240 2
8 85 3
8 88 2
8 98 1
8 105 1
8 108 2
8 118 1
8 122 2
8 125 3
8 138 1
8 145 1
8 148 2
8 152 1
8 162 1
8 169 1
8 179 2
8 189 1
8 193 2
8 196 1
8 201 2
8 204 1
8 211 1
8 221 2
8 225 1
8 238 1
9 86 3
9 89 2
9 99 1
9 106 1
9 109 2
9 119 1
9 123 2
9 126 3
9 139 1
9 146 1
9 149 2
9 153 1
9 163 1
9 170 1
9 180 2
9 190 1
9 194 2
9 197 1
9 202 2
9 205 1
9 212 1
9 222 2
9 226 1
9 239 1
10 87 3
10 90 2
10 100 1
10 107 1
10 110 2
10 120 1
10 124 2
10 127 3
10 140 1
10 147 1
10 150 2
10 154 1
10 164 1
10 171 1
10 181 2
10 191 1
10 195 2
10 198 1
10 203 2
10 206 1
10 213 1
10 223 2
10 227 1
10 240 1
11 81 1
11 88 3
11 91 2
11 101 1
11 108 1
11 111 2
11 125 2
11 128 3
11 141 1
11 148 1
11 151 2
11 155 1
11 165 1
11 172 1
11 182 2
11 192 1
11 196 2
11 199 1
11 201 1
11 204 2
11 207 1
11 214 1
11 224 2
11 228 1
12 82 1
12 89 3
12 92 2
12 102 1
12 109 1
12 112 2
12 126 2
12 129 3
12 142 1
12 149 1
12 152 2
12 156 1
12 166 1
12 173 1
12 183 2
12 193 1
12 197 2
12 200 1
12 202 1
12 205 2
12 208 1
12 215 1
12 225 2
12 229 1
13 83 1
13 90 3
13 93 2
13 103 1
13 110 1
13 113 2
13 127 2
13 130 3
13 143 1
13 150 1
13 153 2
13 157 1
13 161 1
13 167 1
13 174 1
13 184 2
13 194 1
13 198 2
13 203 1
13 206 2
13 209 1
13 216 1
13 226 2
13 230 1
14 84 1
14 91 3
14 94 2
14 104 1
14 111 1
14 114 2
14 128 2
14 131 3
14 144 1
14 151 1
14 154 2
14 158 1
14 162 1
14 168 1
14 175 1
14 185 2
14 195 1
14 199 2
14 204 1
14 207 2
14 210 1
14 217 1
14 227 2
14 231 1
15 85 1
15 92 3
15 95 2
15 105 1
15 112 1
15 115 2
15 129 2
15 132 3
15 145 1
15 152 1
15 155 2
15 159 1
15 163 1
15 169 1
15 176 1
15 186 2
15 196 1
15 200 2
15 205 1
15 208 2
15 211 1
15 218 1
15 228 2
15 232 1
16 86 1
16 93 3
16 96 2
16 106 1
16 113 1
16 116 2
16 130 2
16 133 3
16 146 1
16 153 1
16 156 2
16 160 1
16 161 2
16 164 1
16 170 1
16 177 1
16 187 2
16 197 1
16 206 1
16 209 2
16 212 1
16 219 1
16 229 2
16 233 1
17 87 1
17 94 3
17 97 2
17 107 1
17 114 1
17 117 2
17 121 1
17 131 2
17 134 3
17 147 1
17 154 1
17 157 2
17 162 2
17 165 1
17 171 1
17 178 1
17 188 2
17 198 1
17 207 1
17 210 2
17 213 1
17 220 1
17 230 2
17 234 1
18 88 1
18 95 3
18 98 2
18 108 1
18 115 1
18 118 2
18 122 1
18 132 2
18 135 3
18 148 1
18 155 1
18 158 2
18 163 2
18 166 1
18 172 1
18 179 1
18 189 2
18 199 1
18 208 1
18 211 2
18 214 1
18 221 1
18 231 2
18 235 1
19 89 1
19 96 3
19 99 2
19 109 1
19 116 1
19 119 2
19 123 1
19 133 2
19 136 3
19 149 1
19 156 1
19 159 2
19 164 2
19 167 1
19 173 1
19 180 1
19 190 2
19 200 1
19 209 1
19 212 2
19 215 1
19 222 1
19 232 2
19 236 1
20 90 1
20 97 3
20 100 2
20 110 1
20 117 1
20 120 2
20 124 1
20 134 2
20 137 3
20 150 1
20 157 1
20 160 2
20 161 1
20 165 2
20 168 1
20 174 1
20 181 1
20 191 2
20 210 1
20 213 2
20 216 1
20 223 1
20 233 2
20 237 1
21 81 2
21 91 1
21 98 3
21 101 2
21 111 1
21 118 1
21 121 2
21 125 1
21 135 2
21 138 3
21 151 1
21 158 1
21 162 1
21 166 2
21 169 1
21 175 1
21 182 1
21 192 2
21 211 1
21 214 2
21 217 1
21 224 1
21 234 2
21 238 1
22 82 2
22 92 1
22 99 3
22 102 2
22 112 1
22 119 1
22 122 2
22 126 1
22 136 2
22 139 3
22 152 1
22 159 1
22 163 1
22 167 2
22 170 1
22 176 1
22 183 1
22 193 2
22 212 1
22 215 2
22 218 1
22 225 1
22 235 2
22 239 1
23 83 2
23 93 1
23 100 3
23 103 2
23 113 1
23 120 1
23 123 2
23 127 1
23 137 2
23 140 3
23 153 1
23 160 1
23 164 1
23 168 2
23 171 1
23 177 1
23 184 1
23 194 2
23 213 1
23 216 2
23 219 1
23 226 1
23 236 2
23 240 1
24 81 1
24 84 2
24 94 1
24 101 3
24 104 2
24 114 1
24 121 1
24 124 2
24 128 1
24 138 2
24 141 3
24 154 1
24 165 1
24 169 2
24 172 1
24 178 1
24 185 1
24 195 2
24 201 1
24 214 1
24 217 2
24 220 1
24 227 1
24 237 2
25 82 1
25 85 2
25 95 1
25 102 3
25 105 2
25 115 1
25 122 1
25 125 2
25 129 1
25 139 2
25 142 3
25 155 1
25 166 1
25 170 2
25 173 1
25 179 1
25 186 1
25 196 2
25 202 1
25 215 1
25 218 2
25 221 1
25 228 1
25 238 2
26 83 1
26 86 2
26 96 1
26 103 3
26 106 2
26 116 1
26 123 1
26 126 2
26 130 1
26 140 2
26 143 3
26 156 1
26 167 1
26 171 2
26 174 1
26 180 1
26 187 1
26 197 2
26 203 1
26 216 1
26 219 2
26 222 1
26 229 1
26 239 2
27 84 1
27 87 2
27 97 1
27 104 3
27 107 2
27 117 1
27 124 1
27 127 2
27 131 1
27 141 2
27 144 3
27 157 1
27 168 1
27 172 2
27 175 1
27 181 1
27 188 1
27 198 2
27 204 1
27 217 1
27 220 2
27 223 1
27 230 1
27 240 2
28 85 1
28 88 2
28 98 1
28 105 3
28 108 2
28 118 1
28 125 1
28 128 2
28 132 1
28 142 2
28 145 3
28 158 1
28 169 1
28 173 2
28 176 1
28 182 1
28 189 1
28 199 2
28 201 2
28 205 1
28 218 1
28 221 2
28 224 1
28 231 1
29 86 1
29 89 2
29 99 1
29 106 3
29 109 2
29 119 1
29 126 1
29 129 2
29 133 1
29 143 2
29 146 3
29 159 1
29 170 1
29 174 2
29 177 1
29 183 1
29 190 1
29 200 2
29 202 2
29 206 1
29 219 1
29 222 2
29 225 1
29 232 1
30 87 1
30 90 2
30 100 1
30 107 3
30 110 2
30 120 1
30 127 1
30 130 2
30 134 1
30 144 2
30 147 3
30 160 1
30 161 2
30 171 1
30 175 2
30 178 1
30 184 1
30 191 1
30 203 2
30 207 1
30 220 1
30 223 2
30 226 1
30 233 1
31 81 1
31 88 1
31 91 2
31 101 1
31 108 3
31 111 2
31 121 1
31 128 1
31 131 2
31 135 1
31 145 2
31 148 3
31 162 2
31 172 1
31 176 2
31 179 1
31 185 1
31 192 1
31 204 2
31 208 1
31 221 1
31 224 2
31 227 1
31 234 1
32 82 1
32 89 1
32 92 2
32 102 1
32 109 3
32 112 2
32 122 1
32 129 1
32 132 2
32 136 1
32 146 2
32 149 3
32 163 2
32 173 1
32 177 2
32 180 1
32 186 1
32 193 1
32 205 2
32 209 1
32 222 1
32 225 2
32 228 1
32 235 1
33 83 1
33 90 1
33 93 2
33 103 1
33 110 3
33 113 2
33 123 1
33 130 1
33 133 2
33 137 1
33 147 2
33 150 3
33 164 2
33 174 1
33 178 2
33 181 1
33 187 1
33 194 1
33 206 2
33 210 1
33 223 1
33 226 2
33 229 1
33 236 1
34 84 1
34 91 1
34 94 2
34 104 1
34 111 3
34 114 2
34 124 1
34 131 1
34 134 2
34 138 1
34 148 2
34 151 3
34 165 2
34 175 1
34 179 2
34 182 1
34 188 1
34 195 1
34 207 2
34 211 1
34 224 1
34 227 2
34 230 1
34 237 1
35 85 1
35 92 1
35 95 2
35 105 1
35 112 3
35 115 2
35 125 1
35 132 1
35 135 2
35 139 1
35 149 2
35 152 3
35 166 2
35 176 1
35 180 2
35 183 1
35 189 1
35 196 1
35 208 2
35 212 1
35 225 1
35 228 2
35 231 1
35 238 1
36 86 1
36 93 1
36 96 2
36 106 1
36 113 3
36 116 2
36 126 1
36 133 1
36 136 2
36 140 1
36 150 2
36 153 3
36 167 2
36 177 1
36 181 2
36 184 1
36 190 1
36 197 1
36 209 2
36 213 1
36 226 1
36 229 2
36 232 1
36 239 1
37 87 1
37 94 1
37 97 2
37 107 1
37 114 3
37 117 2
37 127 1
37 134 1
37 137 2
37 141 1
37 151 2
37 154 3
37 168 2
37 178 1
37 182 2
37 185 1
37 191 1
37 198 1
37 210 2
37 214 1
37 227 1
37 230 2
37 233 1
37 240 1
38 88 1
38 95 1
38 98 2
38 108 1
38 115 3
38 118 2
38 128 1
38 135 1
38 138 2
38 142 1
38 152 2
38 155 3
38 169 2
38 179 1
38 183 2
38 186 1
38 192 1
38 199 1
38 201 1
38 211 2
38 215 1
38 228 1
38 231 2
38 234 1
39 89 1
39 96 1
39 99 2
39 109 1
39 116 3
39 119 2
39 129 1
39 136 1
39 139 2
39 143 1
39 153 2
39 156 3
39 170 2
39 180 1
39 184 2
39 187 1
39 193 1
39 200 1
39 202 1
39 212 2
39 216 1
39 229 1
39 232 2
39 235 1
40 90 1
40 97 1
40 100 2
40 110 1
40 117 3
40 120 2
40 130 1
40 137 1
40 140 2
40 144 1
40 154 2
40 157 3
40 161 1
40 171 2
40 181 1
40 185 2
40 188 1
40 194 1
40 203 1
40 213 2
40 217 1
40 230 1
40 233 2
40 236 1
41 121 2
41 130 3
41 131 2
41 160 2
41 161 3
41 162 2
41 164 2
41 175 1
41 185 3
41 195 2
41 206 2
41 207 3
41 214 3
41 233 2
41 237 3
41 241 3
41 251 2
41 258 2
41 261 3
41 271 2
41 278 1
42 121 2
42 122 2
42 131 3
42 132 2
42 162 3
42 163 2
42 165 2
42 176 1
42 186 3
42 196 2
42 207 2
42 208 3
42 215 3
42 234 2
42 238 3
42 242 3
42 252 2
42 259 2
42 262 3
42 272 2
42 279 1
43 122 2
43 123 2
43 132 3
43 133 2
43 163 3
43 164 2
43 166 2
43 177 1
43 187 3
43 197 2
43 208 2
43 209 3
43 216 3
43 235 2
43 239 3
43 243 3
43 253 2
43 260 2
43 263 3
43 273 2
43 280 1
44 123 2
44 124 2
44 133 3
44 134 2
44 164 3
44 165 2
44 167 2
44 178 1
44 188 3
44 198 2
44 209 2
44 210 3
44 217 3
44 236 2
44 240 3
44 241 1
44 244 3
44 254 2
44 261 2
44 264 3
44 274 2
45 124 2
45 125 2
45 134 3
45 135 2
45 165 3
45 166 2
45 168 2
45 179 1
45 189 3
45 199 2
45 201 3
45 210 2
45 211 3
45 218 3
45 237 2
45 242 1
45 245 3
45 255 2
45 262 2
45 265 3
45 275 2
46 125 2
46 126 2
46 135 3
46 136 2
46 166 3
46 167 2
46 169 2
46 180 1
46 190 3
46 200 2
46 202 3
46 211 2
46 212 3
46 219 3
46 238 2
46 243 1
46 246 3
46 256 2
46 263 2
46 266 3
46 276 2
47 126 2
47 127 2
47 136 3
47 137 2
47 161 2
47 167 3
47 168 2
47 170 2
47 181 1
47 191 3
47 203 3
47 212 2
47 213 3
47 220 3
47 239 2
47 244 1
47 247 3
47 257 2
47 264 2
47 267 3
47 277 2
48 127 2
48 128 2
48 137 3
48 138 2
48 162 2
48 168 3
48 169 2
48 171 2
48 182 1
48 192 3
48 204 3
48 213 2
48 214 3
48 221 3
48 240 2
48 245 1
48 248 3
48 258 2
48 265 2
48 268 3
48 278 2
49 128 2
49 129 2
49 138 3
49 139 2
49 163 2
49 169 3
49 170 2
49 172 2
49 183 1
49 193 3
49 201 2
49 205 3
49 214 2
49 215 3
49 222 3
49 246 1
49 249 3
49 259 2
49 266 2
49 269 3
49 279 2
50 129 2
50 130 2
50 139 3
50 140 2
50 164 2
50 170 3
50 171 2
50 173 2
50 184 1
50 194 3
50 202 2
50 206 3
50 215 2
50 216 3
50 223 3
50 247 1
50 250 3
50 260 2
50 267 2
50 270 3
50 280 2
51 130 2
51 131 2
51 140 3
51 141 2
51 165 2
51 171 3
51 172 2
51 174 2
51 185 1
51 195 3
51 203 2
51 207 3
51 216 2
51 217 3
51 224 3
51 241 2
51 248 1
51 251 3
51 261 2
51 268 2
51 271 3
52 131 2
52 132 2
52 141 3
52 142 2
52 166 2
52 172 3
52 173 2
52 175 2
52 186 1
52 196 3
52 204 2
52 208 3
52 217 2
52 218 3
52 225 3
52 242 2
52 249 1
52 252 3
52 262 2
52 269 2
52 272 3
53 132 2
53 133 2
53 142 3
53 143 2
53 167 2
53 173 3
53 174 2
53 176 2
53 187 1
53 197 3
53 205 2
53 209 3
53 218 2
53 219 3
53 226 3
53 243 2
53 250 1
53 253 3
53 263 2
53 270 2
53 273 3
54 133 2
54 134 2
54 143 3
54 144 2
54 168 2
54 174 3
54 175 2
54 177 2
54 188 1
54 198 3
54 206 2
54 210 3
54 219 2
54 220 3
54 227 3
54 244 2
54 251 1
54 254 3
54 264 2
54 271 2
54 274 3
55 134 2
55 135 2
55 144 3
55 145 2
55 169 2
55 175 3
55 176 2
55 178 2
55 189 1
55 199 3
55 207 2
55 211 3
55 220 2
55 221 3
55 228 3
55 245 2
55 252 1
55 255 3
55 265 2
55 272 2
55 275 3
56 135 2
56 136 2
56 145 3
56 146 2
56 170 2
56 176 3
56 177 2
56 179 2
56 190 1
56 200 3
56 208 2
56 212 3
56 221 2
56 222 3
56 229 3
56 246 2
56 253 1
56 256 3
56 266 2
56 273 2
56 276 3
57 136 2
57 137 2
57 146 3
57 147 2
57 161 3
57 171 2
57 177 3
57 178 2
57 180 2
57 191 1
57 209 2
57 213 3
57 222 2
57 223 3
57 230 3
57 247 2
57 254 1
57 257 3
57 267 2
57 274 2
57 277 3
58 137 2
58 138 2
58 147 3
58 148 2
58 162 3
58 172 2
58 178 3
58 179 2
58 181 2
58 192 1
58 210 2
58 214 3
58 223 2
58 224 3
58 231 3
58 248 2
58 255 1
58 258 3
58 268 2
58 275 2
58 278 3
59 138 2
59 139 2
59 148 3
59 149 2
59 163 3
59 173 2
59 179 3
59 180 2
59 182 2
59 193 1
59 211 2
59 215 3
59 224 2
59 225 3
59 232 3
59 249 2
59 256 1
59 259 3
59 269 2
59 276 2
59 279 3
60 139 2
60 140 2
60 149 3
60 150 2
60 164 3
60 174 2
60 180 3
60 181 2
60 183 2
60 194 1
60 212 2
60 216 3
60 225 2
60 226 3
60 233 3
60 250 2
60 257 1
60 260 3
60 270 2
60 277 2
60 280 3
61 140 2
61 141 2
61 150 3
61 151 2
61 165 3
61 175 2
61 181 3
61 182 2
61 184 2
61 195 1
61 213 2
61 217 3
61 226 2
61 227 3
61 234 3
61 241 3
61 251 2
61 258 1
61 261 3
61 271 2
61 278 2
62 141 2
62 142 2
62 151 3
62 152 2
62 166 3
62 176 2
62 182 3
62 183 2
62 185 2
62 196 1
62 214 2
62 218 3
62 227 2
62 228 3
62 235 3
62 242 3
62 252 2
62 259 1
62 262 3
62 272 2
62 279 2
63 142 2
63 143 2
63 152 3
63 153 2
63 167 3
63 177 2
63 183 3
63 184 2
63 186 2
63 197 1
63 215 2
63 219 3
63 228 2
63 229 3
63 236 3
63 243 3
63 253 2
63 260 1
63 263 3
63 273 2
63 280 2
64 143 2
64 144 2
64 153 3
64 154 2
64 168 3
64 178 2
64 184 3
64 185 2
64 187 2
64 198 1
64 216 2
64 220 3
64 229 2
64 230 3
64 237 3
64 241 2
64 244 3
64 254 2
64 261 1
64 264 3
64 274 2
65 144 2
65 145 2
65 154 3
65 155 2
65 169 3
65 179 2
65 185 3
65 186 2
65 188 2
65 199 1
65 217 2
65 221 3
65 230 2
65 231 3
65 238 3
65 242 2
65 245 3
65 255 2
65 262 1
65 265 3
65 275 2
66 145 2
66 146 2
66 155 3
66 156 2
66 170 3
66 180 2
66 186 3
66 187 2
66 189 2
66 200 1
66 218 2
66 222 3
66 231 2
66 232 3
66 239 3
66 243 2
66 246 3
66 256 2
66 263 1
66 266 3
66 276 2
67 146 2
67 147 2
67 156 3
67 157 2
67 161 1
67 171 3
67 181 2
67 187 3
67 188 2
67 190 2
67 219 2
67 223 3
67 232 2
67 233 3
67 240 3
67 244 2
67 247 3
67 257 2
67 264 1
67 267 3
67 277 2
68 147 2
68 148 2
68 157 3
68 158 2
68 162 1
68 172 3
68 182 2
68 188 3
68 189 2
68 191 2
68 201 3
68 220 2
68 224 3
68 233 2
68 234 3
68 245 2
68 248 3
68 258 2
68 265 1
68 268 3
68 278 2
69 148 2
69 149 2
69 158 3
69 159 2
69 163 1
69 173 3
69 183 2
69 189 3
69 190 2
69 192 2
69 202 3
69 221 2
69 225 3
69 234 2
69 235 3
69 246 2
69 249 3
69 259 2
69 266 1
69 269 3
69 279 2
70 149 2
70 150 2
70 159 3
70 160 2
70 164 1
70 174 3
70 184 2
70 190 3
70 191 2
70 193 2
70 203 3
70 222 2
70 226 3
70 235 2
70 236 3
70 247 2
70 250 3
70 260 2
70 267 1
70 270 3
70 280 2
71 121 2
71 150 2
71 151 2
71 160 3
71 165 1
71 175 3
71 185 2
71 191 3
71 192 2
71 194 2
71 204 3
71 223 2
71 227 3
71 236 2
71 237 3
71 241 2
71 248 2
71 251 3
71 261 2
71 268 1
71 271 3
72 121 3
72 122 2
72 151 2
72 152 2
72 166 1
72 176 3
72 186 2
72 192 3
72 193 2
72 195 2
72 205 3
72 224 2
72 228 3
72 237 2
72 238 3
72 242 2
72 249 2
72 252 3
72 262 2
72 269 1
72 272 3
73 122 3
73 123 2
73 152 2
73 153 2
73 167 1
73 177 3
73 187 2
73 193 3
73 194 2
73 196 2
73 206 3
73 225 2
73 229 3
73 238 2
73 239 3
73 243 2
73 250 2
73 253 3
73 263 2
73 270 1
73 273 3
74 123 3
74 124 2
74 153 2
74 154 2
74 168 1
74 178 3
74 188 2
74 194 3
74 195 2
74 197 2
74 207 3
74 226 2
74 230 3
74 239 2
74 240 3
74 244 2
74 251 2
74 254 3
74 264 2
74 271 1
74 274 3
75 124 3
75 125 2
75 154 2
75 155 2
75 169 1
75 179 3
75 189 2
75 195 3
75 196 2
75 198 2
75 201 3
75 208 3
75 227 2
75 231 3
75 240 2
75 245 2
75 252 2
75 255 3
75 265 2
75 272 1
75 275 3
76 125 3
76 126 2
76 155 2
76 156 2
76 170 1
76 180 3
76 190 2
76 196 3
76 197 2
76 199 2
76 201 2
76 202 3
76 209 3
76 228 2
76 232 3
76 246 2
76 253 2
76 256 3
76 266 2
76 273 1
76 276 3
77 126 3
77 127 2
77 156 2
77 157 2
77 171 1
77 181 3
77 191 2
77 197 3
77 198 2
77 200 2
77 202 2
77 203 3
77 210 3
77 229 2
77 233 3
77 247 2
77 254 2
77 257 3
77 267 2
77 274 1
77 277 3
78 127 3
78 128 2
78 157 2
78 158 2
78 161 2
78 172 1
78 182 3
78 192 2
78 198 3
78 199 2
78 203 2
78 204 3
78 211 3
78 230 2
78 234 3
78 248 2
78 255 2
78 258 3
78 268 2
78 275 1
78 278 3
79 128 3
79 129 2
79 158 2
79 159 2
79 162 2
79 173 1
79 183 3
79 193 2
79 199 3
79 200 2
79 204 2
79 205 3
79 212 3
79 231 2
79 235 3
79 249 2
79 256 2
79 259 3
79 269 2
79 276 1
79 279 3
80 129 3
80 130 2
80 159 2
80 160 2
80 161 2
80 163 2
80 174 1
80 184 3
80 194 2
80 200 3
80 205 2
80 206 3
80 213 3
80 232 2
80 236 3
80 250 2
80 257 2
80 260 3
80 270 2
80 277 1
80 280 3
