%%MatrixMarket matrix coordinate integer general
% Binary matrix over GF(2).
% Coordinate indices are 1-based; omitted entries are zero.
160 640 4760
1 9 1
1 10 1
1 12 1
1 29 1
1 30 1
1 38 1
1 75 1
1 76 1
1 89 1
1 112 1
1 116 1
1 117 1
1 118 1
1 130 1
1 149 1
1 150 1
1 170 1
1 189 1
1 190 1
1 196 1
1 210 1
1 229 1
1 230 1
1 235 1
1 570 1
1 571 1
1 572 1
1 590 1
1 592 1
2 11 1
2 12 1
2 14 1
2 31 1
2 32 1
2 40 1
2 77 1
2 78 1
2 91 1
2 114 1
2 118 1
2 119 1
2 120 1
2 132 1
2 151 1
2 152 1
2 172 1
2 191 1
2 192 1
2 198 1
2 212 1
2 231 1
2 232 1
2 237 1
2 572 1
2 573 1
2 574 1
2 592 1
2 594 1
3 13 1
3 14 1
3 16 1
3 33 1
3 34 1
3 42 1
3 79 1
3 80 1
3 93 1
3 116 1
3 120 1
3 121 1
3 122 1
3 134 1
3 153 1
3 154 1
3 174 1
3 193 1
3 194 1
3 200 1
3 214 1
3 233 1
3 234 1
3 239 1
3 574 1
3 575 1
3 576 1
3 594 1
3 596 1
4 1 1
4 2 1
4 15 1
4 16 1
4 18 1
4 35 1
4 36 1
4 44 1
4 95 1
4 118 1
4 122 1
4 123 1
4 124 1
4 136 1
4 155 1
4 156 1
4 161 1
4 176 1
4 195 1
4 196 1
4 202 1
4 216 1
4 235 1
4 236 1
4 576 1
4 577 1
4 578 1
4 596 1
4 598 1
5 3 1
5 4 1
5 17 1
5 18 1
5 20 1
5 37 1
5 38 1
5 46 1
5 97 1
5 120 1
5 124 1
5 125 1
5 126 1
5 138 1
5 157 1
5 158 1
5 163 1
5 178 1
5 197 1
5 198 1
5 204 1
5 218 1
5 237 1
5 238 1
5 578 1
5 579 1
5 580 1
5 598 1
5 600 1
6 5 1
6 6 1
6 19 1
6 20 1
6 22 1
6 39 1
6 40 1
6 48 1
6 99 1
6 122 1
6 126 1
6 127 1
6 128 1
6 140 1
6 159 1
6 160 1
6 165 1
6 180 1
6 199 1
6 200 1
6 206 1
6 220 1
6 239 1
6 240 1
6 580 1
6 581 1
6 582 1
6 600 1
6 602 1
7 7 1
7 8 1
7 21 1
7 22 1
7 24 1
7 41 1
7 42 1
7 50 1
7 81 1
7 82 1
7 101 1
7 124 1
7 128 1
7 129 1
7 130 1
7 142 1
7 161 1
7 162 1
7 167 1
7 182 1
7 201 1
7 202 1
7 208 1
7 222 1
7 582 1
7 583 1
7 584 1
7 602 1
7 604 1
8 9 1
8 10 1
8 23 1
8 24 1
8 26 1
8 43 1
8 44 1
8 52 1
8 83 1
8 84 1
8 103 1
8 126 1
8 130 1
8 131 1
8 132 1
8 144 1
8 163 1
8 164 1
8 169 1
8 184 1
8 203 1
8 204 1
8 210 1
8 224 1
8 584 1
8 585 1
8 586 1
8 604 1
8 606 1
9 11 1
9 12 1
9 25 1
9 26 1
9 28 1
9 45 1
9 46 1
9 54 1
9 85 1
9 86 1
9 105 1
9 128 1
9 132 1
9 133 1
9 134 1
9 146 1
9 165 1
9 166 1
9 171 1
9 186 1
9 205 1
9 206 1
9 212 1
9 226 1
9 586 1
9 587 1
9 588 1
9 606 1
9 608 1
10 13 1
10 14 1
10 27 1
10 28 1
10 30 1
10 47 1
10 48 1
10 56 1
10 87 1
10 88 1
10 107 1
10 130 1
10 134 1
10 135 1
10 136 1
10 148 1
10 167 1
10 168 1
10 173 1
10 188 1
10 207 1
10 208 1
10 214 1
10 228 1
10 588 1
10 589 1
10 590 1
10 608 1
10 610 1
11 15 1
11 16 1
11 29 1
11 30 1
11 32 1
11 49 1
11 50 1
11 58 1
11 89 1
11 90 1
11 109 1
11 132 1
11 136 1
11 137 1
11 138 1
11 150 1
11 169 1
11 170 1
11 175 1
11 190 1
11 209 1
11 210 1
11 216 1
11 230 1
11 590 1
11 591 1
11 592 1
11 610 1
11 612 1
12 17 1
12 18 1
12 31 1
12 32 1
12 34 1
12 51 1
12 52 1
12 60 1
12 91 1
12 92 1
12 111 1
12 134 1
12 138 1
12 139 1
12 140 1
12 152 1
12 171 1
12 172 1
12 177 1
12 192 1
12 211 1
12 212 1
12 218 1
12 232 1
12 592 1
12 593 1
12 594 1
12 612 1
12 614 1
13 19 1
13 20 1
13 33 1
13 34 1
13 36 1
13 53 1
13 54 1
13 62 1
13 93 1
13 94 1
13 113 1
13 136 1
13 140 1
13 141 1
13 142 1
13 154 1
13 173 1
13 174 1
13 179 1
13 194 1
13 213 1
13 214 1
13 220 1
13 234 1
13 594 1
13 595 1
13 596 1
13 614 1
13 616 1
14 21 1
14 22 1
14 35 1
14 36 1
14 38 1
14 55 1
14 56 1
14 64 1
14 95 1
14 96 1
14 115 1
14 138 1
14 142 1
14 143 1
14 144 1
14 156 1
14 175 1
14 176 1
14 181 1
14 196 1
14 215 1
14 216 1
14 222 1
14 236 1
14 596 1
14 597 1
14 598 1
14 616 1
14 618 1
15 23 1
15 24 1
15 37 1
15 38 1
15 40 1
15 57 1
15 58 1
15 66 1
15 97 1
15 98 1
15 117 1
15 140 1
15 144 1
15 145 1
15 146 1
15 158 1
15 177 1
15 178 1
15 183 1
15 198 1
15 217 1
15 218 1
15 224 1
15 238 1
15 598 1
15 599 1
15 600 1
15 618 1
15 620 1
16 25 1
16 26 1
16 39 1
16 40 1
16 42 1
16 59 1
16 60 1
16 68 1
16 99 1
16 100 1
16 119 1
16 142 1
16 146 1
16 147 1
16 148 1
16 160 1
16 179 1
16 180 1
16 185 1
16 200 1
16 219 1
16 220 1
16 226 1
16 240 1
16 600 1
16 601 1
16 602 1
16 620 1
16 622 1
17 27 1
17 28 1
17 41 1
17 42 1
17 44 1
17 61 1
17 62 1
17 70 1
17 82 1
17 101 1
17 102 1
17 121 1
17 144 1
17 148 1
17 149 1
17 150 1
17 162 1
17 181 1
17 182 1
17 187 1
17 202 1
17 221 1
17 222 1
17 228 1
17 602 1
17 603 1
17 604 1
17 622 1
17 624 1
18 29 1
18 30 1
18 43 1
18 44 1
18 46 1
18 63 1
18 64 1
18 72 1
18 84 1
18 103 1
18 104 1
18 123 1
18 146 1
18 150 1
18 151 1
18 152 1
18 164 1
18 183 1
18 184 1
18 189 1
18 204 1
18 223 1
18 224 1
18 230 1
18 604 1
18 605 1
18 606 1
18 624 1
18 626 1
19 31 1
19 32 1
19 45 1
19 46 1
19 48 1
19 65 1
19 66 1
19 74 1
19 86 1
19 105 1
19 106 1
19 125 1
19 148 1
19 152 1
19 153 1
19 154 1
19 166 1
19 185 1
19 186 1
19 191 1
19 206 1
19 225 1
19 226 1
19 232 1
19 606 1
19 607 1
19 608 1
19 626 1
19 628 1
20 33 1
20 34 1
20 47 1
20 48 1
20 50 1
20 67 1
20 68 1
20 76 1
20 88 1
20 107 1
20 108 1
20 127 1
20 150 1
20 154 1
20 155 1
20 156 1
20 168 1
20 187 1
20 188 1
20 193 1
20 208 1
20 227 1
20 228 1
20 234 1
20 608 1
20 609 1
20 610 1
20 628 1
20 630 1
21 35 1
21 36 1
21 49 1
21 50 1
21 52 1
21 69 1
21 70 1
21 78 1
21 90 1
21 109 1
21 110 1
21 129 1
21 152 1
21 156 1
21 157 1
21 158 1
21 170 1
21 189 1
21 190 1
21 195 1
21 210 1
21 229 1
21 230 1
21 236 1
21 610 1
21 611 1
21 612 1
21 630 1
21 632 1
22 37 1
22 38 1
22 51 1
22 52 1
22 54 1
22 71 1
22 72 1
22 80 1
22 92 1
22 111 1
22 112 1
22 131 1
22 154 1
22 158 1
22 159 1
22 160 1
22 172 1
22 191 1
22 192 1
22 197 1
22 212 1
22 231 1
22 232 1
22 238 1
22 612 1
22 613 1
22 614 1
22 632 1
22 634 1
23 2 1
23 39 1
23 40 1
23 53 1
23 54 1
23 56 1
23 73 1
23 74 1
23 81 1
23 82 1
23 94 1
23 113 1
23 114 1
23 133 1
23 156 1
23 160 1
23 174 1
23 193 1
23 194 1
23 199 1
23 214 1
23 233 1
23 234 1
23 240 1
23 614 1
23 615 1
23 616 1
23 634 1
23 636 1
24 4 1
24 41 1
24 42 1
24 55 1
24 56 1
24 58 1
24 75 1
24 76 1
24 82 1
24 83 1
24 84 1
24 96 1
24 115 1
24 116 1
24 135 1
24 158 1
24 162 1
24 176 1
24 195 1
24 196 1
24 201 1
24 216 1
24 235 1
24 236 1
24 616 1
24 617 1
24 618 1
24 636 1
24 638 1
25 6 1
25 43 1
25 44 1
25 57 1
25 58 1
25 60 1
25 77 1
25 78 1
25 84 1
25 85 1
25 86 1
25 98 1
25 117 1
25 118 1
25 137 1
25 160 1
25 164 1
25 178 1
25 197 1
25 198 1
25 203 1
25 218 1
25 237 1
25 238 1
25 618 1
25 619 1
25 620 1
25 638 1
25 640 1
26 8 1
26 45 1
26 46 1
26 59 1
26 60 1
26 62 1
26 79 1
26 80 1
26 82 1
26 86 1
26 87 1
26 88 1
26 100 1
26 119 1
26 120 1
26 139 1
26 166 1
26 180 1
26 199 1
26 200 1
26 205 1
26 220 1
26 239 1
26 240 1
26 562 1
26 620 1
26 621 1
26 622 1
26 640 1
27 1 1
27 2 1
27 10 1
27 47 1
27 48 1
27 61 1
27 62 1
27 64 1
27 84 1
27 88 1
27 89 1
27 90 1
27 102 1
27 121 1
27 122 1
27 141 1
27 161 1
27 162 1
27 168 1
27 182 1
27 201 1
27 202 1
27 207 1
27 222 1
27 562 1
27 564 1
27 622 1
27 623 1
27 624 1
28 3 1
28 4 1
28 12 1
28 49 1
28 50 1
28 63 1
28 64 1
28 66 1
28 86 1
28 90 1
28 91 1
28 92 1
28 104 1
28 123 1
28 124 1
28 143 1
28 163 1
28 164 1
28 170 1
28 184 1
28 203 1
28 204 1
28 209 1
28 224 1
28 564 1
28 566 1
28 624 1
28 625 1
28 626 1
29 5 1
29 6 1
29 14 1
29 51 1
29 52 1
29 65 1
29 66 1
29 68 1
29 88 1
29 92 1
29 93 1
29 94 1
29 106 1
29 125 1
29 126 1
29 145 1
29 165 1
29 166 1
29 172 1
29 186 1
29 205 1
29 206 1
29 211 1
29 226 1
29 566 1
29 568 1
29 626 1
29 627 1
29 628 1
30 7 1
30 8 1
30 16 1
30 53 1
30 54 1
30 67 1
30 68 1
30 70 1
30 90 1
30 94 1
30 95 1
30 96 1
30 108 1
30 127 1
30 128 1
30 147 1
30 167 1
30 168 1
30 174 1
30 188 1
30 207 1
30 208 1
30 213 1
30 228 1
30 568 1
30 570 1
30 628 1
30 629 1
30 630 1
31 9 1
31 10 1
31 18 1
31 55 1
31 56 1
31 69 1
31 70 1
31 72 1
31 92 1
31 96 1
31 97 1
31 98 1
31 110 1
31 129 1
31 130 1
31 149 1
31 169 1
31 170 1
31 176 1
31 190 1
31 209 1
31 210 1
31 215 1
31 230 1
31 570 1
31 572 1
31 630 1
31 631 1
31 632 1
32 11 1
32 12 1
32 20 1
32 57 1
32 58 1
32 71 1
32 72 1
32 74 1
32 94 1
32 98 1
32 99 1
32 100 1
32 112 1
32 131 1
32 132 1
32 151 1
32 171 1
32 172 1
32 178 1
32 192 1
32 211 1
32 212 1
32 217 1
32 232 1
32 572 1
32 574 1
32 632 1
32 633 1
32 634 1
33 13 1
33 14 1
33 22 1
33 59 1
33 60 1
33 73 1
33 74 1
33 76 1
33 96 1
33 100 1
33 101 1
33 102 1
33 114 1
33 133 1
33 134 1
33 153 1
33 173 1
33 174 1
33 180 1
33 194 1
33 213 1
33 214 1
33 219 1
33 234 1
33 574 1
33 576 1
33 634 1
33 635 1
33 636 1
34 15 1
34 16 1
34 24 1
34 61 1
34 62 1
34 75 1
34 76 1
34 78 1
34 98 1
34 102 1
34 103 1
34 104 1
34 116 1
34 135 1
34 136 1
34 155 1
34 175 1
34 176 1
34 182 1
34 196 1
34 215 1
34 216 1
34 221 1
34 236 1
34 576 1
34 578 1
34 636 1
34 637 1
34 638 1
35 17 1
35 18 1
35 26 1
35 63 1
35 64 1
35 77 1
35 78 1
35 80 1
35 100 1
35 104 1
35 105 1
35 106 1
35 118 1
35 137 1
35 138 1
35 157 1
35 177 1
35 178 1
35 184 1
35 198 1
35 217 1
35 218 1
35 223 1
35 238 1
35 578 1
35 580 1
35 638 1
35 639 1
35 640 1
36 2 1
36 19 1
36 20 1
36 28 1
36 65 1
36 66 1
36 79 1
36 80 1
36 102 1
36 106 1
36 107 1
36 108 1
36 120 1
36 139 1
36 140 1
36 159 1
36 179 1
36 180 1
36 186 1
36 200 1
36 219 1
36 220 1
36 225 1
36 240 1
36 561 1
36 562 1
36 580 1
36 582 1
36 640 1
37 1 1
37 2 1
37 4 1
37 21 1
37 22 1
37 30 1
37 67 1
37 68 1
37 81 1
37 104 1
37 108 1
37 109 1
37 110 1
37 122 1
37 141 1
37 142 1
37 162 1
37 181 1
37 182 1
37 188 1
37 202 1
37 221 1
37 222 1
37 227 1
37 562 1
37 563 1
37 564 1
37 582 1
37 584 1
38 3 1
38 4 1
38 6 1
38 23 1
38 24 1
38 32 1
38 69 1
38 70 1
38 83 1
38 106 1
38 110 1
38 111 1
38 112 1
38 124 1
38 143 1
38 144 1
38 164 1
38 183 1
38 184 1
38 190 1
38 204 1
38 223 1
38 224 1
38 229 1
38 564 1
38 565 1
38 566 1
38 584 1
38 586 1
39 5 1
39 6 1
39 8 1
39 25 1
39 26 1
39 34 1
39 71 1
39 72 1
39 85 1
39 108 1
39 112 1
39 113 1
39 114 1
39 126 1
39 145 1
39 146 1
39 166 1
39 185 1
39 186 1
39 192 1
39 206 1
39 225 1
39 226 1
39 231 1
39 566 1
39 567 1
39 568 1
39 586 1
39 588 1
40 7 1
40 8 1
40 10 1
40 27 1
40 28 1
40 36 1
40 73 1
40 74 1
40 87 1
40 110 1
40 114 1
40 115 1
40 116 1
40 128 1
40 147 1
40 148 1
40 168 1
40 187 1
40 188 1
40 194 1
40 208 1
40 227 1
40 228 1
40 233 1
40 568 1
40 569 1
40 570 1
40 588 1
40 590 1
41 9 1
41 11 1
41 12 1
41 29 1
41 37 1
41 38 1
41 75 1
41 90 1
41 111 1
41 112 1
41 115 1
41 116 1
41 117 1
41 129 1
41 130 1
41 149 1
41 169 1
41 170 1
41 189 1
41 195 1
41 196 1
41 209 1
41 210 1
41 229 1
41 236 1
41 569 1
41 570 1
41 571 1
41 589 1
41 590 1
41 591 1
41 592 1
42 11 1
42 13 1
42 14 1
42 31 1
42 39 1
42 40 1
42 77 1
42 92 1
42 113 1
42 114 1
42 117 1
42 118 1
42 119 1
42 131 1
42 132 1
42 151 1
42 171 1
42 172 1
42 191 1
42 197 1
42 198 1
42 211 1
42 212 1
42 231 1
42 238 1
42 571 1
42 572 1
42 573 1
42 591 1
42 592 1
42 593 1
42 594 1
43 13 1
43 15 1
43 16 1
43 33 1
43 41 1
43 42 1
43 79 1
43 94 1
43 115 1
43 116 1
43 119 1
43 120 1
43 121 1
43 133 1
43 134 1
43 153 1
43 173 1
43 174 1
43 193 1
43 199 1
43 200 1
43 213 1
43 214 1
43 233 1
43 240 1
43 573 1
43 574 1
43 575 1
43 593 1
43 594 1
43 595 1
43 596 1
44 1 1
44 15 1
44 17 1
44 18 1
44 35 1
44 43 1
44 44 1
44 96 1
44 117 1
44 118 1
44 121 1
44 122 1
44 123 1
44 135 1
44 136 1
44 155 1
44 162 1
44 175 1
44 176 1
44 195 1
44 201 1
44 202 1
44 215 1
44 216 1
44 235 1
44 575 1
44 576 1
44 577 1
44 595 1
44 596 1
44 597 1
44 598 1
45 3 1
45 17 1
45 19 1
45 20 1
45 37 1
45 45 1
45 46 1
45 98 1
45 119 1
45 120 1
45 123 1
45 124 1
45 125 1
45 137 1
45 138 1
45 157 1
45 164 1
45 177 1
45 178 1
45 197 1
45 203 1
45 204 1
45 217 1
45 218 1
45 237 1
45 577 1
45 578 1
45 579 1
45 597 1
45 598 1
45 599 1
45 600 1
46 5 1
46 19 1
46 21 1
46 22 1
46 39 1
46 47 1
46 48 1
46 100 1
46 121 1
46 122 1
46 125 1
46 126 1
46 127 1
46 139 1
46 140 1
46 159 1
46 166 1
46 179 1
46 180 1
46 199 1
46 205 1
46 206 1
46 219 1
46 220 1
46 239 1
46 579 1
46 580 1
46 581 1
46 599 1
46 600 1
46 601 1
46 602 1
47 7 1
47 21 1
47 23 1
47 24 1
47 41 1
47 49 1
47 50 1
47 81 1
47 102 1
47 123 1
47 124 1
47 127 1
47 128 1
47 129 1
47 141 1
47 142 1
47 161 1
47 168 1
47 181 1
47 182 1
47 201 1
47 207 1
47 208 1
47 221 1
47 222 1
47 581 1
47 582 1
47 583 1
47 601 1
47 602 1
47 603 1
47 604 1
48 9 1
48 23 1
48 25 1
48 26 1
48 43 1
48 51 1
48 52 1
48 83 1
48 104 1
48 125 1
48 126 1
48 129 1
48 130 1
48 131 1
48 143 1
48 144 1
48 163 1
48 170 1
48 183 1
48 184 1
48 203 1
48 209 1
48 210 1
48 223 1
48 224 1
48 583 1
48 584 1
48 585 1
48 603 1
48 604 1
48 605 1
48 606 1
49 11 1
49 25 1
49 27 1
49 28 1
49 45 1
49 53 1
49 54 1
49 85 1
49 106 1
49 127 1
49 128 1
49 131 1
49 132 1
49 133 1
49 145 1
49 146 1
49 165 1
49 172 1
49 185 1
49 186 1
49 205 1
49 211 1
49 212 1
49 225 1
49 226 1
49 585 1
49 586 1
49 587 1
49 605 1
49 606 1
49 607 1
49 608 1
50 13 1
50 27 1
50 29 1
50 30 1
50 47 1
50 55 1
50 56 1
50 87 1
50 108 1
50 129 1
50 130 1
50 133 1
50 134 1
50 135 1
50 147 1
50 148 1
50 167 1
50 174 1
50 187 1
50 188 1
50 207 1
50 213 1
50 214 1
50 227 1
50 228 1
50 587 1
50 588 1
50 589 1
50 607 1
50 608 1
50 609 1
50 610 1
51 15 1
51 29 1
51 31 1
51 32 1
51 49 1
51 57 1
51 58 1
51 89 1
51 110 1
51 131 1
51 132 1
51 135 1
51 136 1
51 137 1
51 149 1
51 150 1
51 169 1
51 176 1
51 189 1
51 190 1
51 209 1
51 215 1
51 216 1
51 229 1
51 230 1
51 589 1
51 590 1
51 591 1
51 609 1
51 610 1
51 611 1
51 612 1
52 17 1
52 31 1
52 33 1
52 34 1
52 51 1
52 59 1
52 60 1
52 91 1
52 112 1
52 133 1
52 134 1
52 137 1
52 138 1
52 139 1
52 151 1
52 152 1
52 171 1
52 178 1
52 191 1
52 192 1
52 211 1
52 217 1
52 218 1
52 231 1
52 232 1
52 591 1
52 592 1
52 593 1
52 611 1
52 612 1
52 613 1
52 614 1
53 19 1
53 33 1
53 35 1
53 36 1
53 53 1
53 61 1
53 62 1
53 93 1
53 114 1
53 135 1
53 136 1
53 139 1
53 140 1
53 141 1
53 153 1
53 154 1
53 173 1
53 180 1
53 193 1
53 194 1
53 213 1
53 219 1
53 220 1
53 233 1
53 234 1
53 593 1
53 594 1
53 595 1
53 613 1
53 614 1
53 615 1
53 616 1
54 21 1
54 35 1
54 37 1
54 38 1
54 55 1
54 63 1
54 64 1
54 95 1
54 116 1
54 137 1
54 138 1
54 141 1
54 142 1
54 143 1
54 155 1
54 156 1
54 175 1
54 182 1
54 195 1
54 196 1
54 215 1
54 221 1
54 222 1
54 235 1
54 236 1
54 595 1
54 596 1
54 597 1
54 615 1
54 616 1
54 617 1
54 618 1
55 23 1
55 37 1
55 39 1
55 40 1
55 57 1
55 65 1
55 66 1
55 97 1
55 118 1
55 139 1
55 140 1
55 143 1
55 144 1
55 145 1
55 157 1
55 158 1
55 177 1
55 184 1
55 197 1
55 198 1
55 217 1
55 223 1
55 224 1
55 237 1
55 238 1
55 597 1
55 598 1
55 599 1
55 617 1
55 618 1
55 619 1
55 620 1
56 25 1
56 39 1
56 41 1
56 42 1
56 59 1
56 67 1
56 68 1
56 99 1
56 120 1
56 141 1
56 142 1
56 145 1
56 146 1
56 147 1
56 159 1
56 160 1
56 179 1
56 186 1
56 199 1
56 200 1
56 219 1
56 225 1
56 226 1
56 239 1
56 240 1
56 599 1
56 600 1
56 601 1
56 619 1
56 620 1
56 621 1
56 622 1
57 27 1
57 41 1
57 43 1
57 44 1
57 61 1
57 69 1
57 70 1
57 81 1
57 82 1
57 101 1
57 122 1
57 143 1
57 144 1
57 147 1
57 148 1
57 149 1
57 161 1
57 162 1
57 181 1
57 188 1
57 201 1
57 202 1
57 221 1
57 227 1
57 228 1
57 601 1
57 602 1
57 603 1
57 621 1
57 622 1
57 623 1
57 624 1
58 29 1
58 43 1
58 45 1
58 46 1
58 63 1
58 71 1
58 72 1
58 83 1
58 84 1
58 103 1
58 124 1
58 145 1
58 146 1
58 149 1
58 150 1
58 151 1
58 163 1
58 164 1
58 183 1
58 190 1
58 203 1
58 204 1
58 223 1
58 229 1
58 230 1
58 603 1
58 604 1
58 605 1
58 623 1
58 624 1
58 625 1
58 626 1
59 31 1
59 45 1
59 47 1
59 48 1
59 65 1
59 73 1
59 74 1
59 85 1
59 86 1
59 105 1
59 126 1
59 147 1
59 148 1
59 151 1
59 152 1
59 153 1
59 165 1
59 166 1
59 185 1
59 192 1
59 205 1
59 206 1
59 225 1
59 231 1
59 232 1
59 605 1
59 606 1
59 607 1
59 625 1
59 626 1
59 627 1
59 628 1
60 33 1
60 47 1
60 49 1
60 50 1
60 67 1
60 75 1
60 76 1
60 87 1
60 88 1
60 107 1
60 128 1
60 149 1
60 150 1
60 153 1
60 154 1
60 155 1
60 167 1
60 168 1
60 187 1
60 194 1
60 207 1
60 208 1
60 227 1
60 233 1
60 234 1
60 607 1
60 608 1
60 609 1
60 627 1
60 628 1
60 629 1
60 630 1
61 35 1
61 49 1
61 51 1
61 52 1
61 69 1
61 77 1
61 78 1
61 89 1
61 90 1
61 109 1
61 130 1
61 151 1
61 152 1
61 155 1
61 156 1
61 157 1
61 169 1
61 170 1
61 189 1
61 196 1
61 209 1
61 210 1
61 229 1
61 235 1
61 236 1
61 609 1
61 610 1
61 611 1
61 629 1
61 630 1
61 631 1
61 632 1
62 37 1
62 51 1
62 53 1
62 54 1
62 71 1
62 79 1
62 80 1
62 91 1
62 92 1
62 111 1
62 132 1
62 153 1
62 154 1
62 157 1
62 158 1
62 159 1
62 171 1
62 172 1
62 191 1
62 198 1
62 211 1
62 212 1
62 231 1
62 237 1
62 238 1
62 611 1
62 612 1
62 613 1
62 631 1
62 632 1
62 633 1
62 634 1
63 1 1
63 2 1
63 39 1
63 53 1
63 55 1
63 56 1
63 73 1
63 81 1
63 93 1
63 94 1
63 113 1
63 134 1
63 155 1
63 156 1
63 159 1
63 160 1
63 173 1
63 174 1
63 193 1
63 200 1
63 213 1
63 214 1
63 233 1
63 239 1
63 240 1
63 613 1
63 614 1
63 615 1
63 633 1
63 634 1
63 635 1
63 636 1
64 3 1
64 4 1
64 41 1
64 55 1
64 57 1
64 58 1
64 75 1
64 81 1
64 82 1
64 83 1
64 95 1
64 96 1
64 115 1
64 136 1
64 157 1
64 158 1
64 161 1
64 162 1
64 175 1
64 176 1
64 195 1
64 202 1
64 215 1
64 216 1
64 235 1
64 615 1
64 616 1
64 617 1
64 635 1
64 636 1
64 637 1
64 638 1
65 5 1
65 6 1
65 43 1
65 57 1
65 59 1
65 60 1
65 77 1
65 83 1
65 84 1
65 85 1
65 97 1
65 98 1
65 117 1
65 138 1
65 159 1
65 160 1
65 163 1
65 164 1
65 177 1
65 178 1
65 197 1
65 204 1
65 217 1
65 218 1
65 237 1
65 617 1
65 618 1
65 619 1
65 637 1
65 638 1
65 639 1
65 640 1
66 7 1
66 8 1
66 45 1
66 59 1
66 61 1
66 62 1
66 79 1
66 81 1
66 82 1
66 85 1
66 86 1
66 87 1
66 99 1
66 100 1
66 119 1
66 140 1
66 165 1
66 166 1
66 179 1
66 180 1
66 199 1
66 206 1
66 219 1
66 220 1
66 239 1
66 561 1
66 562 1
66 619 1
66 620 1
66 621 1
66 639 1
66 640 1
67 1 1
67 9 1
67 10 1
67 47 1
67 61 1
67 63 1
67 64 1
67 83 1
67 84 1
67 87 1
67 88 1
67 89 1
67 101 1
67 102 1
67 121 1
67 142 1
67 161 1
67 167 1
67 168 1
67 181 1
67 182 1
67 201 1
67 208 1
67 221 1
67 222 1
67 561 1
67 562 1
67 563 1
67 564 1
67 621 1
67 622 1
67 623 1
68 3 1
68 11 1
68 12 1
68 49 1
68 63 1
68 65 1
68 66 1
68 85 1
68 86 1
68 89 1
68 90 1
68 91 1
68 103 1
68 104 1
68 123 1
68 144 1
68 163 1
68 169 1
68 170 1
68 183 1
68 184 1
68 203 1
68 210 1
68 223 1
68 224 1
68 563 1
68 564 1
68 565 1
68 566 1
68 623 1
68 624 1
68 625 1
69 5 1
69 13 1
69 14 1
69 51 1
69 65 1
69 67 1
69 68 1
69 87 1
69 88 1
69 91 1
69 92 1
69 93 1
69 105 1
69 106 1
69 125 1
69 146 1
69 165 1
69 171 1
69 172 1
69 185 1
69 186 1
69 205 1
69 212 1
69 225 1
69 226 1
69 565 1
69 566 1
69 567 1
69 568 1
69 625 1
69 626 1
69 627 1
70 7 1
70 15 1
70 16 1
70 53 1
70 67 1
70 69 1
70 70 1
70 89 1
70 90 1
70 93 1
70 94 1
70 95 1
70 107 1
70 108 1
70 127 1
70 148 1
70 167 1
70 173 1
70 174 1
70 187 1
70 188 1
70 207 1
70 214 1
70 227 1
70 228 1
70 567 1
70 568 1
70 569 1
70 570 1
70 627 1
70 628 1
70 629 1
71 9 1
71 17 1
71 18 1
71 55 1
71 69 1
71 71 1
71 72 1
71 91 1
71 92 1
71 95 1
71 96 1
71 97 1
71 109 1
71 110 1
71 129 1
71 150 1
71 169 1
71 175 1
71 176 1
71 189 1
71 190 1
71 209 1
71 216 1
71 229 1
71 230 1
71 569 1
71 570 1
71 571 1
71 572 1
71 629 1
71 630 1
71 631 1
72 11 1
72 19 1
72 20 1
72 57 1
72 71 1
72 73 1
72 74 1
72 93 1
72 94 1
72 97 1
72 98 1
72 99 1
72 111 1
72 112 1
72 131 1
72 152 1
72 171 1
72 177 1
72 178 1
72 191 1
72 192 1
72 211 1
72 218 1
72 231 1
72 232 1
72 571 1
72 572 1
72 573 1
72 574 1
72 631 1
72 632 1
72 633 1
73 13 1
73 21 1
73 22 1
73 59 1
73 73 1
73 75 1
73 76 1
73 95 1
73 96 1
73 99 1
73 100 1
73 101 1
73 113 1
73 114 1
73 133 1
73 154 1
73 173 1
73 179 1
73 180 1
73 193 1
73 194 1
73 213 1
73 220 1
73 233 1
73 234 1
73 573 1
73 574 1
73 575 1
73 576 1
73 633 1
73 634 1
73 635 1
74 15 1
74 23 1
74 24 1
74 61 1
74 75 1
74 77 1
74 78 1
74 97 1
74 98 1
74 101 1
74 102 1
74 103 1
74 115 1
74 116 1
74 135 1
74 156 1
74 175 1
74 181 1
74 182 1
74 195 1
74 196 1
74 215 1
74 222 1
74 235 1
74 236 1
74 575 1
74 576 1
74 577 1
74 578 1
74 635 1
74 636 1
74 637 1
75 17 1
75 25 1
75 26 1
75 63 1
75 77 1
75 79 1
75 80 1
75 99 1
75 100 1
75 103 1
75 104 1
75 105 1
75 117 1
75 118 1
75 137 1
75 158 1
75 177 1
75 183 1
75 184 1
75 197 1
75 198 1
75 217 1
75 224 1
75 237 1
75 238 1
75 577 1
75 578 1
75 579 1
75 580 1
75 637 1
75 638 1
75 639 1
76 1 1
76 2 1
76 19 1
76 27 1
76 28 1
76 65 1
76 79 1
76 101 1
76 102 1
76 105 1
76 106 1
76 107 1
76 119 1
76 120 1
76 139 1
76 160 1
76 179 1
76 185 1
76 186 1
76 199 1
76 200 1
76 219 1
76 226 1
76 239 1
76 240 1
76 561 1
76 579 1
76 580 1
76 581 1
76 582 1
76 639 1
76 640 1
77 1 1
77 3 1
77 4 1
77 21 1
77 29 1
77 30 1
77 67 1
77 82 1
77 103 1
77 104 1
77 107 1
77 108 1
77 109 1
77 121 1
77 122 1
77 141 1
77 161 1
77 162 1
77 181 1
77 187 1
77 188 1
77 201 1
77 202 1
77 221 1
77 228 1
77 561 1
77 562 1
77 563 1
77 581 1
77 582 1
77 583 1
77 584 1
78 3 1
78 5 1
78 6 1
78 23 1
78 31 1
78 32 1
78 69 1
78 84 1
78 105 1
78 106 1
78 109 1
78 110 1
78 111 1
78 123 1
78 124 1
78 143 1
78 163 1
78 164 1
78 183 1
78 189 1
78 190 1
78 203 1
78 204 1
78 223 1
78 230 1
78 563 1
78 564 1
78 565 1
78 583 1
78 584 1
78 585 1
78 586 1
79 5 1
79 7 1
79 8 1
79 25 1
79 33 1
79 34 1
79 71 1
79 86 1
79 107 1
79 108 1
79 111 1
79 112 1
79 113 1
79 125 1
79 126 1
79 145 1
79 165 1
79 166 1
79 185 1
79 191 1
79 192 1
79 205 1
79 206 1
79 225 1
79 232 1
79 565 1
79 566 1
79 567 1
79 585 1
79 586 1
79 587 1
79 588 1
80 7 1
80 9 1
80 10 1
80 27 1
80 35 1
80 36 1
80 73 1
80 88 1
80 109 1
80 110 1
80 113 1
80 114 1
80 115 1
80 127 1
80 128 1
80 147 1
80 167 1
80 168 1
80 187 1
80 193 1
80 194 1
80 207 1
80 208 1
80 227 1
80 234 1
80 567 1
80 568 1
80 569 1
80 587 1
80 588 1
80 589 1
80 590 1
81 15 1
81 29 1
81 36 1
81 41 1
81 67 1
81 76 1
81 96 1
81 115 1
81 129 1
81 141 1
81 148 1
81 155 1
81 489 1
81 510 1
81 515 1
81 529 1
81 550 1
81 555 1
81 556 1
81 569 1
81 595 1
81 596 1
81 602 1
81 621 1
81 630 1
81 635 1
82 17 1
82 31 1
82 38 1
82 43 1
82 69 1
82 78 1
82 98 1
82 117 1
82 131 1
82 143 1
82 150 1
82 157 1
82 491 1
82 512 1
82 517 1
82 531 1
82 552 1
82 557 1
82 558 1
82 571 1
82 597 1
82 598 1
82 604 1
82 623 1
82 632 1
82 637 1
83 19 1
83 33 1
83 40 1
83 45 1
83 71 1
83 80 1
83 100 1
83 119 1
83 133 1
83 145 1
83 152 1
83 159 1
83 493 1
83 514 1
83 519 1
83 533 1
83 554 1
83 559 1
83 560 1
83 573 1
83 599 1
83 600 1
83 606 1
83 625 1
83 634 1
83 639 1
84 2 1
84 21 1
84 35 1
84 42 1
84 47 1
84 73 1
84 81 1
84 102 1
84 121 1
84 135 1
84 147 1
84 154 1
84 481 1
84 482 1
84 495 1
84 516 1
84 521 1
84 535 1
84 556 1
84 561 1
84 575 1
84 601 1
84 602 1
84 608 1
84 627 1
84 636 1
85 4 1
85 23 1
85 37 1
85 44 1
85 49 1
85 75 1
85 83 1
85 104 1
85 123 1
85 137 1
85 149 1
85 156 1
85 483 1
85 484 1
85 497 1
85 518 1
85 523 1
85 537 1
85 558 1
85 563 1
85 577 1
85 603 1
85 604 1
85 610 1
85 629 1
85 638 1
86 6 1
86 25 1
86 39 1
86 46 1
86 51 1
86 77 1
86 85 1
86 106 1
86 125 1
86 139 1
86 151 1
86 158 1
86 485 1
86 486 1
86 499 1
86 520 1
86 525 1
86 539 1
86 560 1
86 565 1
86 579 1
86 605 1
86 606 1
86 612 1
86 631 1
86 640 1
87 8 1
87 27 1
87 41 1
87 48 1
87 53 1
87 79 1
87 87 1
87 108 1
87 127 1
87 141 1
87 153 1
87 160 1
87 482 1
87 487 1
87 488 1
87 501 1
87 522 1
87 527 1
87 541 1
87 562 1
87 567 1
87 581 1
87 607 1
87 608 1
87 614 1
87 633 1
88 1 1
88 10 1
88 29 1
88 43 1
88 50 1
88 55 1
88 82 1
88 89 1
88 110 1
88 129 1
88 143 1
88 155 1
88 484 1
88 489 1
88 490 1
88 503 1
88 524 1
88 529 1
88 543 1
88 564 1
88 569 1
88 583 1
88 609 1
88 610 1
88 616 1
88 635 1
89 3 1
89 12 1
89 31 1
89 45 1
89 52 1
89 57 1
89 84 1
89 91 1
89 112 1
89 131 1
89 145 1
89 157 1
89 486 1
89 491 1
89 492 1
89 505 1
89 526 1
89 531 1
89 545 1
89 566 1
89 571 1
89 585 1
89 611 1
89 612 1
89 618 1
89 637 1
90 5 1
90 14 1
90 33 1
90 47 1
90 54 1
90 59 1
90 86 1
90 93 1
90 114 1
90 133 1
90 147 1
90 159 1
90 488 1
90 493 1
90 494 1
90 507 1
90 528 1
90 533 1
90 547 1
90 568 1
90 573 1
90 587 1
90 613 1
90 614 1
90 620 1
90 639 1
91 7 1
91 16 1
91 35 1
91 49 1
91 56 1
91 61 1
91 81 1
91 88 1
91 95 1
91 116 1
91 135 1
91 149 1
91 490 1
91 495 1
91 496 1
91 509 1
91 530 1
91 535 1
91 549 1
91 561 1
91 570 1
91 575 1
91 589 1
91 615 1
91 616 1
91 622 1
92 9 1
92 18 1
92 37 1
92 51 1
92 58 1
92 63 1
92 83 1
92 90 1
92 97 1
92 118 1
92 137 1
92 151 1
92 492 1
92 497 1
92 498 1
92 511 1
92 532 1
92 537 1
92 551 1
92 563 1
92 572 1
92 577 1
92 591 1
92 617 1
92 618 1
92 624 1
93 11 1
93 20 1
93 39 1
93 53 1
93 60 1
93 65 1
93 85 1
93 92 1
93 99 1
93 120 1
93 139 1
93 153 1
93 494 1
93 499 1
93 500 1
93 513 1
93 534 1
93 539 1
93 553 1
93 565 1
93 574 1
93 579 1
93 593 1
93 619 1
93 620 1
93 626 1
94 13 1
94 22 1
94 41 1
94 55 1
94 62 1
94 67 1
94 87 1
94 94 1
94 101 1
94 122 1
94 141 1
94 155 1
94 496 1
94 501 1
94 502 1
94 515 1
94 536 1
94 541 1
94 555 1
94 567 1
94 576 1
94 581 1
94 595 1
94 621 1
94 622 1
94 628 1
95 15 1
95 24 1
95 43 1
95 57 1
95 64 1
95 69 1
95 89 1
95 96 1
95 103 1
95 124 1
95 143 1
95 157 1
95 498 1
95 503 1
95 504 1
95 517 1
95 538 1
95 543 1
95 557 1
95 569 1
95 578 1
95 583 1
95 597 1
95 623 1
95 624 1
95 630 1
96 17 1
96 26 1
96 45 1
96 59 1
96 66 1
96 71 1
96 91 1
96 98 1
96 105 1
96 126 1
96 145 1
96 159 1
96 500 1
96 505 1
96 506 1
96 519 1
96 540 1
96 545 1
96 559 1
96 571 1
96 580 1
96 585 1
96 599 1
96 625 1
96 626 1
96 632 1
97 19 1
97 28 1
97 47 1
97 61 1
97 68 1
97 73 1
97 81 1
97 93 1
97 100 1
97 107 1
97 128 1
97 147 1
97 481 1
97 502 1
97 507 1
97 508 1
97 521 1
97 542 1
97 547 1
97 573 1
97 582 1
97 587 1
97 601 1
97 627 1
97 628 1
97 634 1
98 21 1
98 30 1
98 49 1
98 63 1
98 70 1
98 75 1
98 83 1
98 95 1
98 102 1
98 109 1
98 130 1
98 149 1
98 483 1
98 504 1
98 509 1
98 510 1
98 523 1
98 544 1
98 549 1
98 575 1
98 584 1
98 589 1
98 603 1
98 629 1
98 630 1
98 636 1
99 23 1
99 32 1
99 51 1
99 65 1
99 72 1
99 77 1
99 85 1
99 97 1
99 104 1
99 111 1
99 132 1
99 151 1
99 485 1
99 506 1
99 511 1
99 512 1
99 525 1
99 546 1
99 551 1
99 577 1
99 586 1
99 591 1
99 605 1
99 631 1
99 632 1
99 638 1
100 25 1
100 34 1
100 53 1
100 67 1
100 74 1
100 79 1
100 87 1
100 99 1
100 106 1
100 113 1
100 134 1
100 153 1
100 487 1
100 508 1
100 513 1
100 514 1
100 527 1
100 548 1
100 553 1
100 579 1
100 588 1
100 593 1
100 607 1
100 633 1
100 634 1
100 640 1
101 1 1
101 27 1
101 36 1
101 55 1
101 69 1
101 76 1
101 89 1
101 101 1
101 108 1
101 115 1
101 136 1
101 155 1
101 489 1
101 510 1
101 515 1
101 516 1
101 529 1
101 550 1
101 555 1
101 562 1
101 581 1
101 590 1
101 595 1
101 609 1
101 635 1
101 636 1
102 3 1
102 29 1
102 38 1
102 57 1
102 71 1
102 78 1
102 91 1
102 103 1
102 110 1
102 117 1
102 138 1
102 157 1
102 491 1
102 512 1
102 517 1
102 518 1
102 531 1
102 552 1
102 557 1
102 564 1
102 583 1
102 592 1
102 597 1
102 611 1
102 637 1
102 638 1
103 5 1
103 31 1
103 40 1
103 59 1
103 73 1
103 80 1
103 93 1
103 105 1
103 112 1
103 119 1
103 140 1
103 159 1
103 493 1
103 514 1
103 519 1
103 520 1
103 533 1
103 554 1
103 559 1
103 566 1
103 585 1
103 594 1
103 599 1
103 613 1
103 639 1
103 640 1
104 2 1
104 7 1
104 33 1
104 42 1
104 61 1
104 75 1
104 81 1
104 95 1
104 107 1
104 114 1
104 121 1
104 142 1
104 481 1
104 495 1
104 516 1
104 521 1
104 522 1
104 535 1
104 556 1
104 561 1
104 562 1
104 568 1
104 587 1
104 596 1
104 601 1
104 615 1
105 4 1
105 9 1
105 35 1
105 44 1
105 63 1
105 77 1
105 83 1
105 97 1
105 109 1
105 116 1
105 123 1
105 144 1
105 483 1
105 497 1
105 518 1
105 523 1
105 524 1
105 537 1
105 558 1
105 563 1
105 564 1
105 570 1
105 589 1
105 598 1
105 603 1
105 617 1
106 6 1
106 11 1
106 37 1
106 46 1
106 65 1
106 79 1
106 85 1
106 99 1
106 111 1
106 118 1
106 125 1
106 146 1
106 485 1
106 499 1
106 520 1
106 525 1
106 526 1
106 539 1
106 560 1
106 565 1
106 566 1
106 572 1
106 591 1
106 600 1
106 605 1
106 619 1
107 1 1
107 8 1
107 13 1
107 39 1
107 48 1
107 67 1
107 87 1
107 101 1
107 113 1
107 120 1
107 127 1
107 148 1
107 482 1
107 487 1
107 501 1
107 522 1
107 527 1
107 528 1
107 541 1
107 567 1
107 568 1
107 574 1
107 593 1
107 602 1
107 607 1
107 621 1
108 3 1
108 10 1
108 15 1
108 41 1
108 50 1
108 69 1
108 89 1
108 103 1
108 115 1
108 122 1
108 129 1
108 150 1
108 484 1
108 489 1
108 503 1
108 524 1
108 529 1
108 530 1
108 543 1
108 569 1
108 570 1
108 576 1
108 595 1
108 604 1
108 609 1
108 623 1
109 5 1
109 12 1
109 17 1
109 43 1
109 52 1
109 71 1
109 91 1
109 105 1
109 117 1
109 124 1
109 131 1
109 152 1
109 486 1
109 491 1
109 505 1
109 526 1
109 531 1
109 532 1
109 545 1
109 571 1
109 572 1
109 578 1
109 597 1
109 606 1
109 611 1
109 625 1
110 7 1
110 14 1
110 19 1
110 45 1
110 54 1
110 73 1
110 93 1
110 107 1
110 119 1
110 126 1
110 133 1
110 154 1
110 488 1
110 493 1
110 507 1
110 528 1
110 533 1
110 534 1
110 547 1
110 573 1
110 574 1
110 580 1
110 599 1
110 608 1
110 613 1
110 627 1
111 9 1
111 16 1
111 21 1
111 47 1
111 56 1
111 75 1
111 95 1
111 109 1
111 121 1
111 128 1
111 135 1
111 156 1
111 490 1
111 495 1
111 509 1
111 530 1
111 535 1
111 536 1
111 549 1
111 575 1
111 576 1
111 582 1
111 601 1
111 610 1
111 615 1
111 629 1
112 11 1
112 18 1
112 23 1
112 49 1
112 58 1
112 77 1
112 97 1
112 111 1
112 123 1
112 130 1
112 137 1
112 158 1
112 492 1
112 497 1
112 511 1
112 532 1
112 537 1
112 538 1
112 551 1
112 577 1
112 578 1
112 584 1
112 603 1
112 612 1
112 617 1
112 631 1
113 13 1
113 20 1
113 25 1
113 51 1
113 60 1
113 79 1
113 99 1
113 113 1
113 125 1
113 132 1
113 139 1
113 160 1
113 494 1
113 499 1
113 513 1
113 534 1
113 539 1
113 540 1
113 553 1
113 579 1
113 580 1
113 586 1
113 605 1
113 614 1
113 619 1
113 633 1
114 1 1
114 15 1
114 22 1
114 27 1
114 53 1
114 62 1
114 82 1
114 101 1
114 115 1
114 127 1
114 134 1
114 141 1
114 496 1
114 501 1
114 515 1
114 536 1
114 541 1
114 542 1
114 555 1
114 581 1
114 582 1
114 588 1
114 607 1
114 616 1
114 621 1
114 635 1
115 3 1
115 17 1
115 24 1
115 29 1
115 55 1
115 64 1
115 84 1
115 103 1
115 117 1
115 129 1
115 136 1
115 143 1
115 498 1
115 503 1
115 517 1
115 538 1
115 543 1
115 544 1
115 557 1
115 583 1
115 584 1
115 590 1
115 609 1
115 618 1
115 623 1
115 637 1
116 5 1
116 19 1
116 26 1
116 31 1
116 57 1
116 66 1
116 86 1
116 105 1
116 119 1
116 131 1
116 138 1
116 145 1
116 500 1
116 505 1
116 519 1
116 540 1
116 545 1
116 546 1
116 559 1
116 585 1
116 586 1
116 592 1
116 611 1
116 620 1
116 625 1
116 639 1
117 7 1
117 21 1
117 28 1
117 33 1
117 59 1
117 68 1
117 88 1
117 107 1
117 121 1
117 133 1
117 140 1
117 147 1
117 481 1
117 502 1
117 507 1
117 521 1
117 542 1
117 547 1
117 548 1
117 561 1
117 587 1
117 588 1
117 594 1
117 613 1
117 622 1
117 627 1
118 9 1
118 23 1
118 30 1
118 35 1
118 61 1
118 70 1
118 90 1
118 109 1
118 123 1
118 135 1
118 142 1
118 149 1
118 483 1
118 504 1
118 509 1
118 523 1
118 544 1
118 549 1
118 550 1
118 563 1
118 589 1
118 590 1
118 596 1
118 615 1
118 624 1
118 629 1
119 11 1
119 25 1
119 32 1
119 37 1
119 63 1
119 72 1
119 92 1
119 111 1
119 125 1
119 137 1
119 144 1
119 151 1
119 485 1
119 506 1
119 511 1
119 525 1
119 546 1
119 551 1
119 552 1
119 565 1
119 591 1
119 592 1
119 598 1
119 617 1
119 626 1
119 631 1
120 13 1
120 27 1
120 34 1
120 39 1
120 65 1
120 74 1
120 94 1
120 113 1
120 127 1
120 139 1
120 146 1
120 153 1
120 487 1
120 508 1
120 513 1
120 527 1
120 548 1
120 553 1
120 554 1
120 567 1
120 593 1
120 594 1
120 600 1
120 619 1
120 628 1
120 633 1
121 16 1
121 30 1
121 35 1
121 36 1
121 42 1
121 68 1
121 75 1
121 76 1
121 95 1
121 96 1
121 116 1
121 130 1
121 142 1
121 147 1
121 148 1
121 156 1
121 490 1
121 509 1
121 510 1
121 516 1
121 530 1
121 549 1
121 550 1
121 555 1
121 570 1
121 595 1
121 601 1
121 602 1
121 622 1
121 629 1
121 630 1
121 636 1
122 18 1
122 32 1
122 37 1
122 38 1
122 44 1
122 70 1
122 77 1
122 78 1
122 97 1
122 98 1
122 118 1
122 132 1
122 144 1
122 149 1
122 150 1
122 158 1
122 492 1
122 511 1
122 512 1
122 518 1
122 532 1
122 551 1
122 552 1
122 557 1
122 572 1
122 597 1
122 603 1
122 604 1
122 624 1
122 631 1
122 632 1
122 638 1
123 20 1
123 34 1
123 39 1
123 40 1
123 46 1
123 72 1
123 79 1
123 80 1
123 99 1
123 100 1
123 120 1
123 134 1
123 146 1
123 151 1
123 152 1
123 160 1
123 494 1
123 513 1
123 514 1
123 520 1
123 534 1
123 553 1
123 554 1
123 559 1
123 574 1
123 599 1
123 605 1
123 606 1
123 626 1
123 633 1
123 634 1
123 640 1
124 1 1
124 2 1
124 22 1
124 36 1
124 41 1
124 42 1
124 48 1
124 74 1
124 82 1
124 101 1
124 102 1
124 122 1
124 136 1
124 148 1
124 153 1
124 154 1
124 481 1
124 496 1
124 515 1
124 516 1
124 522 1
124 536 1
124 555 1
124 556 1
124 562 1
124 576 1
124 601 1
124 607 1
124 608 1
124 628 1
124 635 1
124 636 1
125 3 1
125 4 1
125 24 1
125 38 1
125 43 1
125 44 1
125 50 1
125 76 1
125 84 1
125 103 1
125 104 1
125 124 1
125 138 1
125 150 1
125 155 1
125 156 1
125 483 1
125 498 1
125 517 1
125 518 1
125 524 1
125 538 1
125 557 1
125 558 1
125 564 1
125 578 1
125 603 1
125 609 1
125 610 1
125 630 1
125 637 1
125 638 1
126 5 1
126 6 1
126 26 1
126 40 1
126 45 1
126 46 1
126 52 1
126 78 1
126 86 1
126 105 1
126 106 1
126 126 1
126 140 1
126 152 1
126 157 1
126 158 1
126 485 1
126 500 1
126 519 1
126 520 1
126 526 1
126 540 1
126 559 1
126 560 1
126 566 1
126 580 1
126 605 1
126 611 1
126 612 1
126 632 1
126 639 1
126 640 1
127 7 1
127 8 1
127 28 1
127 42 1
127 47 1
127 48 1
127 54 1
127 80 1
127 88 1
127 107 1
127 108 1
127 128 1
127 142 1
127 154 1
127 159 1
127 160 1
127 481 1
127 482 1
127 487 1
127 502 1
127 521 1
127 522 1
127 528 1
127 542 1
127 561 1
127 562 1
127 568 1
127 582 1
127 607 1
127 613 1
127 614 1
127 634 1
128 2 1
128 9 1
128 10 1
128 30 1
128 44 1
128 49 1
128 50 1
128 56 1
128 81 1
128 82 1
128 90 1
128 109 1
128 110 1
128 130 1
128 144 1
128 156 1
128 483 1
128 484 1
128 489 1
128 504 1
128 523 1
128 524 1
128 530 1
128 544 1
128 563 1
128 564 1
128 570 1
128 584 1
128 609 1
128 615 1
128 616 1
128 636 1
129 4 1
129 11 1
129 12 1
129 32 1
129 46 1
129 51 1
129 52 1
129 58 1
129 83 1
129 84 1
129 92 1
129 111 1
129 112 1
129 132 1
129 146 1
129 158 1
129 485 1
129 486 1
129 491 1
129 506 1
129 525 1
129 526 1
129 532 1
129 546 1
129 565 1
129 566 1
129 572 1
129 586 1
129 611 1
129 617 1
129 618 1
129 638 1
130 6 1
130 13 1
130 14 1
130 34 1
130 48 1
130 53 1
130 54 1
130 60 1
130 85 1
130 86 1
130 94 1
130 113 1
130 114 1
130 134 1
130 148 1
130 160 1
130 487 1
130 488 1
130 493 1
130 508 1
130 527 1
130 528 1
130 534 1
130 548 1
130 567 1
130 568 1
130 574 1
130 588 1
130 613 1
130 619 1
130 620 1
130 640 1
131 8 1
131 15 1
131 16 1
131 36 1
131 50 1
131 55 1
131 56 1
131 62 1
131 82 1
131 87 1
131 88 1
131 96 1
131 115 1
131 116 1
131 136 1
131 150 1
131 489 1
131 490 1
131 495 1
131 510 1
131 529 1
131 530 1
131 536 1
131 550 1
131 562 1
131 569 1
131 570 1
131 576 1
131 590 1
131 615 1
131 621 1
131 622 1
132 10 1
132 17 1
132 18 1
132 38 1
132 52 1
132 57 1
132 58 1
132 64 1
132 84 1
132 89 1
132 90 1
132 98 1
132 117 1
132 118 1
132 138 1
132 152 1
132 491 1
132 492 1
132 497 1
132 512 1
132 531 1
132 532 1
132 538 1
132 552 1
132 564 1
132 571 1
132 572 1
132 578 1
132 592 1
132 617 1
132 623 1
132 624 1
133 12 1
133 19 1
133 20 1
133 40 1
133 54 1
133 59 1
133 60 1
133 66 1
133 86 1
133 91 1
133 92 1
133 100 1
133 119 1
133 120 1
133 140 1
133 154 1
133 493 1
133 494 1
133 499 1
133 514 1
133 533 1
133 534 1
133 540 1
133 554 1
133 566 1
133 573 1
133 574 1
133 580 1
133 594 1
133 619 1
133 625 1
133 626 1
134 14 1
134 21 1
134 22 1
134 42 1
134 56 1
134 61 1
134 62 1
134 68 1
134 88 1
134 93 1
134 94 1
134 102 1
134 121 1
134 122 1
134 142 1
134 156 1
134 495 1
134 496 1
134 501 1
134 516 1
134 535 1
134 536 1
134 542 1
134 556 1
134 568 1
134 575 1
134 576 1
134 582 1
134 596 1
134 621 1
134 627 1
134 628 1
135 16 1
135 23 1
135 24 1
135 44 1
135 58 1
135 63 1
135 64 1
135 70 1
135 90 1
135 95 1
135 96 1
135 104 1
135 123 1
135 124 1
135 144 1
135 158 1
135 497 1
135 498 1
135 503 1
135 518 1
135 537 1
135 538 1
135 544 1
135 558 1
135 570 1
135 577 1
135 578 1
135 584 1
135 598 1
135 623 1
135 629 1
135 630 1
136 18 1
136 25 1
136 26 1
136 46 1
136 60 1
136 65 1
136 66 1
136 72 1
136 92 1
136 97 1
136 98 1
136 106 1
136 125 1
136 126 1
136 146 1
136 160 1
136 499 1
136 500 1
136 505 1
136 520 1
136 539 1
136 540 1
136 546 1
136 560 1
136 572 1
136 579 1
136 580 1
136 586 1
136 600 1
136 625 1
136 631 1
136 632 1
137 20 1
137 27 1
137 28 1
137 48 1
137 62 1
137 67 1
137 68 1
137 74 1
137 82 1
137 94 1
137 99 1
137 100 1
137 108 1
137 127 1
137 128 1
137 148 1
137 482 1
137 501 1
137 502 1
137 507 1
137 522 1
137 541 1
137 542 1
137 548 1
137 574 1
137 581 1
137 582 1
137 588 1
137 602 1
137 627 1
137 633 1
137 634 1
138 22 1
138 29 1
138 30 1
138 50 1
138 64 1
138 69 1
138 70 1
138 76 1
138 84 1
138 96 1
138 101 1
138 102 1
138 110 1
138 129 1
138 130 1
138 150 1
138 484 1
138 503 1
138 504 1
138 509 1
138 524 1
138 543 1
138 544 1
138 550 1
138 576 1
138 583 1
138 584 1
138 590 1
138 604 1
138 629 1
138 635 1
138 636 1
139 24 1
139 31 1
139 32 1
139 52 1
139 66 1
139 71 1
139 72 1
139 78 1
139 86 1
139 98 1
139 103 1
139 104 1
139 112 1
139 131 1
139 132 1
139 152 1
139 486 1
139 505 1
139 506 1
139 511 1
139 526 1
139 545 1
139 546 1
139 552 1
139 578 1
139 585 1
139 586 1
139 592 1
139 606 1
139 631 1
139 637 1
139 638 1
140 26 1
140 33 1
140 34 1
140 54 1
140 68 1
140 73 1
140 74 1
140 80 1
140 88 1
140 100 1
140 105 1
140 106 1
140 114 1
140 133 1
140 134 1
140 154 1
140 488 1
140 507 1
140 508 1
140 513 1
140 528 1
140 547 1
140 548 1
140 554 1
140 580 1
140 587 1
140 588 1
140 594 1
140 608 1
140 633 1
140 639 1
140 640 1
141 2 1
141 28 1
141 35 1
141 36 1
141 56 1
141 70 1
141 75 1
141 76 1
141 90 1
141 102 1
141 107 1
141 108 1
141 116 1
141 135 1
141 136 1
141 156 1
141 490 1
141 509 1
141 510 1
141 515 1
141 530 1
141 549 1
141 550 1
141 556 1
141 561 1
141 562 1
141 582 1
141 589 1
141 590 1
141 596 1
141 610 1
141 635 1
142 4 1
142 30 1
142 37 1
142 38 1
142 58 1
142 72 1
142 77 1
142 78 1
142 92 1
142 104 1
142 109 1
142 110 1
142 118 1
142 137 1
142 138 1
142 158 1
142 492 1
142 511 1
142 512 1
142 517 1
142 532 1
142 551 1
142 552 1
142 558 1
142 563 1
142 564 1
142 584 1
142 591 1
142 592 1
142 598 1
142 612 1
142 637 1
143 6 1
143 32 1
143 39 1
143 40 1
143 60 1
143 74 1
143 79 1
143 80 1
143 94 1
143 106 1
143 111 1
143 112 1
143 120 1
143 139 1
143 140 1
143 160 1
143 494 1
143 513 1
143 514 1
143 519 1
143 534 1
143 553 1
143 554 1
143 560 1
143 565 1
143 566 1
143 586 1
143 593 1
143 594 1
143 600 1
143 614 1
143 639 1
144 1 1
144 2 1
144 8 1
144 34 1
144 41 1
144 42 1
144 62 1
144 76 1
144 82 1
144 96 1
144 108 1
144 113 1
144 114 1
144 122 1
144 141 1
144 142 1
144 482 1
144 496 1
144 515 1
144 516 1
144 521 1
144 536 1
144 555 1
144 556 1
144 561 1
144 567 1
144 568 1
144 588 1
144 595 1
144 596 1
144 602 1
144 616 1
145 3 1
145 4 1
145 10 1
145 36 1
145 43 1
145 44 1
145 64 1
145 78 1
145 84 1
145 98 1
145 110 1
145 115 1
145 116 1
145 124 1
145 143 1
145 144 1
145 484 1
145 498 1
145 517 1
145 518 1
145 523 1
145 538 1
145 557 1
145 558 1
145 563 1
145 569 1
145 570 1
145 590 1
145 597 1
145 598 1
145 604 1
145 618 1
146 5 1
146 6 1
146 12 1
146 38 1
146 45 1
146 46 1
146 66 1
146 80 1
146 86 1
146 100 1
146 112 1
146 117 1
146 118 1
146 126 1
146 145 1
146 146 1
146 486 1
146 500 1
146 519 1
146 520 1
146 525 1
146 540 1
146 559 1
146 560 1
146 565 1
146 571 1
146 572 1
146 592 1
146 599 1
146 600 1
146 606 1
146 620 1
147 2 1
147 7 1
147 8 1
147 14 1
147 40 1
147 47 1
147 48 1
147 68 1
147 88 1
147 102 1
147 114 1
147 119 1
147 120 1
147 128 1
147 147 1
147 148 1
147 481 1
147 482 1
147 488 1
147 502 1
147 521 1
147 522 1
147 527 1
147 542 1
147 567 1
147 573 1
147 574 1
147 594 1
147 601 1
147 602 1
147 608 1
147 622 1
148 4 1
148 9 1
148 10 1
148 16 1
148 42 1
148 49 1
148 50 1
148 70 1
148 90 1
148 104 1
148 116 1
148 121 1
148 122 1
148 130 1
148 149 1
148 150 1
148 483 1
148 484 1
148 490 1
148 504 1
148 523 1
148 524 1
148 529 1
148 544 1
148 569 1
148 575 1
148 576 1
148 596 1
148 603 1
148 604 1
148 610 1
148 624 1
149 6 1
149 11 1
149 12 1
149 18 1
149 44 1
149 51 1
149 52 1
149 72 1
149 92 1
149 106 1
149 118 1
149 123 1
149 124 1
149 132 1
149 151 1
149 152 1
149 485 1
149 486 1
149 492 1
149 506 1
149 525 1
149 526 1
149 531 1
149 546 1
149 571 1
149 577 1
149 578 1
149 598 1
149 605 1
149 606 1
149 612 1
149 626 1
150 8 1
150 13 1
150 14 1
150 20 1
150 46 1
150 53 1
150 54 1
150 74 1
150 94 1
150 108 1
150 120 1
150 125 1
150 126 1
150 134 1
150 153 1
150 154 1
150 487 1
150 488 1
150 494 1
150 508 1
150 527 1
150 528 1
150 533 1
150 548 1
150 573 1
150 579 1
150 580 1
150 600 1
150 607 1
150 608 1
150 614 1
150 628 1
151 10 1
151 15 1
151 16 1
151 22 1
151 48 1
151 55 1
151 56 1
151 76 1
151 96 1
151 110 1
151 122 1
151 127 1
151 128 1
151 136 1
151 155 1
151 156 1
151 489 1
151 490 1
151 496 1
151 510 1
151 529 1
151 530 1
151 535 1
151 550 1
151 575 1
151 581 1
151 582 1
151 602 1
151 609 1
151 610 1
151 616 1
151 630 1
152 12 1
152 17 1
152 18 1
152 24 1
152 50 1
152 57 1
152 58 1
152 78 1
152 98 1
152 112 1
152 124 1
152 129 1
152 130 1
152 138 1
152 157 1
152 158 1
152 491 1
152 492 1
152 498 1
152 512 1
152 531 1
152 532 1
152 537 1
152 552 1
152 577 1
152 583 1
152 584 1
152 604 1
152 611 1
152 612 1
152 618 1
152 632 1
153 14 1
153 19 1
153 20 1
153 26 1
153 52 1
153 59 1
153 60 1
153 80 1
153 100 1
153 114 1
153 126 1
153 131 1
153 132 1
153 140 1
153 159 1
153 160 1
153 493 1
153 494 1
153 500 1
153 514 1
153 533 1
153 534 1
153 539 1
153 554 1
153 579 1
153 585 1
153 586 1
153 606 1
153 613 1
153 614 1
153 620 1
153 634 1
154 2 1
154 16 1
154 21 1
154 22 1
154 28 1
154 54 1
154 61 1
154 62 1
154 81 1
154 82 1
154 102 1
154 116 1
154 128 1
154 133 1
154 134 1
154 142 1
154 495 1
154 496 1
154 502 1
154 516 1
154 535 1
154 536 1
154 541 1
154 556 1
154 581 1
154 587 1
154 588 1
154 608 1
154 615 1
154 616 1
154 622 1
154 636 1
155 4 1
155 18 1
155 23 1
155 24 1
155 30 1
155 56 1
155 63 1
155 64 1
155 83 1
155 84 1
155 104 1
155 118 1
155 130 1
155 135 1
155 136 1
155 144 1
155 497 1
155 498 1
155 504 1
155 518 1
155 537 1
155 538 1
155 543 1
155 558 1
155 583 1
155 589 1
155 590 1
155 610 1
155 617 1
155 618 1
155 624 1
155 638 1
156 6 1
156 20 1
156 25 1
156 26 1
156 32 1
156 58 1
156 65 1
156 66 1
156 85 1
156 86 1
156 106 1
156 120 1
156 132 1
156 137 1
156 138 1
156 146 1
156 499 1
156 500 1
156 506 1
156 520 1
156 539 1
156 540 1
156 545 1
156 560 1
156 585 1
156 591 1
156 592 1
156 612 1
156 619 1
156 620 1
156 626 1
156 640 1
157 8 1
157 22 1
157 27 1
157 28 1
157 34 1
157 60 1
157 67 1
157 68 1
157 87 1
157 88 1
157 108 1
157 122 1
157 134 1
157 139 1
157 140 1
157 148 1
157 482 1
157 501 1
157 502 1
157 508 1
157 522 1
157 541 1
157 542 1
157 547 1
157 562 1
157 587 1
157 593 1
157 594 1
157 614 1
157 621 1
157 622 1
157 628 1
158 10 1
158 24 1
158 29 1
158 30 1
158 36 1
158 62 1
158 69 1
158 70 1
158 89 1
158 90 1
158 110 1
158 124 1
158 136 1
158 141 1
158 142 1
158 150 1
158 484 1
158 503 1
158 504 1
158 510 1
158 524 1
158 543 1
158 544 1
158 549 1
158 564 1
158 589 1
158 595 1
158 596 1
158 616 1
158 623 1
158 624 1
158 630 1
159 12 1
159 26 1
159 31 1
159 32 1
159 38 1
159 64 1
159 71 1
159 72 1
159 91 1
159 92 1
159 112 1
159 126 1
159 138 1
159 143 1
159 144 1
159 152 1
159 486 1
159 505 1
159 506 1
159 512 1
159 526 1
159 545 1
159 546 1
159 551 1
159 566 1
159 591 1
159 597 1
159 598 1
159 618 1
159 625 1
159 626 1
159 632 1
160 14 1
160 28 1
160 33 1
160 34 1
160 40 1
160 66 1
160 73 1
160 74 1
160 93 1
160 94 1
160 114 1
160 128 1
160 140 1
160 145 1
160 146 1
160 154 1
160 488 1
160 507 1
160 508 1
160 514 1
160 528 1
160 547 1
160 548 1
160 553 1
160 568 1
160 593 1
160 599 1
160 600 1
160 620 1
160 627 1
160 628 1
160 634 1
