%%MatrixMarket matrix coordinate integer general
% GF(4) labels 0,1,2=omega,3=omega+1; arithmetic is NOT integer arithmetic.
% Coordinate indices are 1-based; omitted entries are zero.
80 320 1800
1 5 3
1 6 2
1 15 3
1 19 2
1 38 3
1 45 1
1 56 2
1 58 2
1 59 3
1 65 2
1 75 3
1 85 2
1 95 3
1 98 2
1 105 2
1 115 3
1 118 1
1 285 2
1 286 3
1 295 2
1 296 2
2 6 3
2 7 2
2 16 3
2 20 2
2 39 3
2 46 1
2 57 2
2 59 2
2 60 3
2 66 2
2 76 3
2 86 2
2 96 3
2 99 2
2 106 2
2 116 3
2 119 1
2 286 2
2 287 3
2 296 2
2 297 2
3 7 3
3 8 2
3 17 3
3 21 2
3 40 3
3 47 1
3 58 2
3 60 2
3 61 3
3 67 2
3 77 3
3 87 2
3 97 3
3 100 2
3 107 2
3 117 3
3 120 1
3 287 2
3 288 3
3 297 2
3 298 2
4 1 3
4 8 3
4 9 2
4 18 3
4 22 2
4 48 1
4 59 2
4 61 2
4 62 3
4 68 2
4 78 3
4 81 1
4 88 2
4 98 3
4 101 2
4 108 2
4 118 3
4 288 2
4 289 3
4 298 2
4 299 2
5 2 3
5 9 3
5 10 2
5 19 3
5 23 2
5 49 1
5 60 2
5 62 2
5 63 3
5 69 2
5 79 3
5 82 1
5 89 2
5 99 3
5 102 2
5 109 2
5 119 3
5 289 2
5 290 3
5 299 2
5 300 2
6 3 3
6 10 3
6 11 2
6 20 3
6 24 2
6 50 1
6 61 2
6 63 2
6 64 3
6 70 2
6 80 3
6 83 1
6 90 2
6 100 3
6 103 2
6 110 2
6 120 3
6 290 2
6 291 3
6 300 2
6 301 2
7 4 3
7 11 3
7 12 2
7 21 3
7 25 2
7 41 3
7 51 1
7 62 2
7 64 2
7 65 3
7 71 2
7 81 3
7 84 1
7 91 2
7 101 3
7 104 2
7 111 2
7 291 2
7 292 3
7 301 2
7 302 2
8 5 3
8 12 3
8 13 2
8 22 3
8 26 2
8 42 3
8 52 1
8 63 2
8 65 2
8 66 3
8 72 2
8 82 3
8 85 1
8 92 2
8 102 3
8 105 2
8 112 2
8 292 2
8 293 3
8 302 2
8 303 2
9 6 3
9 13 3
9 14 2
9 23 3
9 27 2
9 43 3
9 53 1
9 64 2
9 66 2
9 67 3
9 73 2
9 83 3
9 86 1
9 93 2
9 103 3
9 106 2
9 113 2
9 293 2
9 294 3
9 303 2
9 304 2
10 7 3
10 14 3
10 15 2
10 24 3
10 28 2
10 44 3
10 54 1
10 65 2
10 67 2
10 68 3
10 74 2
10 84 3
10 87 1
10 94 2
10 104 3
10 107 2
10 114 2
10 294 2
10 295 3
10 304 2
10 305 2
11 8 3
11 15 3
11 16 2
11 25 3
11 29 2
11 45 3
11 55 1
11 66 2
11 68 2
11 69 3
11 75 2
11 85 3
11 88 1
11 95 2
11 105 3
11 108 2
11 115 2
11 295 2
11 296 3
11 305 2
11 306 2
12 9 3
12 16 3
12 17 2
12 26 3
12 30 2
12 46 3
12 56 1
12 67 2
12 69 2
12 70 3
12 76 2
12 86 3
12 89 1
12 96 2
12 106 3
12 109 2
12 116 2
12 296 2
12 297 3
12 306 2
12 307 2
13 10 3
13 17 3
13 18 2
13 27 3
13 31 2
13 47 3
13 57 1
13 68 2
13 70 2
13 71 3
13 77 2
13 87 3
13 90 1
13 97 2
13 107 3
13 110 2
13 117 2
13 297 2
13 298 3
13 307 2
13 308 2
14 11 3
14 18 3
14 19 2
14 28 3
14 32 2
14 48 3
14 58 1
14 69 2
14 71 2
14 72 3
14 78 2
14 88 3
14 91 1
14 98 2
14 108 3
14 111 2
14 118 2
14 298 2
14 299 3
14 308 2
14 309 2
15 12 3
15 19 3
15 20 2
15 29 3
15 33 2
15 49 3
15 59 1
15 70 2
15 72 2
15 73 3
15 79 2
15 89 3
15 92 1
15 99 2
15 109 3
15 112 2
15 119 2
15 299 2
15 300 3
15 309 2
15 310 2
16 13 3
16 20 3
16 21 2
16 30 3
16 34 2
16 50 3
16 60 1
16 71 2
16 73 2
16 74 3
16 80 2
16 90 3
16 93 1
16 100 2
16 110 3
16 113 2
16 120 2
16 300 2
16 301 3
16 310 2
16 311 2
17 14 3
17 21 3
17 22 2
17 31 3
17 35 2
17 41 2
17 51 3
17 61 1
17 72 2
17 74 2
17 75 3
17 81 2
17 91 3
17 94 1
17 101 2
17 111 3
17 114 2
17 301 2
17 302 3
17 311 2
17 312 2
18 15 3
18 22 3
18 23 2
18 32 3
18 36 2
18 42 2
18 52 3
18 62 1
18 73 2
18 75 2
18 76 3
18 82 2
18 92 3
18 95 1
18 102 2
18 112 3
18 115 2
18 302 2
18 303 3
18 312 2
18 313 2
19 16 3
19 23 3
19 24 2
19 33 3
19 37 2
19 43 2
19 53 3
19 63 1
19 74 2
19 76 2
19 77 3
19 83 2
19 93 3
19 96 1
19 103 2
19 113 3
19 116 2
19 303 2
19 304 3
19 313 2
19 314 2
20 17 3
20 24 3
20 25 2
20 34 3
20 38 2
20 44 2
20 54 3
20 64 1
20 75 2
20 77 2
20 78 3
20 84 2
20 94 3
20 97 1
20 104 2
20 114 3
20 117 2
20 304 2
20 305 3
20 314 2
20 315 2
21 18 3
21 25 3
21 26 2
21 35 3
21 39 2
21 45 2
21 55 3
21 65 1
21 76 2
21 78 2
21 79 3
21 85 2
21 95 3
21 98 1
21 105 2
21 115 3
21 118 2
21 305 2
21 306 3
21 315 2
21 316 2
22 19 3
22 26 3
22 27 2
22 36 3
22 40 2
22 46 2
22 56 3
22 66 1
22 77 2
22 79 2
22 80 3
22 86 2
22 96 3
22 99 1
22 106 2
22 116 3
22 119 2
22 306 2
22 307 3
22 316 2
22 317 2
23 1 2
23 20 3
23 27 3
23 28 2
23 37 3
23 41 3
23 47 2
23 57 3
23 67 1
23 78 2
23 80 2
23 87 2
23 97 3
23 100 1
23 107 2
23 117 3
23 120 2
23 307 2
23 308 3
23 317 2
23 318 2
24 2 2
24 21 3
24 28 3
24 29 2
24 38 3
24 41 2
24 42 3
24 48 2
24 58 3
24 68 1
24 79 2
24 81 2
24 88 2
24 98 3
24 101 1
24 108 2
24 118 3
24 308 2
24 309 3
24 318 2
24 319 2
25 3 2
25 22 3
25 29 3
25 30 2
25 39 3
25 42 2
25 43 3
25 49 2
25 59 3
25 69 1
25 80 2
25 82 2
25 89 2
25 99 3
25 102 1
25 109 2
25 119 3
25 309 2
25 310 3
25 319 2
25 320 2
26 4 2
26 23 3
26 30 3
26 31 2
26 40 3
26 41 2
26 43 2
26 44 3
26 50 2
26 60 3
26 70 1
26 83 2
26 90 2
26 100 3
26 103 1
26 110 2
26 120 3
26 281 2
26 310 2
26 311 3
26 320 2
27 1 3
27 5 2
27 24 3
27 31 3
27 32 2
27 42 2
27 44 2
27 45 3
27 51 2
27 61 3
27 71 1
27 81 3
27 84 2
27 91 2
27 101 3
27 104 1
27 111 2
27 281 2
27 282 2
27 311 2
27 312 3
28 2 3
28 6 2
28 25 3
28 32 3
28 33 2
28 43 2
28 45 2
28 46 3
28 52 2
28 62 3
28 72 1
28 82 3
28 85 2
28 92 2
28 102 3
28 105 1
28 112 2
28 282 2
28 283 2
28 312 2
28 313 3
29 3 3
29 7 2
29 26 3
29 33 3
29 34 2
29 44 2
29 46 2
29 47 3
29 53 2
29 63 3
29 73 1
29 83 3
29 86 2
29 93 2
29 103 3
29 106 1
29 113 2
29 283 2
29 284 2
29 313 2
29 314 3
30 4 3
30 8 2
30 27 3
30 34 3
30 35 2
30 45 2
30 47 2
30 48 3
30 54 2
30 64 3
30 74 1
30 84 3
30 87 2
30 94 2
30 104 3
30 107 1
30 114 2
30 284 2
30 285 2
30 314 2
30 315 3
31 5 3
31 9 2
31 28 3
31 35 3
31 36 2
31 46 2
31 48 2
31 49 3
31 55 2
31 65 3
31 75 1
31 85 3
31 88 2
31 95 2
31 105 3
31 108 1
31 115 2
31 285 2
31 286 2
31 315 2
31 316 3
32 6 3
32 10 2
32 29 3
32 36 3
32 37 2
32 47 2
32 49 2
32 50 3
32 56 2
32 66 3
32 76 1
32 86 3
32 89 2
32 96 2
32 106 3
32 109 1
32 116 2
32 286 2
32 287 2
32 316 2
32 317 3
33 7 3
33 11 2
33 30 3
33 37 3
33 38 2
33 48 2
33 50 2
33 51 3
33 57 2
33 67 3
33 77 1
33 87 3
33 90 2
33 97 2
33 107 3
33 110 1
33 117 2
33 287 2
33 288 2
33 317 2
33 318 3
34 8 3
34 12 2
34 31 3
34 38 3
34 39 2
34 49 2
34 51 2
34 52 3
34 58 2
34 68 3
34 78 1
34 88 3
34 91 2
34 98 2
34 108 3
34 111 1
34 118 2
34 288 2
34 289 2
34 318 2
34 319 3
35 9 3
35 13 2
35 32 3
35 39 3
35 40 2
35 50 2
35 52 2
35 53 3
35 59 2
35 69 3
35 79 1
35 89 3
35 92 2
35 99 2
35 109 3
35 112 1
35 119 2
35 289 2
35 290 2
35 319 2
35 320 3
36 1 2
36 10 3
36 14 2
36 33 3
36 40 3
36 51 2
36 53 2
36 54 3
36 60 2
36 70 3
36 80 1
36 90 3
36 93 2
36 100 2
36 110 3
36 113 1
36 120 2
36 281 3
36 290 2
36 291 2
36 320 2
37 1 3
37 2 2
37 11 3
37 15 2
37 34 3
37 41 1
37 52 2
37 54 2
37 55 3
37 61 2
37 71 3
37 81 2
37 91 3
37 94 2
37 101 2
37 111 3
37 114 1
37 281 2
37 282 3
37 291 2
37 292 2
38 2 3
38 3 2
38 12 3
38 16 2
38 35 3
38 42 1
38 53 2
38 55 2
38 56 3
38 62 2
38 72 3
38 82 2
38 92 3
38 95 2
38 102 2
38 112 3
38 115 1
38 282 2
38 283 3
38 292 2
38 293 2
39 3 3
39 4 2
39 13 3
39 17 2
39 36 3
39 43 1
39 54 2
39 56 2
39 57 3
39 63 2
39 73 3
39 83 2
39 93 3
39 96 2
39 103 2
39 113 3
39 116 1
39 283 2
39 284 3
39 293 2
39 294 2
40 4 3
40 5 2
40 14 3
40 18 2
40 37 3
40 44 1
40 55 2
40 57 2
40 58 3
40 64 2
40 74 3
40 84 2
40 94 3
40 97 2
40 104 2
40 114 3
40 117 1
40 284 2
40 285 3
40 294 2
40 295 2
41 8 1
41 15 1
41 18 2
41 21 1
41 34 1
41 38 2
41 48 2
41 58 1
41 65 1
41 71 1
41 74 2
41 78 1
41 245 1
41 255 2
41 258 1
41 265 1
41 275 2
41 278 3
41 285 1
41 298 3
41 301 2
41 311 1
41 315 2
41 318 1
42 9 1
42 16 1
42 19 2
42 22 1
42 35 1
42 39 2
42 49 2
42 59 1
42 66 1
42 72 1
42 75 2
42 79 1
42 246 1
42 256 2
42 259 1
42 266 1
42 276 2
42 279 3
42 286 1
42 299 3
42 302 2
42 312 1
42 316 2
42 319 1
43 10 1
43 17 1
43 20 2
43 23 1
43 36 1
43 40 2
43 50 2
43 60 1
43 67 1
43 73 1
43 76 2
43 80 1
43 247 1
43 257 2
43 260 1
43 267 1
43 277 2
43 280 3
43 287 1
43 300 3
43 303 2
43 313 1
43 317 2
43 320 1
44 1 2
44 11 1
44 18 1
44 21 2
44 24 1
44 37 1
44 41 1
44 51 2
44 61 1
44 68 1
44 74 1
44 77 2
44 241 3
44 248 1
44 258 2
44 261 1
44 268 1
44 278 2
44 281 1
44 288 1
44 301 3
44 304 2
44 314 1
44 318 2
45 2 2
45 12 1
45 19 1
45 22 2
45 25 1
45 38 1
45 42 1
45 52 2
45 62 1
45 69 1
45 75 1
45 78 2
45 242 3
45 249 1
45 259 2
45 262 1
45 269 1
45 279 2
45 282 1
45 289 1
45 302 3
45 305 2
45 315 1
45 319 2
46 3 2
46 13 1
46 20 1
46 23 2
46 26 1
46 39 1
46 43 1
46 53 2
46 63 1
46 70 1
46 76 1
46 79 2
46 243 3
46 250 1
46 260 2
46 263 1
46 270 1
46 280 2
46 283 1
46 290 1
46 303 3
46 306 2
46 316 1
46 320 2
47 4 2
47 14 1
47 21 1
47 24 2
47 27 1
47 40 1
47 44 1
47 54 2
47 64 1
47 71 1
47 77 1
47 80 2
47 241 2
47 244 3
47 251 1
47 261 2
47 264 1
47 271 1
47 281 2
47 284 1
47 291 1
47 304 3
47 307 2
47 317 1
48 1 1
48 5 2
48 15 1
48 22 1
48 25 2
48 28 1
48 41 2
48 45 1
48 55 2
48 65 1
48 72 1
48 78 1
48 242 2
48 245 3
48 252 1
48 262 2
48 265 1
48 272 1
48 282 2
48 285 1
48 292 1
48 305 3
48 308 2
48 318 1
49 2 1
49 6 2
49 16 1
49 23 1
49 26 2
49 29 1
49 42 2
49 46 1
49 56 2
49 66 1
49 73 1
49 79 1
49 243 2
49 246 3
49 253 1
49 263 2
49 266 1
49 273 1
49 283 2
49 286 1
49 293 1
49 306 3
49 309 2
49 319 1
50 3 1
50 7 2
50 17 1
50 24 1
50 27 2
50 30 1
50 43 2
50 47 1
50 57 2
50 67 1
50 74 1
50 80 1
50 244 2
50 247 3
50 254 1
50 264 2
50 267 1
50 274 1
50 284 2
50 287 1
50 294 1
50 307 3
50 310 2
50 320 1
51 4 1
51 8 2
51 18 1
51 25 1
51 28 2
51 31 1
51 41 1
51 44 2
51 48 1
51 58 2
51 68 1
51 75 1
51 245 2
51 248 3
51 255 1
51 265 2
51 268 1
51 275 1
51 281 1
51 285 2
51 288 1
51 295 1
51 308 3
51 311 2
52 5 1
52 9 2
52 19 1
52 26 1
52 29 2
52 32 1
52 42 1
52 45 2
52 49 1
52 59 2
52 69 1
52 76 1
52 246 2
52 249 3
52 256 1
52 266 2
52 269 1
52 276 1
52 282 1
52 286 2
52 289 1
52 296 1
52 309 3
52 312 2
53 6 1
53 10 2
53 20 1
53 27 1
53 30 2
53 33 1
53 43 1
53 46 2
53 50 1
53 60 2
53 70 1
53 77 1
53 247 2
53 250 3
53 257 1
53 267 2
53 270 1
53 277 1
53 283 1
53 287 2
53 290 1
53 297 1
53 310 3
53 313 2
54 7 1
54 11 2
54 21 1
54 28 1
54 31 2
54 34 1
54 44 1
54 47 2
54 51 1
54 61 2
54 71 1
54 78 1
54 248 2
54 251 3
54 258 1
54 268 2
54 271 1
54 278 1
54 284 1
54 288 2
54 291 1
54 298 1
54 311 3
54 314 2
55 8 1
55 12 2
55 22 1
55 29 1
55 32 2
55 35 1
55 45 1
55 48 2
55 52 1
55 62 2
55 72 1
55 79 1
55 249 2
55 252 3
55 259 1
55 269 2
55 272 1
55 279 1
55 285 1
55 289 2
55 292 1
55 299 1
55 312 3
55 315 2
56 9 1
56 13 2
56 23 1
56 30 1
56 33 2
56 36 1
56 46 1
56 49 2
56 53 1
56 63 2
56 73 1
56 80 1
56 250 2
56 253 3
56 260 1
56 270 2
56 273 1
56 280 1
56 286 1
56 290 2
56 293 1
56 300 1
56 313 3
56 316 2
57 10 1
57 14 2
57 24 1
57 31 1
57 34 2
57 37 1
57 41 1
57 47 1
57 50 2
57 54 1
57 64 2
57 74 1
57 241 1
57 251 2
57 254 3
57 261 1
57 271 2
57 274 1
57 287 1
57 291 2
57 294 1
57 301 1
57 314 3
57 317 2
58 11 1
58 15 2
58 25 1
58 32 1
58 35 2
58 38 1
58 42 1
58 48 1
58 51 2
58 55 1
58 65 2
58 75 1
58 242 1
58 252 2
58 255 3
58 262 1
58 272 2
58 275 1
58 288 1
58 292 2
58 295 1
58 302 1
58 315 3
58 318 2
59 12 1
59 16 2
59 26 1
59 33 1
59 36 2
59 39 1
59 43 1
59 49 1
59 52 2
59 56 1
59 66 2
59 76 1
59 243 1
59 253 2
59 256 3
59 263 1
59 273 2
59 276 1
59 289 1
59 293 2
59 296 1
59 303 1
59 316 3
59 319 2
60 13 1
60 17 2
60 27 1
60 34 1
60 37 2
60 40 1
60 44 1
60 50 1
60 53 2
60 57 1
60 67 2
60 77 1
60 244 1
60 254 2
60 257 3
60 264 1
60 274 2
60 277 1
60 290 1
60 294 2
60 297 1
60 304 1
60 317 3
60 320 2
61 1 1
61 14 1
61 18 2
61 28 1
61 35 1
61 38 2
61 45 1
61 51 1
61 54 2
61 58 1
61 68 2
61 78 1
61 245 1
61 255 2
61 258 3
61 265 1
61 275 2
61 278 1
61 281 2
61 291 1
61 295 2
61 298 1
61 305 1
61 318 3
62 2 1
62 15 1
62 19 2
62 29 1
62 36 1
62 39 2
62 46 1
62 52 1
62 55 2
62 59 1
62 69 2
62 79 1
62 246 1
62 256 2
62 259 3
62 266 1
62 276 2
62 279 1
62 282 2
62 292 1
62 296 2
62 299 1
62 306 1
62 319 3
63 3 1
63 16 1
63 20 2
63 30 1
63 37 1
63 40 2
63 47 1
63 53 1
63 56 2
63 60 1
63 70 2
63 80 1
63 247 1
63 257 2
63 260 3
63 267 1
63 277 2
63 280 1
63 283 2
63 293 1
63 297 2
63 300 1
63 307 1
63 320 3
64 1 2
64 4 1
64 17 1
64 21 2
64 31 1
64 38 1
64 41 1
64 48 1
64 54 1
64 57 2
64 61 1
64 71 2
64 241 1
64 248 1
64 258 2
64 261 3
64 268 1
64 278 2
64 281 3
64 284 2
64 294 1
64 298 2
64 301 1
64 308 1
65 2 2
65 5 1
65 18 1
65 22 2
65 32 1
65 39 1
65 42 1
65 49 1
65 55 1
65 58 2
65 62 1
65 72 2
65 242 1
65 249 1
65 259 2
65 262 3
65 269 1
65 279 2
65 282 3
65 285 2
65 295 1
65 299 2
65 302 1
65 309 1
66 3 2
66 6 1
66 19 1
66 23 2
66 33 1
66 40 1
66 43 1
66 50 1
66 56 1
66 59 2
66 63 1
66 73 2
66 243 1
66 250 1
66 260 2
66 263 3
66 270 1
66 280 2
66 283 3
66 286 2
66 296 1
66 300 2
66 303 1
66 310 1
67 1 1
67 4 2
67 7 1
67 20 1
67 24 2
67 34 1
67 44 1
67 51 1
67 57 1
67 60 2
67 64 1
67 74 2
67 241 2
67 244 1
67 251 1
67 261 2
67 264 3
67 271 1
67 284 3
67 287 2
67 297 1
67 301 2
67 304 1
67 311 1
68 2 1
68 5 2
68 8 1
68 21 1
68 25 2
68 35 1
68 45 1
68 52 1
68 58 1
68 61 2
68 65 1
68 75 2
68 242 2
68 245 1
68 252 1
68 262 2
68 265 3
68 272 1
68 285 3
68 288 2
68 298 1
68 302 2
68 305 1
68 312 1
69 3 1
69 6 2
69 9 1
69 22 1
69 26 2
69 36 1
69 46 1
69 53 1
69 59 1
69 62 2
69 66 1
69 76 2
69 243 2
69 246 1
69 253 1
69 263 2
69 266 3
69 273 1
69 286 3
69 289 2
69 299 1
69 303 2
69 306 1
69 313 1
70 4 1
70 7 2
70 10 1
70 23 1
70 27 2
70 37 1
70 47 1
70 54 1
70 60 1
70 63 2
70 67 1
70 77 2
70 244 2
70 247 1
70 254 1
70 264 2
70 267 3
70 274 1
70 287 3
70 290 2
70 300 1
70 304 2
70 307 1
70 314 1
71 5 1
71 8 2
71 11 1
71 24 1
71 28 2
71 38 1
71 48 1
71 55 1
71 61 1
71 64 2
71 68 1
71 78 2
71 245 2
71 248 1
71 255 1
71 265 2
71 268 3
71 275 1
71 288 3
71 291 2
71 301 1
71 305 2
71 308 1
71 315 1
72 6 1
72 9 2
72 12 1
72 25 1
72 29 2
72 39 1
72 49 1
72 56 1
72 62 1
72 65 2
72 69 1
72 79 2
72 246 2
72 249 1
72 256 1
72 266 2
72 269 3
72 276 1
72 289 3
72 292 2
72 302 1
72 306 2
72 309 1
72 316 1
73 7 1
73 10 2
73 13 1
73 26 1
73 30 2
73 40 1
73 50 1
73 57 1
73 63 1
73 66 2
73 70 1
73 80 2
73 247 2
73 250 1
73 257 1
73 267 2
73 270 3
73 277 1
73 290 3
73 293 2
73 303 1
73 307 2
73 310 1
73 317 1
74 1 1
74 8 1
74 11 2
74 14 1
74 27 1
74 31 2
74 41 2
74 51 1
74 58 1
74 64 1
74 67 2
74 71 1
74 248 2
74 251 1
74 258 1
74 268 2
74 271 3
74 278 1
74 291 3
74 294 2
74 304 1
74 308 2
74 311 1
74 318 1
75 2 1
75 9 1
75 12 2
75 15 1
75 28 1
75 32 2
75 42 2
75 52 1
75 59 1
75 65 1
75 68 2
75 72 1
75 249 2
75 252 1
75 259 1
75 269 2
75 272 3
75 279 1
75 292 3
75 295 2
75 305 1
75 309 2
75 312 1
75 319 1
76 3 1
76 10 1
76 13 2
76 16 1
76 29 1
76 33 2
76 43 2
76 53 1
76 60 1
76 66 1
76 69 2
76 73 1
76 250 2
76 253 1
76 260 1
76 270 2
76 273 3
76 280 1
76 293 3
76 296 2
76 306 1
76 310 2
76 313 1
76 320 1
77 4 1
77 11 1
77 14 2
77 17 1
77 30 1
77 34 2
77 44 2
77 54 1
77 61 1
77 67 1
77 70 2
77 74 1
77 241 1
77 251 2
77 254 1
77 261 1
77 271 2
77 274 3
77 281 1
77 294 3
77 297 2
77 307 1
77 311 2
77 314 1
78 5 1
78 12 1
78 15 2
78 18 1
78 31 1
78 35 2
78 45 2
78 55 1
78 62 1
78 68 1
78 71 2
78 75 1
78 242 1
78 252 2
78 255 1
78 262 1
78 272 2
78 275 3
78 282 1
78 295 3
78 298 2
78 308 1
78 312 2
78 315 1
79 6 1
79 13 1
79 16 2
79 19 1
79 32 1
79 36 2
79 46 2
79 56 1
79 63 1
79 69 1
79 72 2
79 76 1
79 243 1
79 253 2
79 256 1
79 263 1
79 273 2
79 276 3
79 283 1
79 296 3
79 299 2
79 309 1
79 313 2
79 316 1
80 7 1
80 14 1
80 17 2
80 20 1
80 33 1
80 37 2
80 47 2
80 57 1
80 64 1
80 70 1
80 73 2
80 77 1
80 244 1
80 254 2
80 257 1
80 264 1
80 274 2
80 277 3
80 284 1
80 297 3
80 300 2
80 310 1
80 314 2
80 317 1
