%%MatrixMarket matrix coordinate integer general
% Binary matrix over GF(2).
% Coordinate indices are 1-based; omitted entries are zero.
132 352 1122
1 2 1
1 45 1
1 89 1
1 133 1
1 177 1
1 221 1
1 265 1
1 309 1
2 1 1
2 2 1
2 46 1
2 90 1
2 134 1
2 178 1
2 222 1
2 266 1
2 310 1
3 4 1
3 47 1
3 91 1
3 135 1
3 179 1
3 223 1
3 267 1
3 311 1
4 3 1
4 4 1
4 48 1
4 92 1
4 136 1
4 180 1
4 224 1
4 268 1
4 312 1
5 6 1
5 49 1
5 93 1
5 137 1
5 181 1
5 225 1
5 269 1
5 313 1
6 5 1
6 6 1
6 50 1
6 94 1
6 138 1
6 182 1
6 226 1
6 270 1
6 314 1
7 8 1
7 51 1
7 95 1
7 139 1
7 183 1
7 227 1
7 271 1
7 315 1
8 7 1
8 8 1
8 52 1
8 96 1
8 140 1
8 184 1
8 228 1
8 272 1
8 316 1
9 10 1
9 53 1
9 97 1
9 141 1
9 185 1
9 229 1
9 273 1
9 317 1
10 9 1
10 10 1
10 54 1
10 98 1
10 142 1
10 186 1
10 230 1
10 274 1
10 318 1
11 12 1
11 55 1
11 99 1
11 143 1
11 187 1
11 231 1
11 275 1
11 319 1
12 11 1
12 12 1
12 56 1
12 100 1
12 144 1
12 188 1
12 232 1
12 276 1
12 320 1
13 14 1
13 57 1
13 101 1
13 145 1
13 189 1
13 233 1
13 277 1
13 321 1
14 13 1
14 14 1
14 58 1
14 102 1
14 146 1
14 190 1
14 234 1
14 278 1
14 322 1
15 16 1
15 59 1
15 103 1
15 147 1
15 191 1
15 235 1
15 279 1
15 323 1
16 15 1
16 16 1
16 60 1
16 104 1
16 148 1
16 192 1
16 236 1
16 280 1
16 324 1
17 18 1
17 61 1
17 105 1
17 149 1
17 193 1
17 237 1
17 281 1
17 325 1
18 17 1
18 18 1
18 62 1
18 106 1
18 150 1
18 194 1
18 238 1
18 282 1
18 326 1
19 20 1
19 63 1
19 107 1
19 151 1
19 195 1
19 239 1
19 283 1
19 327 1
20 19 1
20 20 1
20 64 1
20 108 1
20 152 1
20 196 1
20 240 1
20 284 1
20 328 1
21 22 1
21 65 1
21 109 1
21 153 1
21 197 1
21 241 1
21 285 1
21 329 1
22 21 1
22 22 1
22 66 1
22 110 1
22 154 1
22 198 1
22 242 1
22 286 1
22 330 1
23 24 1
23 67 1
23 111 1
23 155 1
23 199 1
23 243 1
23 287 1
23 331 1
24 23 1
24 24 1
24 68 1
24 112 1
24 156 1
24 200 1
24 244 1
24 288 1
24 332 1
25 26 1
25 69 1
25 113 1
25 157 1
25 201 1
25 245 1
25 289 1
25 333 1
26 25 1
26 26 1
26 70 1
26 114 1
26 158 1
26 202 1
26 246 1
26 290 1
26 334 1
27 28 1
27 71 1
27 115 1
27 159 1
27 203 1
27 247 1
27 291 1
27 335 1
28 27 1
28 28 1
28 72 1
28 116 1
28 160 1
28 204 1
28 248 1
28 292 1
28 336 1
29 30 1
29 73 1
29 117 1
29 161 1
29 205 1
29 249 1
29 293 1
29 337 1
30 29 1
30 30 1
30 74 1
30 118 1
30 162 1
30 206 1
30 250 1
30 294 1
30 338 1
31 32 1
31 75 1
31 119 1
31 163 1
31 207 1
31 251 1
31 295 1
31 339 1
32 31 1
32 32 1
32 76 1
32 120 1
32 164 1
32 208 1
32 252 1
32 296 1
32 340 1
33 34 1
33 77 1
33 121 1
33 165 1
33 209 1
33 253 1
33 297 1
33 341 1
34 33 1
34 34 1
34 78 1
34 122 1
34 166 1
34 210 1
34 254 1
34 298 1
34 342 1
35 36 1
35 79 1
35 123 1
35 167 1
35 211 1
35 255 1
35 299 1
35 343 1
36 35 1
36 36 1
36 80 1
36 124 1
36 168 1
36 212 1
36 256 1
36 300 1
36 344 1
37 38 1
37 81 1
37 125 1
37 169 1
37 213 1
37 257 1
37 301 1
37 345 1
38 37 1
38 38 1
38 82 1
38 126 1
38 170 1
38 214 1
38 258 1
38 302 1
38 346 1
39 40 1
39 83 1
39 127 1
39 171 1
39 215 1
39 259 1
39 303 1
39 347 1
40 39 1
40 40 1
40 84 1
40 128 1
40 172 1
40 216 1
40 260 1
40 304 1
40 348 1
41 42 1
41 85 1
41 129 1
41 173 1
41 217 1
41 261 1
41 305 1
41 349 1
42 41 1
42 42 1
42 86 1
42 130 1
42 174 1
42 218 1
42 262 1
42 306 1
42 350 1
43 44 1
43 87 1
43 131 1
43 175 1
43 219 1
43 263 1
43 307 1
43 351 1
44 43 1
44 44 1
44 88 1
44 132 1
44 176 1
44 220 1
44 264 1
44 308 1
44 352 1
45 1 1
45 70 1
45 131 1
45 155 1
45 197 1
45 239 1
45 277 1
45 347 1
46 2 1
46 69 1
46 70 1
46 132 1
46 156 1
46 198 1
46 240 1
46 278 1
46 348 1
47 3 1
47 72 1
47 89 1
47 157 1
47 199 1
47 241 1
47 279 1
47 349 1
48 4 1
48 71 1
48 72 1
48 90 1
48 158 1
48 200 1
48 242 1
48 280 1
48 350 1
49 5 1
49 74 1
49 91 1
49 159 1
49 201 1
49 243 1
49 281 1
49 351 1
50 6 1
50 73 1
50 74 1
50 92 1
50 160 1
50 202 1
50 244 1
50 282 1
50 352 1
51 7 1
51 76 1
51 93 1
51 161 1
51 203 1
51 245 1
51 283 1
51 309 1
52 8 1
52 75 1
52 76 1
52 94 1
52 162 1
52 204 1
52 246 1
52 284 1
52 310 1
53 9 1
53 78 1
53 95 1
53 163 1
53 205 1
53 247 1
53 285 1
53 311 1
54 10 1
54 77 1
54 78 1
54 96 1
54 164 1
54 206 1
54 248 1
54 286 1
54 312 1
55 11 1
55 80 1
55 97 1
55 165 1
55 207 1
55 249 1
55 287 1
55 313 1
56 12 1
56 79 1
56 80 1
56 98 1
56 166 1
56 208 1
56 250 1
56 288 1
56 314 1
57 13 1
57 82 1
57 99 1
57 167 1
57 209 1
57 251 1
57 289 1
57 315 1
58 14 1
58 81 1
58 82 1
58 100 1
58 168 1
58 210 1
58 252 1
58 290 1
58 316 1
59 15 1
59 84 1
59 101 1
59 169 1
59 211 1
59 253 1
59 291 1
59 317 1
60 16 1
60 83 1
60 84 1
60 102 1
60 170 1
60 212 1
60 254 1
60 292 1
60 318 1
61 17 1
61 86 1
61 103 1
61 171 1
61 213 1
61 255 1
61 293 1
61 319 1
62 18 1
62 85 1
62 86 1
62 104 1
62 172 1
62 214 1
62 256 1
62 294 1
62 320 1
63 19 1
63 88 1
63 105 1
63 173 1
63 215 1
63 257 1
63 295 1
63 321 1
64 20 1
64 87 1
64 88 1
64 106 1
64 174 1
64 216 1
64 258 1
64 296 1
64 322 1
65 21 1
65 46 1
65 107 1
65 175 1
65 217 1
65 259 1
65 297 1
65 323 1
66 22 1
66 45 1
66 46 1
66 108 1
66 176 1
66 218 1
66 260 1
66 298 1
66 324 1
67 23 1
67 48 1
67 109 1
67 133 1
67 219 1
67 261 1
67 299 1
67 325 1
68 24 1
68 47 1
68 48 1
68 110 1
68 134 1
68 220 1
68 262 1
68 300 1
68 326 1
69 25 1
69 50 1
69 111 1
69 135 1
69 177 1
69 263 1
69 301 1
69 327 1
70 26 1
70 49 1
70 50 1
70 112 1
70 136 1
70 178 1
70 264 1
70 302 1
70 328 1
71 27 1
71 52 1
71 113 1
71 137 1
71 179 1
71 221 1
71 303 1
71 329 1
72 28 1
72 51 1
72 52 1
72 114 1
72 138 1
72 180 1
72 222 1
72 304 1
72 330 1
73 29 1
73 54 1
73 115 1
73 139 1
73 181 1
73 223 1
73 305 1
73 331 1
74 30 1
74 53 1
74 54 1
74 116 1
74 140 1
74 182 1
74 224 1
74 306 1
74 332 1
75 31 1
75 56 1
75 117 1
75 141 1
75 183 1
75 225 1
75 307 1
75 333 1
76 32 1
76 55 1
76 56 1
76 118 1
76 142 1
76 184 1
76 226 1
76 308 1
76 334 1
77 33 1
77 58 1
77 119 1
77 143 1
77 185 1
77 227 1
77 265 1
77 335 1
78 34 1
78 57 1
78 58 1
78 120 1
78 144 1
78 186 1
78 228 1
78 266 1
78 336 1
79 35 1
79 60 1
79 121 1
79 145 1
79 187 1
79 229 1
79 267 1
79 337 1
80 36 1
80 59 1
80 60 1
80 122 1
80 146 1
80 188 1
80 230 1
80 268 1
80 338 1
81 37 1
81 62 1
81 123 1
81 147 1
81 189 1
81 231 1
81 269 1
81 339 1
82 38 1
82 61 1
82 62 1
82 124 1
82 148 1
82 190 1
82 232 1
82 270 1
82 340 1
83 39 1
83 64 1
83 125 1
83 149 1
83 191 1
83 233 1
83 271 1
83 341 1
84 40 1
84 63 1
84 64 1
84 126 1
84 150 1
84 192 1
84 234 1
84 272 1
84 342 1
85 41 1
85 66 1
85 127 1
85 151 1
85 193 1
85 235 1
85 273 1
85 343 1
86 42 1
86 65 1
86 66 1
86 128 1
86 152 1
86 194 1
86 236 1
86 274 1
86 344 1
87 43 1
87 68 1
87 129 1
87 153 1
87 195 1
87 237 1
87 275 1
87 345 1
88 44 1
88 67 1
88 68 1
88 130 1
88 154 1
88 196 1
88 238 1
88 276 1
88 346 1
89 1 1
89 47 1
89 112 1
89 175 1
89 191 1
89 237 1
89 273 1
89 337 1
90 2 1
90 48 1
90 111 1
90 112 1
90 176 1
90 192 1
90 238 1
90 274 1
90 338 1
91 3 1
91 49 1
91 114 1
91 133 1
91 193 1
91 239 1
91 275 1
91 339 1
92 4 1
92 50 1
92 113 1
92 114 1
92 134 1
92 194 1
92 240 1
92 276 1
92 340 1
93 5 1
93 51 1
93 116 1
93 135 1
93 195 1
93 241 1
93 277 1
93 341 1
94 6 1
94 52 1
94 115 1
94 116 1
94 136 1
94 196 1
94 242 1
94 278 1
94 342 1
95 7 1
95 53 1
95 118 1
95 137 1
95 197 1
95 243 1
95 279 1
95 343 1
96 8 1
96 54 1
96 117 1
96 118 1
96 138 1
96 198 1
96 244 1
96 280 1
96 344 1
97 9 1
97 55 1
97 120 1
97 139 1
97 199 1
97 245 1
97 281 1
97 345 1
98 10 1
98 56 1
98 119 1
98 120 1
98 140 1
98 200 1
98 246 1
98 282 1
98 346 1
99 11 1
99 57 1
99 122 1
99 141 1
99 201 1
99 247 1
99 283 1
99 347 1
100 12 1
100 58 1
100 121 1
100 122 1
100 142 1
100 202 1
100 248 1
100 284 1
100 348 1
101 13 1
101 59 1
101 124 1
101 143 1
101 203 1
101 249 1
101 285 1
101 349 1
102 14 1
102 60 1
102 123 1
102 124 1
102 144 1
102 204 1
102 250 1
102 286 1
102 350 1
103 15 1
103 61 1
103 126 1
103 145 1
103 205 1
103 251 1
103 287 1
103 351 1
104 16 1
104 62 1
104 125 1
104 126 1
104 146 1
104 206 1
104 252 1
104 288 1
104 352 1
105 17 1
105 63 1
105 128 1
105 147 1
105 207 1
105 253 1
105 289 1
105 309 1
106 18 1
106 64 1
106 127 1
106 128 1
106 148 1
106 208 1
106 254 1
106 290 1
106 310 1
107 19 1
107 65 1
107 130 1
107 149 1
107 209 1
107 255 1
107 291 1
107 311 1
108 20 1
108 66 1
108 129 1
108 130 1
108 150 1
108 210 1
108 256 1
108 292 1
108 312 1
109 21 1
109 67 1
109 132 1
109 151 1
109 211 1
109 257 1
109 293 1
109 313 1
110 22 1
110 68 1
110 131 1
110 132 1
110 152 1
110 212 1
110 258 1
110 294 1
110 314 1
111 23 1
111 69 1
111 90 1
111 153 1
111 213 1
111 259 1
111 295 1
111 315 1
112 24 1
112 70 1
112 89 1
112 90 1
112 154 1
112 214 1
112 260 1
112 296 1
112 316 1
113 25 1
113 71 1
113 92 1
113 155 1
113 215 1
113 261 1
113 297 1
113 317 1
114 26 1
114 72 1
114 91 1
114 92 1
114 156 1
114 216 1
114 262 1
114 298 1
114 318 1
115 27 1
115 73 1
115 94 1
115 157 1
115 217 1
115 263 1
115 299 1
115 319 1
116 28 1
116 74 1
116 93 1
116 94 1
116 158 1
116 218 1
116 264 1
116 300 1
116 320 1
117 29 1
117 75 1
117 96 1
117 159 1
117 219 1
117 221 1
117 301 1
117 321 1
118 30 1
118 76 1
118 95 1
118 96 1
118 160 1
118 220 1
118 222 1
118 302 1
118 322 1
119 31 1
119 77 1
119 98 1
119 161 1
119 177 1
119 223 1
119 303 1
119 323 1
120 32 1
120 78 1
120 97 1
120 98 1
120 162 1
120 178 1
120 224 1
120 304 1
120 324 1
121 33 1
121 79 1
121 100 1
121 163 1
121 179 1
121 225 1
121 305 1
121 325 1
122 34 1
122 80 1
122 99 1
122 100 1
122 164 1
122 180 1
122 226 1
122 306 1
122 326 1
123 35 1
123 81 1
123 102 1
123 165 1
123 181 1
123 227 1
123 307 1
123 327 1
124 36 1
124 82 1
124 101 1
124 102 1
124 166 1
124 182 1
124 228 1
124 308 1
124 328 1
125 37 1
125 83 1
125 104 1
125 167 1
125 183 1
125 229 1
125 265 1
125 329 1
126 38 1
126 84 1
126 103 1
126 104 1
126 168 1
126 184 1
126 230 1
126 266 1
126 330 1
127 39 1
127 85 1
127 106 1
127 169 1
127 185 1
127 231 1
127 267 1
127 331 1
128 40 1
128 86 1
128 105 1
128 106 1
128 170 1
128 186 1
128 232 1
128 268 1
128 332 1
129 41 1
129 87 1
129 108 1
129 171 1
129 187 1
129 233 1
129 269 1
129 333 1
130 42 1
130 88 1
130 107 1
130 108 1
130 172 1
130 188 1
130 234 1
130 270 1
130 334 1
131 43 1
131 45 1
131 110 1
131 173 1
131 189 1
131 235 1
131 271 1
131 335 1
132 44 1
132 46 1
132 109 1
132 110 1
132 174 1
132 190 1
132 236 1
132 272 1
132 336 1
