%%MatrixMarket matrix coordinate integer general
% GF(4) labels 0,1,2=omega,3=omega+1; arithmetic is NOT integer arithmetic.
% Coordinate indices are 1-based; omitted entries are zero.
66 176 528
1 1 2
1 23 1
1 45 1
1 67 1
1 89 1
1 111 1
1 133 1
1 155 1
2 2 2
2 24 1
2 46 1
2 68 1
2 90 1
2 112 1
2 134 1
2 156 1
3 3 2
3 25 1
3 47 1
3 69 1
3 91 1
3 113 1
3 135 1
3 157 1
4 4 2
4 26 1
4 48 1
4 70 1
4 92 1
4 114 1
4 136 1
4 158 1
5 5 2
5 27 1
5 49 1
5 71 1
5 93 1
5 115 1
5 137 1
5 159 1
6 6 2
6 28 1
6 50 1
6 72 1
6 94 1
6 116 1
6 138 1
6 160 1
7 7 2
7 29 1
7 51 1
7 73 1
7 95 1
7 117 1
7 139 1
7 161 1
8 8 2
8 30 1
8 52 1
8 74 1
8 96 1
8 118 1
8 140 1
8 162 1
9 9 2
9 31 1
9 53 1
9 75 1
9 97 1
9 119 1
9 141 1
9 163 1
10 10 2
10 32 1
10 54 1
10 76 1
10 98 1
10 120 1
10 142 1
10 164 1
11 11 2
11 33 1
11 55 1
11 77 1
11 99 1
11 121 1
11 143 1
11 165 1
12 12 2
12 34 1
12 56 1
12 78 1
12 100 1
12 122 1
12 144 1
12 166 1
13 13 2
13 35 1
13 57 1
13 79 1
13 101 1
13 123 1
13 145 1
13 167 1
14 14 2
14 36 1
14 58 1
14 80 1
14 102 1
14 124 1
14 146 1
14 168 1
15 15 2
15 37 1
15 59 1
15 81 1
15 103 1
15 125 1
15 147 1
15 169 1
16 16 2
16 38 1
16 60 1
16 82 1
16 104 1
16 126 1
16 148 1
16 170 1
17 17 2
17 39 1
17 61 1
17 83 1
17 105 1
17 127 1
17 149 1
17 171 1
18 18 2
18 40 1
18 62 1
18 84 1
18 106 1
18 128 1
18 150 1
18 172 1
19 19 2
19 41 1
19 63 1
19 85 1
19 107 1
19 129 1
19 151 1
19 173 1
20 20 2
20 42 1
20 64 1
20 86 1
20 108 1
20 130 1
20 152 1
20 174 1
21 21 2
21 43 1
21 65 1
21 87 1
21 109 1
21 131 1
21 153 1
21 175 1
22 22 2
22 44 1
22 66 1
22 88 1
22 110 1
22 132 1
22 154 1
22 176 1
23 1 1
23 35 2
23 66 1
23 78 1
23 99 1
23 120 1
23 139 1
23 174 1
24 2 1
24 36 2
24 45 1
24 79 1
24 100 1
24 121 1
24 140 1
24 175 1
25 3 1
25 37 2
25 46 1
25 80 1
25 101 1
25 122 1
25 141 1
25 176 1
26 4 1
26 38 2
26 47 1
26 81 1
26 102 1
26 123 1
26 142 1
26 155 1
27 5 1
27 39 2
27 48 1
27 82 1
27 103 1
27 124 1
27 143 1
27 156 1
28 6 1
28 40 2
28 49 1
28 83 1
28 104 1
28 125 1
28 144 1
28 157 1
29 7 1
29 41 2
29 50 1
29 84 1
29 105 1
29 126 1
29 145 1
29 158 1
30 8 1
30 42 2
30 51 1
30 85 1
30 106 1
30 127 1
30 146 1
30 159 1
31 9 1
31 43 2
31 52 1
31 86 1
31 107 1
31 128 1
31 147 1
31 160 1
32 10 1
32 44 2
32 53 1
32 87 1
32 108 1
32 129 1
32 148 1
32 161 1
33 11 1
33 23 2
33 54 1
33 88 1
33 109 1
33 130 1
33 149 1
33 162 1
34 12 1
34 24 2
34 55 1
34 67 1
34 110 1
34 131 1
34 150 1
34 163 1
35 13 1
35 25 2
35 56 1
35 68 1
35 89 1
35 132 1
35 151 1
35 164 1
36 14 1
36 26 2
36 57 1
36 69 1
36 90 1
36 111 1
36 152 1
36 165 1
37 15 1
37 27 2
37 58 1
37 70 1
37 91 1
37 112 1
37 153 1
37 166 1
38 16 1
38 28 2
38 59 1
38 71 1
38 92 1
38 113 1
38 154 1
38 167 1
39 17 1
39 29 2
39 60 1
39 72 1
39 93 1
39 114 1
39 133 1
39 168 1
40 18 1
40 30 2
40 61 1
40 73 1
40 94 1
40 115 1
40 134 1
40 169 1
41 19 1
41 31 2
41 62 1
41 74 1
41 95 1
41 116 1
41 135 1
41 170 1
42 20 1
42 32 2
42 63 1
42 75 1
42 96 1
42 117 1
42 136 1
42 171 1
43 21 1
43 33 2
43 64 1
43 76 1
43 97 1
43 118 1
43 137 1
43 172 1
44 22 1
44 34 2
44 65 1
44 77 1
44 98 1
44 119 1
44 138 1
44 173 1
45 1 1
45 24 1
45 56 2
45 88 1
45 96 1
45 119 1
45 137 1
45 169 1
46 2 1
46 25 1
46 57 2
46 67 1
46 97 1
46 120 1
46 138 1
46 170 1
47 3 1
47 26 1
47 58 2
47 68 1
47 98 1
47 121 1
47 139 1
47 171 1
48 4 1
48 27 1
48 59 2
48 69 1
48 99 1
48 122 1
48 140 1
48 172 1
49 5 1
49 28 1
49 60 2
49 70 1
49 100 1
49 123 1
49 141 1
49 173 1
50 6 1
50 29 1
50 61 2
50 71 1
50 101 1
50 124 1
50 142 1
50 174 1
51 7 1
51 30 1
51 62 2
51 72 1
51 102 1
51 125 1
51 143 1
51 175 1
52 8 1
52 31 1
52 63 2
52 73 1
52 103 1
52 126 1
52 144 1
52 176 1
53 9 1
53 32 1
53 64 2
53 74 1
53 104 1
53 127 1
53 145 1
53 155 1
54 10 1
54 33 1
54 65 2
54 75 1
54 105 1
54 128 1
54 146 1
54 156 1
55 11 1
55 34 1
55 66 2
55 76 1
55 106 1
55 129 1
55 147 1
55 157 1
56 12 1
56 35 1
56 45 2
56 77 1
56 107 1
56 130 1
56 148 1
56 158 1
57 13 1
57 36 1
57 46 2
57 78 1
57 108 1
57 131 1
57 149 1
57 159 1
58 14 1
58 37 1
58 47 2
58 79 1
58 109 1
58 132 1
58 150 1
58 160 1
59 15 1
59 38 1
59 48 2
59 80 1
59 110 1
59 111 1
59 151 1
59 161 1
60 16 1
60 39 1
60 49 2
60 81 1
60 89 1
60 112 1
60 152 1
60 162 1
61 17 1
61 40 1
61 50 2
61 82 1
61 90 1
61 113 1
61 153 1
61 163 1
62 18 1
62 41 1
62 51 2
62 83 1
62 91 1
62 114 1
62 154 1
62 164 1
63 19 1
63 42 1
63 52 2
63 84 1
63 92 1
63 115 1
63 133 1
63 165 1
64 20 1
64 43 1
64 53 2
64 85 1
64 93 1
64 116 1
64 134 1
64 166 1
65 21 1
65 44 1
65 54 2
65 86 1
65 94 1
65 117 1
65 135 1
65 167 1
66 22 1
66 23 1
66 55 2
66 87 1
66 95 1
66 118 1
66 136 1
66 168 1
