%%MatrixMarket matrix coordinate integer general
% Binary matrix over GF(2).
% Coordinate indices are 1-based; omitted entries are zero.
132 352 1122
1 1 1
1 49 1
1 97 1
1 151 1
1 178 1
1 239 1
1 273 1
1 313 1
2 2 1
2 50 1
2 98 1
2 152 1
2 177 1
2 178 1
2 240 1
2 274 1
2 314 1
3 3 1
3 51 1
3 99 1
3 153 1
3 180 1
3 241 1
3 275 1
3 315 1
4 4 1
4 52 1
4 100 1
4 154 1
4 179 1
4 180 1
4 242 1
4 276 1
4 316 1
5 5 1
5 53 1
5 101 1
5 155 1
5 182 1
5 243 1
5 277 1
5 317 1
6 6 1
6 54 1
6 102 1
6 156 1
6 181 1
6 182 1
6 244 1
6 278 1
6 318 1
7 7 1
7 55 1
7 103 1
7 157 1
7 184 1
7 245 1
7 279 1
7 319 1
8 8 1
8 56 1
8 104 1
8 158 1
8 183 1
8 184 1
8 246 1
8 280 1
8 320 1
9 9 1
9 57 1
9 105 1
9 159 1
9 186 1
9 247 1
9 281 1
9 321 1
10 10 1
10 58 1
10 106 1
10 160 1
10 185 1
10 186 1
10 248 1
10 282 1
10 322 1
11 11 1
11 59 1
11 107 1
11 161 1
11 188 1
11 249 1
11 283 1
11 323 1
12 12 1
12 60 1
12 108 1
12 162 1
12 187 1
12 188 1
12 250 1
12 284 1
12 324 1
13 13 1
13 61 1
13 109 1
13 163 1
13 190 1
13 251 1
13 285 1
13 325 1
14 14 1
14 62 1
14 110 1
14 164 1
14 189 1
14 190 1
14 252 1
14 286 1
14 326 1
15 15 1
15 63 1
15 111 1
15 165 1
15 192 1
15 253 1
15 287 1
15 327 1
16 16 1
16 64 1
16 112 1
16 166 1
16 191 1
16 192 1
16 254 1
16 288 1
16 328 1
17 17 1
17 65 1
17 113 1
17 167 1
17 194 1
17 255 1
17 289 1
17 329 1
18 18 1
18 66 1
18 114 1
18 168 1
18 193 1
18 194 1
18 256 1
18 290 1
18 330 1
19 19 1
19 67 1
19 115 1
19 169 1
19 196 1
19 257 1
19 291 1
19 331 1
20 20 1
20 68 1
20 116 1
20 170 1
20 195 1
20 196 1
20 258 1
20 292 1
20 332 1
21 21 1
21 69 1
21 117 1
21 171 1
21 198 1
21 259 1
21 293 1
21 333 1
22 22 1
22 70 1
22 118 1
22 172 1
22 197 1
22 198 1
22 260 1
22 294 1
22 334 1
23 23 1
23 71 1
23 119 1
23 173 1
23 200 1
23 261 1
23 295 1
23 335 1
24 24 1
24 72 1
24 120 1
24 174 1
24 199 1
24 200 1
24 262 1
24 296 1
24 336 1
25 25 1
25 73 1
25 121 1
25 175 1
25 202 1
25 263 1
25 297 1
25 337 1
26 26 1
26 74 1
26 122 1
26 176 1
26 201 1
26 202 1
26 264 1
26 298 1
26 338 1
27 27 1
27 75 1
27 123 1
27 133 1
27 204 1
27 221 1
27 299 1
27 339 1
28 28 1
28 76 1
28 124 1
28 134 1
28 203 1
28 204 1
28 222 1
28 300 1
28 340 1
29 29 1
29 77 1
29 125 1
29 135 1
29 206 1
29 223 1
29 301 1
29 341 1
30 30 1
30 78 1
30 126 1
30 136 1
30 205 1
30 206 1
30 224 1
30 302 1
30 342 1
31 31 1
31 79 1
31 127 1
31 137 1
31 208 1
31 225 1
31 303 1
31 343 1
32 32 1
32 80 1
32 128 1
32 138 1
32 207 1
32 208 1
32 226 1
32 304 1
32 344 1
33 33 1
33 81 1
33 129 1
33 139 1
33 210 1
33 227 1
33 305 1
33 345 1
34 34 1
34 82 1
34 130 1
34 140 1
34 209 1
34 210 1
34 228 1
34 306 1
34 346 1
35 35 1
35 83 1
35 131 1
35 141 1
35 212 1
35 229 1
35 307 1
35 347 1
36 36 1
36 84 1
36 132 1
36 142 1
36 211 1
36 212 1
36 230 1
36 308 1
36 348 1
37 37 1
37 85 1
37 89 1
37 143 1
37 214 1
37 231 1
37 265 1
37 349 1
38 38 1
38 86 1
38 90 1
38 144 1
38 213 1
38 214 1
38 232 1
38 266 1
38 350 1
39 39 1
39 87 1
39 91 1
39 145 1
39 216 1
39 233 1
39 267 1
39 351 1
40 40 1
40 88 1
40 92 1
40 146 1
40 215 1
40 216 1
40 234 1
40 268 1
40 352 1
41 41 1
41 45 1
41 93 1
41 147 1
41 218 1
41 235 1
41 269 1
41 309 1
42 42 1
42 46 1
42 94 1
42 148 1
42 217 1
42 218 1
42 236 1
42 270 1
42 310 1
43 43 1
43 47 1
43 95 1
43 149 1
43 220 1
43 237 1
43 271 1
43 311 1
44 44 1
44 48 1
44 96 1
44 150 1
44 219 1
44 220 1
44 238 1
44 272 1
44 312 1
45 1 1
45 51 1
45 95 1
45 145 1
45 205 1
45 222 1
45 277 1
45 337 1
46 2 1
46 52 1
46 96 1
46 146 1
46 206 1
46 221 1
46 222 1
46 278 1
46 338 1
47 3 1
47 53 1
47 97 1
47 147 1
47 207 1
47 224 1
47 279 1
47 339 1
48 4 1
48 54 1
48 98 1
48 148 1
48 208 1
48 223 1
48 224 1
48 280 1
48 340 1
49 5 1
49 55 1
49 99 1
49 149 1
49 209 1
49 226 1
49 281 1
49 341 1
50 6 1
50 56 1
50 100 1
50 150 1
50 210 1
50 225 1
50 226 1
50 282 1
50 342 1
51 7 1
51 57 1
51 101 1
51 151 1
51 211 1
51 228 1
51 283 1
51 343 1
52 8 1
52 58 1
52 102 1
52 152 1
52 212 1
52 227 1
52 228 1
52 284 1
52 344 1
53 9 1
53 59 1
53 103 1
53 153 1
53 213 1
53 230 1
53 285 1
53 345 1
54 10 1
54 60 1
54 104 1
54 154 1
54 214 1
54 229 1
54 230 1
54 286 1
54 346 1
55 11 1
55 61 1
55 105 1
55 155 1
55 215 1
55 232 1
55 287 1
55 347 1
56 12 1
56 62 1
56 106 1
56 156 1
56 216 1
56 231 1
56 232 1
56 288 1
56 348 1
57 13 1
57 63 1
57 107 1
57 157 1
57 217 1
57 234 1
57 289 1
57 349 1
58 14 1
58 64 1
58 108 1
58 158 1
58 218 1
58 233 1
58 234 1
58 290 1
58 350 1
59 15 1
59 65 1
59 109 1
59 159 1
59 219 1
59 236 1
59 291 1
59 351 1
60 16 1
60 66 1
60 110 1
60 160 1
60 220 1
60 235 1
60 236 1
60 292 1
60 352 1
61 17 1
61 67 1
61 111 1
61 161 1
61 177 1
61 238 1
61 293 1
61 309 1
62 18 1
62 68 1
62 112 1
62 162 1
62 178 1
62 237 1
62 238 1
62 294 1
62 310 1
63 19 1
63 69 1
63 113 1
63 163 1
63 179 1
63 240 1
63 295 1
63 311 1
64 20 1
64 70 1
64 114 1
64 164 1
64 180 1
64 239 1
64 240 1
64 296 1
64 312 1
65 21 1
65 71 1
65 115 1
65 165 1
65 181 1
65 242 1
65 297 1
65 313 1
66 22 1
66 72 1
66 116 1
66 166 1
66 182 1
66 241 1
66 242 1
66 298 1
66 314 1
67 23 1
67 73 1
67 117 1
67 167 1
67 183 1
67 244 1
67 299 1
67 315 1
68 24 1
68 74 1
68 118 1
68 168 1
68 184 1
68 243 1
68 244 1
68 300 1
68 316 1
69 25 1
69 75 1
69 119 1
69 169 1
69 185 1
69 246 1
69 301 1
69 317 1
70 26 1
70 76 1
70 120 1
70 170 1
70 186 1
70 245 1
70 246 1
70 302 1
70 318 1
71 27 1
71 77 1
71 121 1
71 171 1
71 187 1
71 248 1
71 303 1
71 319 1
72 28 1
72 78 1
72 122 1
72 172 1
72 188 1
72 247 1
72 248 1
72 304 1
72 320 1
73 29 1
73 79 1
73 123 1
73 173 1
73 189 1
73 250 1
73 305 1
73 321 1
74 30 1
74 80 1
74 124 1
74 174 1
74 190 1
74 249 1
74 250 1
74 306 1
74 322 1
75 31 1
75 81 1
75 125 1
75 175 1
75 191 1
75 252 1
75 307 1
75 323 1
76 32 1
76 82 1
76 126 1
76 176 1
76 192 1
76 251 1
76 252 1
76 308 1
76 324 1
77 33 1
77 83 1
77 127 1
77 133 1
77 193 1
77 254 1
77 265 1
77 325 1
78 34 1
78 84 1
78 128 1
78 134 1
78 194 1
78 253 1
78 254 1
78 266 1
78 326 1
79 35 1
79 85 1
79 129 1
79 135 1
79 195 1
79 256 1
79 267 1
79 327 1
80 36 1
80 86 1
80 130 1
80 136 1
80 196 1
80 255 1
80 256 1
80 268 1
80 328 1
81 37 1
81 87 1
81 131 1
81 137 1
81 197 1
81 258 1
81 269 1
81 329 1
82 38 1
82 88 1
82 132 1
82 138 1
82 198 1
82 257 1
82 258 1
82 270 1
82 330 1
83 39 1
83 45 1
83 89 1
83 139 1
83 199 1
83 260 1
83 271 1
83 331 1
84 40 1
84 46 1
84 90 1
84 140 1
84 200 1
84 259 1
84 260 1
84 272 1
84 332 1
85 41 1
85 47 1
85 91 1
85 141 1
85 201 1
85 262 1
85 273 1
85 333 1
86 42 1
86 48 1
86 92 1
86 142 1
86 202 1
86 261 1
86 262 1
86 274 1
86 334 1
87 43 1
87 49 1
87 93 1
87 143 1
87 203 1
87 264 1
87 275 1
87 335 1
88 44 1
88 50 1
88 94 1
88 144 1
88 204 1
88 263 1
88 264 1
88 276 1
88 336 1
89 1 1
89 57 1
89 103 1
89 171 1
89 191 1
89 233 1
89 266 1
89 347 1
90 2 1
90 58 1
90 104 1
90 172 1
90 192 1
90 234 1
90 265 1
90 266 1
90 348 1
91 3 1
91 59 1
91 105 1
91 173 1
91 193 1
91 235 1
91 268 1
91 349 1
92 4 1
92 60 1
92 106 1
92 174 1
92 194 1
92 236 1
92 267 1
92 268 1
92 350 1
93 5 1
93 61 1
93 107 1
93 175 1
93 195 1
93 237 1
93 270 1
93 351 1
94 6 1
94 62 1
94 108 1
94 176 1
94 196 1
94 238 1
94 269 1
94 270 1
94 352 1
95 7 1
95 63 1
95 109 1
95 133 1
95 197 1
95 239 1
95 272 1
95 309 1
96 8 1
96 64 1
96 110 1
96 134 1
96 198 1
96 240 1
96 271 1
96 272 1
96 310 1
97 9 1
97 65 1
97 111 1
97 135 1
97 199 1
97 241 1
97 274 1
97 311 1
98 10 1
98 66 1
98 112 1
98 136 1
98 200 1
98 242 1
98 273 1
98 274 1
98 312 1
99 11 1
99 67 1
99 113 1
99 137 1
99 201 1
99 243 1
99 276 1
99 313 1
100 12 1
100 68 1
100 114 1
100 138 1
100 202 1
100 244 1
100 275 1
100 276 1
100 314 1
101 13 1
101 69 1
101 115 1
101 139 1
101 203 1
101 245 1
101 278 1
101 315 1
102 14 1
102 70 1
102 116 1
102 140 1
102 204 1
102 246 1
102 277 1
102 278 1
102 316 1
103 15 1
103 71 1
103 117 1
103 141 1
103 205 1
103 247 1
103 280 1
103 317 1
104 16 1
104 72 1
104 118 1
104 142 1
104 206 1
104 248 1
104 279 1
104 280 1
104 318 1
105 17 1
105 73 1
105 119 1
105 143 1
105 207 1
105 249 1
105 282 1
105 319 1
106 18 1
106 74 1
106 120 1
106 144 1
106 208 1
106 250 1
106 281 1
106 282 1
106 320 1
107 19 1
107 75 1
107 121 1
107 145 1
107 209 1
107 251 1
107 284 1
107 321 1
108 20 1
108 76 1
108 122 1
108 146 1
108 210 1
108 252 1
108 283 1
108 284 1
108 322 1
109 21 1
109 77 1
109 123 1
109 147 1
109 211 1
109 253 1
109 286 1
109 323 1
110 22 1
110 78 1
110 124 1
110 148 1
110 212 1
110 254 1
110 285 1
110 286 1
110 324 1
111 23 1
111 79 1
111 125 1
111 149 1
111 213 1
111 255 1
111 288 1
111 325 1
112 24 1
112 80 1
112 126 1
112 150 1
112 214 1
112 256 1
112 287 1
112 288 1
112 326 1
113 25 1
113 81 1
113 127 1
113 151 1
113 215 1
113 257 1
113 290 1
113 327 1
114 26 1
114 82 1
114 128 1
114 152 1
114 216 1
114 258 1
114 289 1
114 290 1
114 328 1
115 27 1
115 83 1
115 129 1
115 153 1
115 217 1
115 259 1
115 292 1
115 329 1
116 28 1
116 84 1
116 130 1
116 154 1
116 218 1
116 260 1
116 291 1
116 292 1
116 330 1
117 29 1
117 85 1
117 131 1
117 155 1
117 219 1
117 261 1
117 294 1
117 331 1
118 30 1
118 86 1
118 132 1
118 156 1
118 220 1
118 262 1
118 293 1
118 294 1
118 332 1
119 31 1
119 87 1
119 89 1
119 157 1
119 177 1
119 263 1
119 296 1
119 333 1
120 32 1
120 88 1
120 90 1
120 158 1
120 178 1
120 264 1
120 295 1
120 296 1
120 334 1
121 33 1
121 45 1
121 91 1
121 159 1
121 179 1
121 221 1
121 298 1
121 335 1
122 34 1
122 46 1
122 92 1
122 160 1
122 180 1
122 222 1
122 297 1
122 298 1
122 336 1
123 35 1
123 47 1
123 93 1
123 161 1
123 181 1
123 223 1
123 300 1
123 337 1
124 36 1
124 48 1
124 94 1
124 162 1
124 182 1
124 224 1
124 299 1
124 300 1
124 338 1
125 37 1
125 49 1
125 95 1
125 163 1
125 183 1
125 225 1
125 302 1
125 339 1
126 38 1
126 50 1
126 96 1
126 164 1
126 184 1
126 226 1
126 301 1
126 302 1
126 340 1
127 39 1
127 51 1
127 97 1
127 165 1
127 185 1
127 227 1
127 304 1
127 341 1
128 40 1
128 52 1
128 98 1
128 166 1
128 186 1
128 228 1
128 303 1
128 304 1
128 342 1
129 41 1
129 53 1
129 99 1
129 167 1
129 187 1
129 229 1
129 306 1
129 343 1
130 42 1
130 54 1
130 100 1
130 168 1
130 188 1
130 230 1
130 305 1
130 306 1
130 344 1
131 43 1
131 55 1
131 101 1
131 169 1
131 189 1
131 231 1
131 308 1
131 345 1
132 44 1
132 56 1
132 102 1
132 170 1
132 190 1
132 232 1
132 307 1
132 308 1
132 346 1
