%%MatrixMarket matrix coordinate integer general
% GF(4) labels 0,1,2=omega,3=omega+1; arithmetic is NOT integer arithmetic.
% Coordinate indices are 1-based; omitted entries are zero.
66 176 528
1 1 1
1 25 1
1 49 1
1 76 1
1 89 2
1 120 1
1 137 1
1 157 1
2 2 1
2 26 1
2 50 1
2 77 1
2 90 2
2 121 1
2 138 1
2 158 1
3 3 1
3 27 1
3 51 1
3 78 1
3 91 2
3 122 1
3 139 1
3 159 1
4 4 1
4 28 1
4 52 1
4 79 1
4 92 2
4 123 1
4 140 1
4 160 1
5 5 1
5 29 1
5 53 1
5 80 1
5 93 2
5 124 1
5 141 1
5 161 1
6 6 1
6 30 1
6 54 1
6 81 1
6 94 2
6 125 1
6 142 1
6 162 1
7 7 1
7 31 1
7 55 1
7 82 1
7 95 2
7 126 1
7 143 1
7 163 1
8 8 1
8 32 1
8 56 1
8 83 1
8 96 2
8 127 1
8 144 1
8 164 1
9 9 1
9 33 1
9 57 1
9 84 1
9 97 2
9 128 1
9 145 1
9 165 1
10 10 1
10 34 1
10 58 1
10 85 1
10 98 2
10 129 1
10 146 1
10 166 1
11 11 1
11 35 1
11 59 1
11 86 1
11 99 2
11 130 1
11 147 1
11 167 1
12 12 1
12 36 1
12 60 1
12 87 1
12 100 2
12 131 1
12 148 1
12 168 1
13 13 1
13 37 1
13 61 1
13 88 1
13 101 2
13 132 1
13 149 1
13 169 1
14 14 1
14 38 1
14 62 1
14 67 1
14 102 2
14 111 1
14 150 1
14 170 1
15 15 1
15 39 1
15 63 1
15 68 1
15 103 2
15 112 1
15 151 1
15 171 1
16 16 1
16 40 1
16 64 1
16 69 1
16 104 2
16 113 1
16 152 1
16 172 1
17 17 1
17 41 1
17 65 1
17 70 1
17 105 2
17 114 1
17 153 1
17 173 1
18 18 1
18 42 1
18 66 1
18 71 1
18 106 2
18 115 1
18 154 1
18 174 1
19 19 1
19 43 1
19 45 1
19 72 1
19 107 2
19 116 1
19 133 1
19 175 1
20 20 1
20 44 1
20 46 1
20 73 1
20 108 2
20 117 1
20 134 1
20 176 1
21 21 1
21 23 1
21 47 1
21 74 1
21 109 2
21 118 1
21 135 1
21 155 1
22 22 1
22 24 1
22 48 1
22 75 1
22 110 2
22 119 1
22 136 1
22 156 1
23 1 1
23 26 1
23 48 1
23 73 1
23 103 1
23 111 2
23 139 1
23 169 1
24 2 1
24 27 1
24 49 1
24 74 1
24 104 1
24 112 2
24 140 1
24 170 1
25 3 1
25 28 1
25 50 1
25 75 1
25 105 1
25 113 2
25 141 1
25 171 1
26 4 1
26 29 1
26 51 1
26 76 1
26 106 1
26 114 2
26 142 1
26 172 1
27 5 1
27 30 1
27 52 1
27 77 1
27 107 1
27 115 2
27 143 1
27 173 1
28 6 1
28 31 1
28 53 1
28 78 1
28 108 1
28 116 2
28 144 1
28 174 1
29 7 1
29 32 1
29 54 1
29 79 1
29 109 1
29 117 2
29 145 1
29 175 1
30 8 1
30 33 1
30 55 1
30 80 1
30 110 1
30 118 2
30 146 1
30 176 1
31 9 1
31 34 1
31 56 1
31 81 1
31 89 1
31 119 2
31 147 1
31 155 1
32 10 1
32 35 1
32 57 1
32 82 1
32 90 1
32 120 2
32 148 1
32 156 1
33 11 1
33 36 1
33 58 1
33 83 1
33 91 1
33 121 2
33 149 1
33 157 1
34 12 1
34 37 1
34 59 1
34 84 1
34 92 1
34 122 2
34 150 1
34 158 1
35 13 1
35 38 1
35 60 1
35 85 1
35 93 1
35 123 2
35 151 1
35 159 1
36 14 1
36 39 1
36 61 1
36 86 1
36 94 1
36 124 2
36 152 1
36 160 1
37 15 1
37 40 1
37 62 1
37 87 1
37 95 1
37 125 2
37 153 1
37 161 1
38 16 1
38 41 1
38 63 1
38 88 1
38 96 1
38 126 2
38 154 1
38 162 1
39 17 1
39 42 1
39 64 1
39 67 1
39 97 1
39 127 2
39 133 1
39 163 1
40 18 1
40 43 1
40 65 1
40 68 1
40 98 1
40 128 2
40 134 1
40 164 1
41 19 1
41 44 1
41 66 1
41 69 1
41 99 1
41 129 2
41 135 1
41 165 1
42 20 1
42 23 1
42 45 1
42 70 1
42 100 1
42 130 2
42 136 1
42 166 1
43 21 1
43 24 1
43 46 1
43 71 1
43 101 1
43 131 2
43 137 1
43 167 1
44 22 1
44 25 1
44 47 1
44 72 1
44 102 1
44 132 2
44 138 1
44 168 1
45 1 1
45 29 1
45 52 1
45 86 1
45 96 1
45 117 1
45 133 2
45 174 1
46 2 1
46 30 1
46 53 1
46 87 1
46 97 1
46 118 1
46 134 2
46 175 1
47 3 1
47 31 1
47 54 1
47 88 1
47 98 1
47 119 1
47 135 2
47 176 1
48 4 1
48 32 1
48 55 1
48 67 1
48 99 1
48 120 1
48 136 2
48 155 1
49 5 1
49 33 1
49 56 1
49 68 1
49 100 1
49 121 1
49 137 2
49 156 1
50 6 1
50 34 1
50 57 1
50 69 1
50 101 1
50 122 1
50 138 2
50 157 1
51 7 1
51 35 1
51 58 1
51 70 1
51 102 1
51 123 1
51 139 2
51 158 1
52 8 1
52 36 1
52 59 1
52 71 1
52 103 1
52 124 1
52 140 2
52 159 1
53 9 1
53 37 1
53 60 1
53 72 1
53 104 1
53 125 1
53 141 2
53 160 1
54 10 1
54 38 1
54 61 1
54 73 1
54 105 1
54 126 1
54 142 2
54 161 1
55 11 1
55 39 1
55 62 1
55 74 1
55 106 1
55 127 1
55 143 2
55 162 1
56 12 1
56 40 1
56 63 1
56 75 1
56 107 1
56 128 1
56 144 2
56 163 1
57 13 1
57 41 1
57 64 1
57 76 1
57 108 1
57 129 1
57 145 2
57 164 1
58 14 1
58 42 1
58 65 1
58 77 1
58 109 1
58 130 1
58 146 2
58 165 1
59 15 1
59 43 1
59 66 1
59 78 1
59 110 1
59 131 1
59 147 2
59 166 1
60 16 1
60 44 1
60 45 1
60 79 1
60 89 1
60 132 1
60 148 2
60 167 1
61 17 1
61 23 1
61 46 1
61 80 1
61 90 1
61 111 1
61 149 2
61 168 1
62 18 1
62 24 1
62 47 1
62 81 1
62 91 1
62 112 1
62 150 2
62 169 1
63 19 1
63 25 1
63 48 1
63 82 1
63 92 1
63 113 1
63 151 2
63 170 1
64 20 1
64 26 1
64 49 1
64 83 1
64 93 1
64 114 1
64 152 2
64 171 1
65 21 1
65 27 1
65 50 1
65 84 1
65 94 1
65 115 1
65 153 2
65 172 1
66 22 1
66 28 1
66 51 1
66 85 1
66 95 1
66 116 1
66 154 2
66 173 1
