%%MatrixMarket matrix coordinate integer general
% Binary matrix over GF(2).
% Coordinate indices are 1-based; omitted entries are zero.
88 352 1958
1 58 1
1 61 1
1 62 1
1 83 1
1 84 1
1 190 1
1 193 1
1 211 1
1 212 1
1 213 1
1 217 1
1 265 1
1 266 1
1 270 1
1 283 1
1 285 1
1 307 1
1 322 1
1 323 1
1 325 1
1 330 1
1 347 1
1 348 1
1 349 1
2 60 1
2 63 1
2 64 1
2 85 1
2 86 1
2 192 1
2 195 1
2 213 1
2 214 1
2 215 1
2 219 1
2 265 1
2 267 1
2 268 1
2 272 1
2 285 1
2 287 1
2 324 1
2 325 1
2 327 1
2 332 1
2 349 1
2 350 1
2 351 1
3 62 1
3 65 1
3 66 1
3 87 1
3 88 1
3 177 1
3 194 1
3 197 1
3 215 1
3 216 1
3 217 1
3 267 1
3 269 1
3 270 1
3 274 1
3 287 1
3 289 1
3 309 1
3 326 1
3 327 1
3 329 1
3 334 1
3 351 1
3 352 1
4 45 1
4 46 1
4 64 1
4 67 1
4 68 1
4 179 1
4 196 1
4 199 1
4 217 1
4 218 1
4 219 1
4 269 1
4 271 1
4 272 1
4 276 1
4 289 1
4 291 1
4 309 1
4 310 1
4 311 1
4 328 1
4 329 1
4 331 1
4 336 1
5 47 1
5 48 1
5 66 1
5 69 1
5 70 1
5 177 1
5 181 1
5 198 1
5 201 1
5 219 1
5 220 1
5 271 1
5 273 1
5 274 1
5 278 1
5 291 1
5 293 1
5 311 1
5 312 1
5 313 1
5 330 1
5 331 1
5 333 1
5 338 1
6 49 1
6 50 1
6 68 1
6 71 1
6 72 1
6 177 1
6 178 1
6 179 1
6 183 1
6 200 1
6 203 1
6 273 1
6 275 1
6 276 1
6 280 1
6 293 1
6 295 1
6 313 1
6 314 1
6 315 1
6 332 1
6 333 1
6 335 1
6 340 1
7 51 1
7 52 1
7 70 1
7 73 1
7 74 1
7 179 1
7 180 1
7 181 1
7 185 1
7 202 1
7 205 1
7 275 1
7 277 1
7 278 1
7 282 1
7 295 1
7 297 1
7 315 1
7 316 1
7 317 1
7 334 1
7 335 1
7 337 1
7 342 1
8 53 1
8 54 1
8 72 1
8 75 1
8 76 1
8 181 1
8 182 1
8 183 1
8 187 1
8 204 1
8 207 1
8 277 1
8 279 1
8 280 1
8 284 1
8 297 1
8 299 1
8 317 1
8 318 1
8 319 1
8 336 1
8 337 1
8 339 1
8 344 1
9 55 1
9 56 1
9 74 1
9 77 1
9 78 1
9 183 1
9 184 1
9 185 1
9 189 1
9 206 1
9 209 1
9 279 1
9 281 1
9 282 1
9 286 1
9 299 1
9 301 1
9 319 1
9 320 1
9 321 1
9 338 1
9 339 1
9 341 1
9 346 1
10 57 1
10 58 1
10 76 1
10 79 1
10 80 1
10 185 1
10 186 1
10 187 1
10 191 1
10 208 1
10 211 1
10 281 1
10 283 1
10 284 1
10 288 1
10 301 1
10 303 1
10 321 1
10 322 1
10 323 1
10 340 1
10 341 1
10 343 1
10 348 1
11 59 1
11 60 1
11 78 1
11 81 1
11 82 1
11 187 1
11 188 1
11 189 1
11 193 1
11 210 1
11 213 1
11 283 1
11 285 1
11 286 1
11 290 1
11 303 1
11 305 1
11 323 1
11 324 1
11 325 1
11 342 1
11 343 1
11 345 1
11 350 1
12 61 1
12 62 1
12 80 1
12 83 1
12 84 1
12 189 1
12 190 1
12 191 1
12 195 1
12 212 1
12 215 1
12 285 1
12 287 1
12 288 1
12 292 1
12 305 1
12 307 1
12 325 1
12 326 1
12 327 1
12 344 1
12 345 1
12 347 1
12 352 1
13 63 1
13 64 1
13 82 1
13 85 1
13 86 1
13 191 1
13 192 1
13 193 1
13 197 1
13 214 1
13 217 1
13 265 1
13 287 1
13 289 1
13 290 1
13 294 1
13 307 1
13 310 1
13 327 1
13 328 1
13 329 1
13 346 1
13 347 1
13 349 1
14 65 1
14 66 1
14 84 1
14 87 1
14 88 1
14 193 1
14 194 1
14 195 1
14 199 1
14 216 1
14 219 1
14 265 1
14 267 1
14 289 1
14 291 1
14 292 1
14 296 1
14 312 1
14 329 1
14 330 1
14 331 1
14 348 1
14 349 1
14 351 1
15 45 1
15 46 1
15 67 1
15 68 1
15 86 1
15 177 1
15 195 1
15 196 1
15 197 1
15 201 1
15 218 1
15 267 1
15 269 1
15 291 1
15 293 1
15 294 1
15 298 1
15 309 1
15 314 1
15 331 1
15 332 1
15 333 1
15 350 1
15 351 1
16 47 1
16 48 1
16 69 1
16 70 1
16 88 1
16 179 1
16 197 1
16 198 1
16 199 1
16 203 1
16 220 1
16 269 1
16 271 1
16 293 1
16 295 1
16 296 1
16 300 1
16 309 1
16 311 1
16 316 1
16 333 1
16 334 1
16 335 1
16 352 1
17 46 1
17 49 1
17 50 1
17 71 1
17 72 1
17 178 1
17 181 1
17 199 1
17 200 1
17 201 1
17 205 1
17 271 1
17 273 1
17 295 1
17 297 1
17 298 1
17 302 1
17 310 1
17 311 1
17 313 1
17 318 1
17 335 1
17 336 1
17 337 1
18 48 1
18 51 1
18 52 1
18 73 1
18 74 1
18 180 1
18 183 1
18 201 1
18 202 1
18 203 1
18 207 1
18 273 1
18 275 1
18 297 1
18 299 1
18 300 1
18 304 1
18 312 1
18 313 1
18 315 1
18 320 1
18 337 1
18 338 1
18 339 1
19 50 1
19 53 1
19 54 1
19 75 1
19 76 1
19 182 1
19 185 1
19 203 1
19 204 1
19 205 1
19 209 1
19 275 1
19 277 1
19 299 1
19 301 1
19 302 1
19 306 1
19 314 1
19 315 1
19 317 1
19 322 1
19 339 1
19 340 1
19 341 1
20 52 1
20 55 1
20 56 1
20 77 1
20 78 1
20 184 1
20 187 1
20 205 1
20 206 1
20 207 1
20 211 1
20 277 1
20 279 1
20 301 1
20 303 1
20 304 1
20 308 1
20 316 1
20 317 1
20 319 1
20 324 1
20 341 1
20 342 1
20 343 1
21 54 1
21 57 1
21 58 1
21 79 1
21 80 1
21 186 1
21 189 1
21 207 1
21 208 1
21 209 1
21 213 1
21 266 1
21 279 1
21 281 1
21 303 1
21 305 1
21 306 1
21 318 1
21 319 1
21 321 1
21 326 1
21 343 1
21 344 1
21 345 1
22 56 1
22 59 1
22 60 1
22 81 1
22 82 1
22 188 1
22 191 1
22 209 1
22 210 1
22 211 1
22 215 1
22 268 1
22 281 1
22 283 1
22 305 1
22 307 1
22 308 1
22 320 1
22 321 1
22 323 1
22 328 1
22 345 1
22 346 1
22 347 1
23 57 1
23 58 1
23 61 1
23 83 1
23 189 1
23 190 1
23 194 1
23 211 1
23 214 1
23 218 1
23 265 1
23 269 1
23 270 1
23 284 1
23 286 1
23 308 1
23 321 1
23 322 1
23 324 1
23 326 1
23 329 1
23 330 1
23 347 1
23 350 1
24 59 1
24 60 1
24 63 1
24 85 1
24 191 1
24 192 1
24 196 1
24 213 1
24 216 1
24 220 1
24 266 1
24 267 1
24 271 1
24 272 1
24 286 1
24 288 1
24 323 1
24 324 1
24 326 1
24 328 1
24 331 1
24 332 1
24 349 1
24 352 1
25 61 1
25 62 1
25 65 1
25 87 1
25 178 1
25 193 1
25 194 1
25 198 1
25 215 1
25 218 1
25 268 1
25 269 1
25 273 1
25 274 1
25 288 1
25 290 1
25 310 1
25 325 1
25 326 1
25 328 1
25 330 1
25 333 1
25 334 1
25 351 1
26 45 1
26 63 1
26 64 1
26 67 1
26 180 1
26 195 1
26 196 1
26 200 1
26 217 1
26 220 1
26 270 1
26 271 1
26 275 1
26 276 1
26 290 1
26 292 1
26 309 1
26 312 1
26 327 1
26 328 1
26 330 1
26 332 1
26 335 1
26 336 1
27 47 1
27 65 1
27 66 1
27 69 1
27 178 1
27 182 1
27 197 1
27 198 1
27 202 1
27 219 1
27 272 1
27 273 1
27 277 1
27 278 1
27 292 1
27 294 1
27 311 1
27 314 1
27 329 1
27 330 1
27 332 1
27 334 1
27 337 1
27 338 1
28 49 1
28 67 1
28 68 1
28 71 1
28 177 1
28 180 1
28 184 1
28 199 1
28 200 1
28 204 1
28 274 1
28 275 1
28 279 1
28 280 1
28 294 1
28 296 1
28 313 1
28 316 1
28 331 1
28 332 1
28 334 1
28 336 1
28 339 1
28 340 1
29 51 1
29 69 1
29 70 1
29 73 1
29 179 1
29 182 1
29 186 1
29 201 1
29 202 1
29 206 1
29 276 1
29 277 1
29 281 1
29 282 1
29 296 1
29 298 1
29 315 1
29 318 1
29 333 1
29 334 1
29 336 1
29 338 1
29 341 1
29 342 1
30 53 1
30 71 1
30 72 1
30 75 1
30 181 1
30 184 1
30 188 1
30 203 1
30 204 1
30 208 1
30 278 1
30 279 1
30 283 1
30 284 1
30 298 1
30 300 1
30 317 1
30 320 1
30 335 1
30 336 1
30 338 1
30 340 1
30 343 1
30 344 1
31 55 1
31 73 1
31 74 1
31 77 1
31 183 1
31 186 1
31 190 1
31 205 1
31 206 1
31 210 1
31 280 1
31 281 1
31 285 1
31 286 1
31 300 1
31 302 1
31 319 1
31 322 1
31 337 1
31 338 1
31 340 1
31 342 1
31 345 1
31 346 1
32 57 1
32 75 1
32 76 1
32 79 1
32 185 1
32 188 1
32 192 1
32 207 1
32 208 1
32 212 1
32 282 1
32 283 1
32 287 1
32 288 1
32 302 1
32 304 1
32 321 1
32 324 1
32 339 1
32 340 1
32 342 1
32 344 1
32 347 1
32 348 1
33 59 1
33 77 1
33 78 1
33 81 1
33 187 1
33 190 1
33 194 1
33 209 1
33 210 1
33 214 1
33 284 1
33 285 1
33 289 1
33 290 1
33 304 1
33 306 1
33 323 1
33 326 1
33 341 1
33 342 1
33 344 1
33 346 1
33 349 1
33 350 1
34 61 1
34 79 1
34 80 1
34 83 1
34 189 1
34 192 1
34 196 1
34 211 1
34 212 1
34 216 1
34 286 1
34 287 1
34 291 1
34 292 1
34 306 1
34 308 1
34 325 1
34 328 1
34 343 1
34 344 1
34 346 1
34 348 1
34 351 1
34 352 1
35 63 1
35 81 1
35 82 1
35 85 1
35 191 1
35 194 1
35 198 1
35 213 1
35 214 1
35 218 1
35 266 1
35 288 1
35 289 1
35 293 1
35 294 1
35 308 1
35 309 1
35 310 1
35 327 1
35 330 1
35 345 1
35 346 1
35 348 1
35 350 1
36 65 1
36 83 1
36 84 1
36 87 1
36 193 1
36 196 1
36 200 1
36 215 1
36 216 1
36 220 1
36 266 1
36 268 1
36 290 1
36 291 1
36 295 1
36 296 1
36 311 1
36 312 1
36 329 1
36 332 1
36 347 1
36 348 1
36 350 1
36 352 1
37 45 1
37 67 1
37 85 1
37 86 1
37 178 1
37 195 1
37 198 1
37 202 1
37 217 1
37 218 1
37 268 1
37 270 1
37 292 1
37 293 1
37 297 1
37 298 1
37 310 1
37 313 1
37 314 1
37 331 1
37 334 1
37 349 1
37 350 1
37 352 1
38 47 1
38 69 1
38 87 1
38 88 1
38 180 1
38 197 1
38 200 1
38 204 1
38 219 1
38 220 1
38 270 1
38 272 1
38 294 1
38 295 1
38 299 1
38 300 1
38 310 1
38 312 1
38 315 1
38 316 1
38 333 1
38 336 1
38 351 1
38 352 1
39 45 1
39 46 1
39 49 1
39 71 1
39 177 1
39 178 1
39 182 1
39 199 1
39 202 1
39 206 1
39 272 1
39 274 1
39 296 1
39 297 1
39 301 1
39 302 1
39 309 1
39 310 1
39 312 1
39 314 1
39 317 1
39 318 1
39 335 1
39 338 1
40 47 1
40 48 1
40 51 1
40 73 1
40 179 1
40 180 1
40 184 1
40 201 1
40 204 1
40 208 1
40 274 1
40 276 1
40 298 1
40 299 1
40 303 1
40 304 1
40 311 1
40 312 1
40 314 1
40 316 1
40 319 1
40 320 1
40 337 1
40 340 1
41 49 1
41 50 1
41 53 1
41 75 1
41 181 1
41 182 1
41 186 1
41 203 1
41 206 1
41 210 1
41 276 1
41 278 1
41 300 1
41 301 1
41 305 1
41 306 1
41 313 1
41 314 1
41 316 1
41 318 1
41 321 1
41 322 1
41 339 1
41 342 1
42 51 1
42 52 1
42 55 1
42 77 1
42 183 1
42 184 1
42 188 1
42 205 1
42 208 1
42 212 1
42 278 1
42 280 1
42 302 1
42 303 1
42 307 1
42 308 1
42 315 1
42 316 1
42 318 1
42 320 1
42 323 1
42 324 1
42 341 1
42 344 1
43 53 1
43 54 1
43 57 1
43 79 1
43 185 1
43 186 1
43 190 1
43 207 1
43 210 1
43 214 1
43 265 1
43 266 1
43 280 1
43 282 1
43 304 1
43 305 1
43 317 1
43 318 1
43 320 1
43 322 1
43 325 1
43 326 1
43 343 1
43 346 1
44 55 1
44 56 1
44 59 1
44 81 1
44 187 1
44 188 1
44 192 1
44 209 1
44 212 1
44 216 1
44 267 1
44 268 1
44 282 1
44 284 1
44 306 1
44 307 1
44 319 1
44 320 1
44 322 1
44 324 1
44 327 1
44 328 1
44 345 1
44 348 1
45 194 1
45 198 1
45 217 1
45 218 1
45 233 1
45 234 1
45 237 1
45 259 1
45 266 1
45 269 1
45 271 1
45 291 1
45 292 1
45 294 1
45 329 1
45 330 1
45 331 1
45 332 1
45 350 1
45 351 1
45 352 1
46 196 1
46 200 1
46 219 1
46 220 1
46 235 1
46 236 1
46 239 1
46 261 1
46 268 1
46 271 1
46 273 1
46 293 1
46 294 1
46 296 1
46 309 1
46 310 1
46 331 1
46 332 1
46 333 1
46 334 1
46 352 1
47 177 1
47 178 1
47 198 1
47 202 1
47 237 1
47 238 1
47 241 1
47 263 1
47 270 1
47 273 1
47 275 1
47 295 1
47 296 1
47 298 1
47 310 1
47 311 1
47 312 1
47 333 1
47 334 1
47 335 1
47 336 1
48 179 1
48 180 1
48 200 1
48 204 1
48 221 1
48 239 1
48 240 1
48 243 1
48 272 1
48 275 1
48 277 1
48 297 1
48 298 1
48 300 1
48 312 1
48 313 1
48 314 1
48 335 1
48 336 1
48 337 1
48 338 1
49 181 1
49 182 1
49 202 1
49 206 1
49 223 1
49 241 1
49 242 1
49 245 1
49 274 1
49 277 1
49 279 1
49 299 1
49 300 1
49 302 1
49 314 1
49 315 1
49 316 1
49 337 1
49 338 1
49 339 1
49 340 1
50 183 1
50 184 1
50 204 1
50 208 1
50 225 1
50 243 1
50 244 1
50 247 1
50 276 1
50 279 1
50 281 1
50 301 1
50 302 1
50 304 1
50 316 1
50 317 1
50 318 1
50 339 1
50 340 1
50 341 1
50 342 1
51 185 1
51 186 1
51 206 1
51 210 1
51 227 1
51 245 1
51 246 1
51 249 1
51 278 1
51 281 1
51 283 1
51 303 1
51 304 1
51 306 1
51 318 1
51 319 1
51 320 1
51 341 1
51 342 1
51 343 1
51 344 1
52 187 1
52 188 1
52 208 1
52 212 1
52 229 1
52 247 1
52 248 1
52 251 1
52 280 1
52 283 1
52 285 1
52 305 1
52 306 1
52 308 1
52 320 1
52 321 1
52 322 1
52 343 1
52 344 1
52 345 1
52 346 1
53 189 1
53 190 1
53 210 1
53 214 1
53 231 1
53 249 1
53 250 1
53 253 1
53 266 1
53 282 1
53 285 1
53 287 1
53 307 1
53 308 1
53 322 1
53 323 1
53 324 1
53 345 1
53 346 1
53 347 1
53 348 1
54 191 1
54 192 1
54 212 1
54 216 1
54 233 1
54 251 1
54 252 1
54 255 1
54 265 1
54 266 1
54 268 1
54 284 1
54 287 1
54 289 1
54 324 1
54 325 1
54 326 1
54 347 1
54 348 1
54 349 1
54 350 1
55 193 1
55 194 1
55 214 1
55 218 1
55 235 1
55 253 1
55 254 1
55 257 1
55 267 1
55 268 1
55 270 1
55 286 1
55 289 1
55 291 1
55 326 1
55 327 1
55 328 1
55 349 1
55 350 1
55 351 1
55 352 1
56 195 1
56 196 1
56 216 1
56 220 1
56 237 1
56 255 1
56 256 1
56 259 1
56 269 1
56 270 1
56 272 1
56 288 1
56 291 1
56 293 1
56 309 1
56 310 1
56 328 1
56 329 1
56 330 1
56 351 1
56 352 1
57 178 1
57 197 1
57 198 1
57 218 1
57 239 1
57 257 1
57 258 1
57 261 1
57 271 1
57 272 1
57 274 1
57 290 1
57 293 1
57 295 1
57 309 1
57 310 1
57 311 1
57 312 1
57 330 1
57 331 1
57 332 1
58 180 1
58 199 1
58 200 1
58 220 1
58 241 1
58 259 1
58 260 1
58 263 1
58 273 1
58 274 1
58 276 1
58 292 1
58 295 1
58 297 1
58 311 1
58 312 1
58 313 1
58 314 1
58 332 1
58 333 1
58 334 1
59 178 1
59 182 1
59 201 1
59 202 1
59 221 1
59 243 1
59 261 1
59 262 1
59 275 1
59 276 1
59 278 1
59 294 1
59 297 1
59 299 1
59 313 1
59 314 1
59 315 1
59 316 1
59 334 1
59 335 1
59 336 1
60 180 1
60 184 1
60 203 1
60 204 1
60 223 1
60 245 1
60 263 1
60 264 1
60 277 1
60 278 1
60 280 1
60 296 1
60 299 1
60 301 1
60 315 1
60 316 1
60 317 1
60 318 1
60 336 1
60 337 1
60 338 1
61 182 1
61 186 1
61 205 1
61 206 1
61 221 1
61 222 1
61 225 1
61 247 1
61 279 1
61 280 1
61 282 1
61 298 1
61 301 1
61 303 1
61 317 1
61 318 1
61 319 1
61 320 1
61 338 1
61 339 1
61 340 1
62 184 1
62 188 1
62 207 1
62 208 1
62 223 1
62 224 1
62 227 1
62 249 1
62 281 1
62 282 1
62 284 1
62 300 1
62 303 1
62 305 1
62 319 1
62 320 1
62 321 1
62 322 1
62 340 1
62 341 1
62 342 1
63 186 1
63 190 1
63 209 1
63 210 1
63 225 1
63 226 1
63 229 1
63 251 1
63 283 1
63 284 1
63 286 1
63 302 1
63 305 1
63 307 1
63 321 1
63 322 1
63 323 1
63 324 1
63 342 1
63 343 1
63 344 1
64 188 1
64 192 1
64 211 1
64 212 1
64 227 1
64 228 1
64 231 1
64 253 1
64 265 1
64 285 1
64 286 1
64 288 1
64 304 1
64 307 1
64 323 1
64 324 1
64 325 1
64 326 1
64 344 1
64 345 1
64 346 1
65 190 1
65 194 1
65 213 1
65 214 1
65 229 1
65 230 1
65 233 1
65 255 1
65 265 1
65 267 1
65 287 1
65 288 1
65 290 1
65 306 1
65 325 1
65 326 1
65 327 1
65 328 1
65 346 1
65 347 1
65 348 1
66 192 1
66 196 1
66 215 1
66 216 1
66 231 1
66 232 1
66 235 1
66 257 1
66 267 1
66 269 1
66 289 1
66 290 1
66 292 1
66 308 1
66 327 1
66 328 1
66 329 1
66 330 1
66 348 1
66 349 1
66 350 1
67 193 1
67 194 1
67 197 1
67 198 1
67 217 1
67 233 1
67 238 1
67 260 1
67 265 1
67 266 1
67 270 1
67 272 1
67 291 1
67 293 1
67 294 1
67 329 1
67 331 1
67 349 1
67 350 1
67 351 1
68 195 1
68 196 1
68 199 1
68 200 1
68 219 1
68 235 1
68 240 1
68 262 1
68 267 1
68 268 1
68 272 1
68 274 1
68 293 1
68 295 1
68 296 1
68 309 1
68 331 1
68 333 1
68 351 1
68 352 1
69 177 1
69 197 1
69 198 1
69 201 1
69 202 1
69 237 1
69 242 1
69 264 1
69 269 1
69 270 1
69 274 1
69 276 1
69 295 1
69 297 1
69 298 1
69 309 1
69 310 1
69 311 1
69 333 1
69 335 1
70 179 1
70 199 1
70 200 1
70 203 1
70 204 1
70 222 1
70 239 1
70 244 1
70 271 1
70 272 1
70 276 1
70 278 1
70 297 1
70 299 1
70 300 1
70 311 1
70 312 1
70 313 1
70 335 1
70 337 1
71 181 1
71 201 1
71 202 1
71 205 1
71 206 1
71 224 1
71 241 1
71 246 1
71 273 1
71 274 1
71 278 1
71 280 1
71 299 1
71 301 1
71 302 1
71 313 1
71 314 1
71 315 1
71 337 1
71 339 1
72 183 1
72 203 1
72 204 1
72 207 1
72 208 1
72 226 1
72 243 1
72 248 1
72 275 1
72 276 1
72 280 1
72 282 1
72 301 1
72 303 1
72 304 1
72 315 1
72 316 1
72 317 1
72 339 1
72 341 1
73 185 1
73 205 1
73 206 1
73 209 1
73 210 1
73 228 1
73 245 1
73 250 1
73 277 1
73 278 1
73 282 1
73 284 1
73 303 1
73 305 1
73 306 1
73 317 1
73 318 1
73 319 1
73 341 1
73 343 1
74 187 1
74 207 1
74 208 1
74 211 1
74 212 1
74 230 1
74 247 1
74 252 1
74 279 1
74 280 1
74 284 1
74 286 1
74 305 1
74 307 1
74 308 1
74 319 1
74 320 1
74 321 1
74 343 1
74 345 1
75 189 1
75 209 1
75 210 1
75 213 1
75 214 1
75 232 1
75 249 1
75 254 1
75 265 1
75 266 1
75 281 1
75 282 1
75 286 1
75 288 1
75 307 1
75 321 1
75 322 1
75 323 1
75 345 1
75 347 1
76 191 1
76 211 1
76 212 1
76 215 1
76 216 1
76 234 1
76 251 1
76 256 1
76 265 1
76 267 1
76 268 1
76 283 1
76 284 1
76 288 1
76 290 1
76 323 1
76 324 1
76 325 1
76 347 1
76 349 1
77 193 1
77 213 1
77 214 1
77 217 1
77 218 1
77 236 1
77 253 1
77 258 1
77 267 1
77 269 1
77 270 1
77 285 1
77 286 1
77 290 1
77 292 1
77 325 1
77 326 1
77 327 1
77 349 1
77 351 1
78 195 1
78 215 1
78 216 1
78 219 1
78 220 1
78 238 1
78 255 1
78 260 1
78 269 1
78 271 1
78 272 1
78 287 1
78 288 1
78 292 1
78 294 1
78 309 1
78 327 1
78 328 1
78 329 1
78 351 1
79 177 1
79 178 1
79 197 1
79 217 1
79 218 1
79 240 1
79 257 1
79 262 1
79 271 1
79 273 1
79 274 1
79 289 1
79 290 1
79 294 1
79 296 1
79 309 1
79 311 1
79 329 1
79 330 1
79 331 1
80 179 1
80 180 1
80 199 1
80 219 1
80 220 1
80 242 1
80 259 1
80 264 1
80 273 1
80 275 1
80 276 1
80 291 1
80 292 1
80 296 1
80 298 1
80 311 1
80 313 1
80 331 1
80 332 1
80 333 1
81 177 1
81 178 1
81 181 1
81 182 1
81 201 1
81 222 1
81 244 1
81 261 1
81 275 1
81 277 1
81 278 1
81 293 1
81 294 1
81 298 1
81 300 1
81 313 1
81 315 1
81 333 1
81 334 1
81 335 1
82 179 1
82 180 1
82 183 1
82 184 1
82 203 1
82 224 1
82 246 1
82 263 1
82 277 1
82 279 1
82 280 1
82 295 1
82 296 1
82 300 1
82 302 1
82 315 1
82 317 1
82 335 1
82 336 1
82 337 1
83 181 1
83 182 1
83 185 1
83 186 1
83 205 1
83 221 1
83 226 1
83 248 1
83 279 1
83 281 1
83 282 1
83 297 1
83 298 1
83 302 1
83 304 1
83 317 1
83 319 1
83 337 1
83 338 1
83 339 1
84 183 1
84 184 1
84 187 1
84 188 1
84 207 1
84 223 1
84 228 1
84 250 1
84 281 1
84 283 1
84 284 1
84 299 1
84 300 1
84 304 1
84 306 1
84 319 1
84 321 1
84 339 1
84 340 1
84 341 1
85 185 1
85 186 1
85 189 1
85 190 1
85 209 1
85 225 1
85 230 1
85 252 1
85 283 1
85 285 1
85 286 1
85 301 1
85 302 1
85 306 1
85 308 1
85 321 1
85 323 1
85 341 1
85 342 1
85 343 1
86 187 1
86 188 1
86 191 1
86 192 1
86 211 1
86 227 1
86 232 1
86 254 1
86 266 1
86 285 1
86 287 1
86 288 1
86 303 1
86 304 1
86 308 1
86 323 1
86 325 1
86 343 1
86 344 1
86 345 1
87 189 1
87 190 1
87 193 1
87 194 1
87 213 1
87 229 1
87 234 1
87 256 1
87 266 1
87 268 1
87 287 1
87 289 1
87 290 1
87 305 1
87 306 1
87 325 1
87 327 1
87 345 1
87 346 1
87 347 1
88 191 1
88 192 1
88 195 1
88 196 1
88 215 1
88 231 1
88 236 1
88 258 1
88 268 1
88 270 1
88 289 1
88 291 1
88 292 1
88 307 1
88 308 1
88 327 1
88 329 1
88 347 1
88 348 1
88 349 1
