%%MatrixMarket matrix coordinate integer general
% GF(4) labels 0,1,2=omega,3=omega+1; arithmetic is NOT integer arithmetic.
% Coordinate indices are 1-based; omitted entries are zero.
44 176 748
1 29 2
1 31 3
1 42 3
1 95 2
1 97 1
1 106 3
1 107 1
1 109 1
1 133 3
1 135 2
1 142 1
1 143 1
1 154 1
1 161 2
1 162 1
1 163 1
1 165 2
1 174 3
1 175 1
2 30 2
2 32 3
2 43 3
2 96 2
2 98 1
2 107 3
2 108 1
2 110 1
2 133 1
2 134 3
2 136 2
2 143 1
2 144 1
2 162 2
2 163 1
2 164 1
2 166 2
2 175 3
2 176 1
3 31 2
3 33 3
3 44 3
3 89 1
3 97 2
3 99 1
3 108 3
3 109 1
3 134 1
3 135 3
3 137 2
3 144 1
3 145 1
3 155 1
3 163 2
3 164 1
3 165 1
3 167 2
3 176 3
4 23 3
4 32 2
4 34 3
4 90 1
4 98 2
4 100 1
4 109 3
4 110 1
4 135 1
4 136 3
4 138 2
4 145 1
4 146 1
4 155 3
4 156 1
4 164 2
4 165 1
4 166 1
4 168 2
5 24 3
5 33 2
5 35 3
5 89 1
5 91 1
5 99 2
5 101 1
5 110 3
5 136 1
5 137 3
5 139 2
5 146 1
5 147 1
5 156 3
5 157 1
5 165 2
5 166 1
5 167 1
5 169 2
6 25 3
6 34 2
6 36 3
6 89 3
6 90 1
6 92 1
6 100 2
6 102 1
6 137 1
6 138 3
6 140 2
6 147 1
6 148 1
6 157 3
6 158 1
6 166 2
6 167 1
6 168 1
6 170 2
7 26 3
7 35 2
7 37 3
7 90 3
7 91 1
7 93 1
7 101 2
7 103 1
7 138 1
7 139 3
7 141 2
7 148 1
7 149 1
7 158 3
7 159 1
7 167 2
7 168 1
7 169 1
7 171 2
8 27 3
8 36 2
8 38 3
8 91 3
8 92 1
8 94 1
8 102 2
8 104 1
8 139 1
8 140 3
8 142 2
8 149 1
8 150 1
8 159 3
8 160 1
8 168 2
8 169 1
8 170 1
8 172 2
9 28 3
9 37 2
9 39 3
9 92 3
9 93 1
9 95 1
9 103 2
9 105 1
9 140 1
9 141 3
9 143 2
9 150 1
9 151 1
9 160 3
9 161 1
9 169 2
9 170 1
9 171 1
9 173 2
10 29 3
10 38 2
10 40 3
10 93 3
10 94 1
10 96 1
10 104 2
10 106 1
10 141 1
10 142 3
10 144 2
10 151 1
10 152 1
10 161 3
10 162 1
10 170 2
10 171 1
10 172 1
10 174 2
11 30 3
11 39 2
11 41 3
11 94 3
11 95 1
11 97 1
11 105 2
11 107 1
11 142 1
11 143 3
11 145 2
11 152 1
11 153 1
11 162 3
11 163 1
11 171 2
11 172 1
11 173 1
11 175 2
12 31 3
12 40 2
12 42 3
12 95 3
12 96 1
12 98 1
12 106 2
12 108 1
12 143 1
12 144 3
12 146 2
12 153 1
12 154 1
12 163 3
12 164 1
12 172 2
12 173 1
12 174 1
12 176 2
13 32 3
13 41 2
13 43 3
13 96 3
13 97 1
13 99 1
13 107 2
13 109 1
13 133 1
13 144 1
13 145 3
13 147 2
13 154 1
13 155 2
13 164 3
13 165 1
13 173 2
13 174 1
13 175 1
14 33 3
14 42 2
14 44 3
14 97 3
14 98 1
14 100 1
14 108 2
14 110 1
14 133 1
14 134 1
14 145 1
14 146 3
14 148 2
14 156 2
14 165 3
14 166 1
14 174 2
14 175 1
14 176 1
15 23 3
15 34 3
15 43 2
15 89 1
15 98 3
15 99 1
15 101 1
15 109 2
15 134 1
15 135 1
15 146 1
15 147 3
15 149 2
15 155 1
15 157 2
15 166 3
15 167 1
15 175 2
15 176 1
16 24 3
16 35 3
16 44 2
16 90 1
16 99 3
16 100 1
16 102 1
16 110 2
16 135 1
16 136 1
16 147 1
16 148 3
16 150 2
16 155 1
16 156 1
16 158 2
16 167 3
16 168 1
16 176 2
17 23 2
17 25 3
17 36 3
17 89 2
17 91 1
17 100 3
17 101 1
17 103 1
17 136 1
17 137 1
17 148 1
17 149 3
17 151 2
17 155 2
17 156 1
17 157 1
17 159 2
17 168 3
17 169 1
18 24 2
18 26 3
18 37 3
18 90 2
18 92 1
18 101 3
18 102 1
18 104 1
18 137 1
18 138 1
18 149 1
18 150 3
18 152 2
18 156 2
18 157 1
18 158 1
18 160 2
18 169 3
18 170 1
19 25 2
19 27 3
19 38 3
19 91 2
19 93 1
19 102 3
19 103 1
19 105 1
19 138 1
19 139 1
19 150 1
19 151 3
19 153 2
19 157 2
19 158 1
19 159 1
19 161 2
19 170 3
19 171 1
20 26 2
20 28 3
20 39 3
20 92 2
20 94 1
20 103 3
20 104 1
20 106 1
20 139 1
20 140 1
20 151 1
20 152 3
20 154 2
20 158 2
20 159 1
20 160 1
20 162 2
20 171 3
20 172 1
21 27 2
21 29 3
21 40 3
21 93 2
21 95 1
21 104 3
21 105 1
21 107 1
21 133 2
21 140 1
21 141 1
21 152 1
21 153 3
21 159 2
21 160 1
21 161 1
21 163 2
21 172 3
21 173 1
22 28 2
22 30 3
22 41 3
22 94 2
22 96 1
22 105 3
22 106 1
22 108 1
22 134 2
22 141 1
22 142 1
22 153 1
22 154 3
22 160 2
22 161 1
22 162 1
22 164 2
22 173 3
22 174 1
23 97 2
23 99 2
23 109 3
23 117 3
23 119 1
23 130 1
23 133 2
23 135 1
23 136 1
23 146 3
23 147 2
23 165 3
23 166 3
23 175 2
23 176 3
24 98 2
24 100 2
24 110 3
24 118 3
24 120 1
24 131 1
24 134 2
24 136 1
24 137 1
24 147 3
24 148 2
24 155 3
24 166 3
24 167 3
24 176 2
25 89 3
25 99 2
25 101 2
25 119 3
25 121 1
25 132 1
25 135 2
25 137 1
25 138 1
25 148 3
25 149 2
25 155 2
25 156 3
25 167 3
25 168 3
26 90 3
26 100 2
26 102 2
26 111 1
26 120 3
26 122 1
26 136 2
26 138 1
26 139 1
26 149 3
26 150 2
26 156 2
26 157 3
26 168 3
26 169 3
27 91 3
27 101 2
27 103 2
27 112 1
27 121 3
27 123 1
27 137 2
27 139 1
27 140 1
27 150 3
27 151 2
27 157 2
27 158 3
27 169 3
27 170 3
28 92 3
28 102 2
28 104 2
28 113 1
28 122 3
28 124 1
28 138 2
28 140 1
28 141 1
28 151 3
28 152 2
28 158 2
28 159 3
28 170 3
28 171 3
29 93 3
29 103 2
29 105 2
29 114 1
29 123 3
29 125 1
29 139 2
29 141 1
29 142 1
29 152 3
29 153 2
29 159 2
29 160 3
29 171 3
29 172 3
30 94 3
30 104 2
30 106 2
30 115 1
30 124 3
30 126 1
30 140 2
30 142 1
30 143 1
30 153 3
30 154 2
30 160 2
30 161 3
30 172 3
30 173 3
31 95 3
31 105 2
31 107 2
31 116 1
31 125 3
31 127 1
31 133 2
31 141 2
31 143 1
31 144 1
31 154 3
31 161 2
31 162 3
31 173 3
31 174 3
32 96 3
32 106 2
32 108 2
32 117 1
32 126 3
32 128 1
32 133 3
32 134 2
32 142 2
32 144 1
32 145 1
32 162 2
32 163 3
32 174 3
32 175 3
33 97 3
33 107 2
33 109 2
33 118 1
33 127 3
33 129 1
33 134 3
33 135 2
33 143 2
33 145 1
33 146 1
33 163 2
33 164 3
33 175 3
33 176 3
34 98 3
34 108 2
34 110 2
34 119 1
34 128 3
34 130 1
34 135 3
34 136 2
34 144 2
34 146 1
34 147 1
34 155 3
34 164 2
34 165 3
34 176 3
35 89 2
35 99 3
35 109 2
35 120 1
35 129 3
35 131 1
35 136 3
35 137 2
35 145 2
35 147 1
35 148 1
35 155 3
35 156 3
35 165 2
35 166 3
36 90 2
36 100 3
36 110 2
36 121 1
36 130 3
36 132 1
36 137 3
36 138 2
36 146 2
36 148 1
36 149 1
36 156 3
36 157 3
36 166 2
36 167 3
37 89 2
37 91 2
37 101 3
37 111 1
37 122 1
37 131 3
37 138 3
37 139 2
37 147 2
37 149 1
37 150 1
37 157 3
37 158 3
37 167 2
37 168 3
38 90 2
38 92 2
38 102 3
38 112 1
38 123 1
38 132 3
38 139 3
38 140 2
38 148 2
38 150 1
38 151 1
38 158 3
38 159 3
38 168 2
38 169 3
39 91 2
39 93 2
39 103 3
39 111 3
39 113 1
39 124 1
39 140 3
39 141 2
39 149 2
39 151 1
39 152 1
39 159 3
39 160 3
39 169 2
39 170 3
40 92 2
40 94 2
40 104 3
40 112 3
40 114 1
40 125 1
40 141 3
40 142 2
40 150 2
40 152 1
40 153 1
40 160 3
40 161 3
40 170 2
40 171 3
41 93 2
41 95 2
41 105 3
41 113 3
41 115 1
41 126 1
41 142 3
41 143 2
41 151 2
41 153 1
41 154 1
41 161 3
41 162 3
41 171 2
41 172 3
42 94 2
42 96 2
42 106 3
42 114 3
42 116 1
42 127 1
42 133 1
42 143 3
42 144 2
42 152 2
42 154 1
42 162 3
42 163 3
42 172 2
42 173 3
43 95 2
43 97 2
43 107 3
43 115 3
43 117 1
43 128 1
43 133 1
43 134 1
43 144 3
43 145 2
43 153 2
43 163 3
43 164 3
43 173 2
43 174 3
44 96 2
44 98 2
44 108 3
44 116 3
44 118 1
44 129 1
44 134 1
44 135 1
44 145 3
44 146 2
44 154 2
44 164 3
44 165 3
44 174 2
44 175 3
