%%MatrixMarket matrix coordinate integer general
% Binary matrix over GF(2).
% Coordinate indices are 1-based; omitted entries are zero.
88 352 1958
1 7 1
1 9 1
1 14 1
1 30 1
1 31 1
1 32 1
1 53 1
1 57 1
1 58 1
1 75 1
1 96 1
1 100 1
1 119 1
1 120 1
1 141 1
1 142 1
1 144 1
1 161 1
1 162 1
1 163 1
1 164 1
2 9 1
2 11 1
2 16 1
2 32 1
2 33 1
2 34 1
2 55 1
2 59 1
2 60 1
2 77 1
2 98 1
2 102 1
2 121 1
2 122 1
2 143 1
2 144 1
2 146 1
2 163 1
2 164 1
2 165 1
2 166 1
3 11 1
3 13 1
3 18 1
3 34 1
3 35 1
3 36 1
3 57 1
3 61 1
3 62 1
3 79 1
3 100 1
3 104 1
3 123 1
3 124 1
3 145 1
3 146 1
3 148 1
3 165 1
3 166 1
3 167 1
3 168 1
4 13 1
4 15 1
4 20 1
4 36 1
4 37 1
4 38 1
4 59 1
4 63 1
4 64 1
4 81 1
4 102 1
4 106 1
4 125 1
4 126 1
4 147 1
4 148 1
4 150 1
4 167 1
4 168 1
4 169 1
4 170 1
5 15 1
5 17 1
5 22 1
5 38 1
5 39 1
5 40 1
5 61 1
5 65 1
5 66 1
5 83 1
5 104 1
5 108 1
5 127 1
5 128 1
5 149 1
5 150 1
5 152 1
5 169 1
5 170 1
5 171 1
5 172 1
6 17 1
6 19 1
6 24 1
6 40 1
6 41 1
6 42 1
6 63 1
6 67 1
6 68 1
6 85 1
6 106 1
6 110 1
6 129 1
6 130 1
6 151 1
6 152 1
6 154 1
6 171 1
6 172 1
6 173 1
6 174 1
7 19 1
7 21 1
7 26 1
7 42 1
7 43 1
7 44 1
7 65 1
7 69 1
7 70 1
7 87 1
7 108 1
7 112 1
7 131 1
7 132 1
7 153 1
7 154 1
7 156 1
7 173 1
7 174 1
7 175 1
7 176 1
8 1 1
8 2 1
8 21 1
8 23 1
8 28 1
8 44 1
8 45 1
8 67 1
8 71 1
8 72 1
8 89 1
8 90 1
8 110 1
8 114 1
8 133 1
8 134 1
8 155 1
8 156 1
8 158 1
8 175 1
8 176 1
9 2 1
9 3 1
9 4 1
9 23 1
9 25 1
9 30 1
9 47 1
9 69 1
9 73 1
9 74 1
9 91 1
9 92 1
9 112 1
9 116 1
9 133 1
9 134 1
9 135 1
9 136 1
9 157 1
9 158 1
9 160 1
10 4 1
10 5 1
10 6 1
10 25 1
10 27 1
10 32 1
10 49 1
10 71 1
10 75 1
10 76 1
10 93 1
10 94 1
10 114 1
10 118 1
10 135 1
10 136 1
10 137 1
10 138 1
10 159 1
10 160 1
10 162 1
11 6 1
11 7 1
11 8 1
11 27 1
11 29 1
11 34 1
11 51 1
11 73 1
11 77 1
11 78 1
11 95 1
11 96 1
11 116 1
11 120 1
11 137 1
11 138 1
11 139 1
11 140 1
11 161 1
11 162 1
11 164 1
12 8 1
12 9 1
12 10 1
12 29 1
12 31 1
12 36 1
12 53 1
12 75 1
12 79 1
12 80 1
12 97 1
12 98 1
12 118 1
12 122 1
12 139 1
12 140 1
12 141 1
12 142 1
12 163 1
12 164 1
12 166 1
13 10 1
13 11 1
13 12 1
13 31 1
13 33 1
13 38 1
13 55 1
13 77 1
13 81 1
13 82 1
13 99 1
13 100 1
13 120 1
13 124 1
13 141 1
13 142 1
13 143 1
13 144 1
13 165 1
13 166 1
13 168 1
14 12 1
14 13 1
14 14 1
14 33 1
14 35 1
14 40 1
14 57 1
14 79 1
14 83 1
14 84 1
14 101 1
14 102 1
14 122 1
14 126 1
14 143 1
14 144 1
14 145 1
14 146 1
14 167 1
14 168 1
14 170 1
15 14 1
15 15 1
15 16 1
15 35 1
15 37 1
15 42 1
15 59 1
15 81 1
15 85 1
15 86 1
15 103 1
15 104 1
15 124 1
15 128 1
15 145 1
15 146 1
15 147 1
15 148 1
15 169 1
15 170 1
15 172 1
16 16 1
16 17 1
16 18 1
16 37 1
16 39 1
16 44 1
16 61 1
16 83 1
16 87 1
16 88 1
16 105 1
16 106 1
16 126 1
16 130 1
16 147 1
16 148 1
16 149 1
16 150 1
16 171 1
16 172 1
16 174 1
17 2 1
17 18 1
17 19 1
17 20 1
17 39 1
17 41 1
17 45 1
17 46 1
17 63 1
17 85 1
17 107 1
17 108 1
17 128 1
17 132 1
17 149 1
17 150 1
17 151 1
17 152 1
17 173 1
17 174 1
17 176 1
18 4 1
18 20 1
18 21 1
18 22 1
18 41 1
18 43 1
18 47 1
18 48 1
18 65 1
18 87 1
18 90 1
18 109 1
18 110 1
18 130 1
18 134 1
18 151 1
18 152 1
18 153 1
18 154 1
18 175 1
18 176 1
19 1 1
19 6 1
19 22 1
19 23 1
19 24 1
19 43 1
19 45 1
19 49 1
19 50 1
19 67 1
19 92 1
19 111 1
19 112 1
19 132 1
19 133 1
19 134 1
19 136 1
19 153 1
19 154 1
19 155 1
19 156 1
20 1 1
20 3 1
20 8 1
20 24 1
20 25 1
20 26 1
20 47 1
20 51 1
20 52 1
20 69 1
20 90 1
20 94 1
20 113 1
20 114 1
20 135 1
20 136 1
20 138 1
20 155 1
20 156 1
20 157 1
20 158 1
21 3 1
21 5 1
21 10 1
21 26 1
21 27 1
21 28 1
21 49 1
21 53 1
21 54 1
21 71 1
21 92 1
21 96 1
21 115 1
21 116 1
21 137 1
21 138 1
21 140 1
21 157 1
21 158 1
21 159 1
21 160 1
22 5 1
22 7 1
22 12 1
22 28 1
22 29 1
22 30 1
22 51 1
22 55 1
22 56 1
22 73 1
22 94 1
22 98 1
22 117 1
22 118 1
22 139 1
22 140 1
22 142 1
22 159 1
22 160 1
22 161 1
22 162 1
23 8 1
23 10 1
23 13 1
23 14 1
23 29 1
23 30 1
23 31 1
23 54 1
23 57 1
23 76 1
23 95 1
23 96 1
23 99 1
23 100 1
23 119 1
23 141 1
23 143 1
23 144 1
23 161 1
23 163 1
24 10 1
24 12 1
24 15 1
24 16 1
24 31 1
24 32 1
24 33 1
24 56 1
24 59 1
24 78 1
24 97 1
24 98 1
24 101 1
24 102 1
24 121 1
24 143 1
24 145 1
24 146 1
24 163 1
24 165 1
25 12 1
25 14 1
25 17 1
25 18 1
25 33 1
25 34 1
25 35 1
25 58 1
25 61 1
25 80 1
25 99 1
25 100 1
25 103 1
25 104 1
25 123 1
25 145 1
25 147 1
25 148 1
25 165 1
25 167 1
26 14 1
26 16 1
26 19 1
26 20 1
26 35 1
26 36 1
26 37 1
26 60 1
26 63 1
26 82 1
26 101 1
26 102 1
26 105 1
26 106 1
26 125 1
26 147 1
26 149 1
26 150 1
26 167 1
26 169 1
27 16 1
27 18 1
27 21 1
27 22 1
27 37 1
27 38 1
27 39 1
27 62 1
27 65 1
27 84 1
27 103 1
27 104 1
27 107 1
27 108 1
27 127 1
27 149 1
27 151 1
27 152 1
27 169 1
27 171 1
28 18 1
28 20 1
28 23 1
28 24 1
28 39 1
28 40 1
28 41 1
28 64 1
28 67 1
28 86 1
28 105 1
28 106 1
28 109 1
28 110 1
28 129 1
28 151 1
28 153 1
28 154 1
28 171 1
28 173 1
29 20 1
29 22 1
29 25 1
29 26 1
29 41 1
29 42 1
29 43 1
29 66 1
29 69 1
29 88 1
29 107 1
29 108 1
29 111 1
29 112 1
29 131 1
29 153 1
29 155 1
29 156 1
29 173 1
29 175 1
30 1 1
30 22 1
30 24 1
30 27 1
30 28 1
30 43 1
30 44 1
30 46 1
30 68 1
30 71 1
30 89 1
30 109 1
30 110 1
30 113 1
30 114 1
30 133 1
30 155 1
30 157 1
30 158 1
30 175 1
31 1 1
31 2 1
31 3 1
31 24 1
31 26 1
31 29 1
31 30 1
31 48 1
31 70 1
31 73 1
31 91 1
31 111 1
31 112 1
31 115 1
31 116 1
31 133 1
31 135 1
31 157 1
31 159 1
31 160 1
32 3 1
32 4 1
32 5 1
32 26 1
32 28 1
32 31 1
32 32 1
32 50 1
32 72 1
32 75 1
32 93 1
32 113 1
32 114 1
32 117 1
32 118 1
32 135 1
32 137 1
32 159 1
32 161 1
32 162 1
33 5 1
33 6 1
33 7 1
33 28 1
33 30 1
33 33 1
33 34 1
33 52 1
33 74 1
33 77 1
33 95 1
33 115 1
33 116 1
33 119 1
33 120 1
33 137 1
33 139 1
33 161 1
33 163 1
33 164 1
34 7 1
34 8 1
34 9 1
34 30 1
34 32 1
34 35 1
34 36 1
34 54 1
34 76 1
34 79 1
34 97 1
34 117 1
34 118 1
34 121 1
34 122 1
34 139 1
34 141 1
34 163 1
34 165 1
34 166 1
35 9 1
35 10 1
35 11 1
35 32 1
35 34 1
35 37 1
35 38 1
35 56 1
35 78 1
35 81 1
35 99 1
35 119 1
35 120 1
35 123 1
35 124 1
35 141 1
35 143 1
35 165 1
35 167 1
35 168 1
36 11 1
36 12 1
36 13 1
36 34 1
36 36 1
36 39 1
36 40 1
36 58 1
36 80 1
36 83 1
36 101 1
36 121 1
36 122 1
36 125 1
36 126 1
36 143 1
36 145 1
36 167 1
36 169 1
36 170 1
37 13 1
37 14 1
37 15 1
37 36 1
37 38 1
37 41 1
37 42 1
37 60 1
37 82 1
37 85 1
37 103 1
37 123 1
37 124 1
37 127 1
37 128 1
37 145 1
37 147 1
37 169 1
37 171 1
37 172 1
38 15 1
38 16 1
38 17 1
38 38 1
38 40 1
38 43 1
38 44 1
38 62 1
38 84 1
38 87 1
38 105 1
38 125 1
38 126 1
38 129 1
38 130 1
38 147 1
38 149 1
38 171 1
38 173 1
38 174 1
39 1 1
39 2 1
39 17 1
39 18 1
39 19 1
39 40 1
39 42 1
39 45 1
39 64 1
39 86 1
39 107 1
39 127 1
39 128 1
39 131 1
39 132 1
39 149 1
39 151 1
39 173 1
39 175 1
39 176 1
40 3 1
40 4 1
40 19 1
40 20 1
40 21 1
40 42 1
40 44 1
40 47 1
40 66 1
40 88 1
40 89 1
40 90 1
40 109 1
40 129 1
40 130 1
40 133 1
40 134 1
40 151 1
40 153 1
40 175 1
41 2 1
41 5 1
41 6 1
41 21 1
41 22 1
41 23 1
41 44 1
41 46 1
41 49 1
41 68 1
41 91 1
41 92 1
41 111 1
41 131 1
41 132 1
41 133 1
41 135 1
41 136 1
41 153 1
41 155 1
42 2 1
42 4 1
42 7 1
42 8 1
42 23 1
42 24 1
42 25 1
42 48 1
42 51 1
42 70 1
42 89 1
42 90 1
42 93 1
42 94 1
42 113 1
42 135 1
42 137 1
42 138 1
42 155 1
42 157 1
43 4 1
43 6 1
43 9 1
43 10 1
43 25 1
43 26 1
43 27 1
43 50 1
43 53 1
43 72 1
43 91 1
43 92 1
43 95 1
43 96 1
43 115 1
43 137 1
43 139 1
43 140 1
43 157 1
43 159 1
44 6 1
44 8 1
44 11 1
44 12 1
44 27 1
44 28 1
44 29 1
44 52 1
44 55 1
44 74 1
44 93 1
44 94 1
44 97 1
44 98 1
44 117 1
44 139 1
44 141 1
44 142 1
44 159 1
44 161 1
45 10 1
45 13 1
45 14 1
45 15 1
45 37 1
45 39 1
45 99 1
45 104 1
45 119 1
45 123 1
45 125 1
45 126 1
45 143 1
45 145 1
45 146 1
45 164 1
45 167 1
45 169 1
45 172 1
45 229 1
45 230 1
45 234 1
45 251 1
45 252 1
46 12 1
46 15 1
46 16 1
46 17 1
46 39 1
46 41 1
46 101 1
46 106 1
46 121 1
46 125 1
46 127 1
46 128 1
46 145 1
46 147 1
46 148 1
46 166 1
46 169 1
46 171 1
46 174 1
46 231 1
46 232 1
46 236 1
46 253 1
46 254 1
47 14 1
47 17 1
47 18 1
47 19 1
47 41 1
47 43 1
47 103 1
47 108 1
47 123 1
47 127 1
47 129 1
47 130 1
47 147 1
47 149 1
47 150 1
47 168 1
47 171 1
47 173 1
47 176 1
47 233 1
47 234 1
47 238 1
47 255 1
47 256 1
48 1 1
48 16 1
48 19 1
48 20 1
48 21 1
48 43 1
48 105 1
48 110 1
48 125 1
48 129 1
48 131 1
48 132 1
48 134 1
48 149 1
48 151 1
48 152 1
48 170 1
48 173 1
48 175 1
48 235 1
48 236 1
48 240 1
48 257 1
48 258 1
49 1 1
49 3 1
49 18 1
49 21 1
49 22 1
49 23 1
49 89 1
49 90 1
49 107 1
49 112 1
49 127 1
49 131 1
49 133 1
49 136 1
49 151 1
49 153 1
49 154 1
49 172 1
49 175 1
49 237 1
49 238 1
49 242 1
49 259 1
49 260 1
50 3 1
50 5 1
50 20 1
50 23 1
50 24 1
50 25 1
50 89 1
50 91 1
50 92 1
50 109 1
50 114 1
50 129 1
50 133 1
50 135 1
50 138 1
50 153 1
50 155 1
50 156 1
50 174 1
50 239 1
50 240 1
50 244 1
50 261 1
50 262 1
51 5 1
51 7 1
51 22 1
51 25 1
51 26 1
51 27 1
51 91 1
51 93 1
51 94 1
51 111 1
51 116 1
51 131 1
51 135 1
51 137 1
51 140 1
51 155 1
51 157 1
51 158 1
51 176 1
51 241 1
51 242 1
51 246 1
51 263 1
51 264 1
52 7 1
52 9 1
52 24 1
52 27 1
52 28 1
52 29 1
52 89 1
52 93 1
52 95 1
52 96 1
52 113 1
52 118 1
52 134 1
52 137 1
52 139 1
52 142 1
52 157 1
52 159 1
52 160 1
52 221 1
52 222 1
52 243 1
52 244 1
52 248 1
53 9 1
53 11 1
53 26 1
53 29 1
53 30 1
53 31 1
53 91 1
53 95 1
53 97 1
53 98 1
53 115 1
53 120 1
53 136 1
53 139 1
53 141 1
53 144 1
53 159 1
53 161 1
53 162 1
53 223 1
53 224 1
53 245 1
53 246 1
53 250 1
54 11 1
54 13 1
54 28 1
54 31 1
54 32 1
54 33 1
54 93 1
54 97 1
54 99 1
54 100 1
54 117 1
54 122 1
54 138 1
54 141 1
54 143 1
54 146 1
54 161 1
54 163 1
54 164 1
54 225 1
54 226 1
54 247 1
54 248 1
54 252 1
55 13 1
55 15 1
55 30 1
55 33 1
55 34 1
55 35 1
55 95 1
55 99 1
55 101 1
55 102 1
55 119 1
55 124 1
55 140 1
55 143 1
55 145 1
55 148 1
55 163 1
55 165 1
55 166 1
55 227 1
55 228 1
55 249 1
55 250 1
55 254 1
56 15 1
56 17 1
56 32 1
56 35 1
56 36 1
56 37 1
56 97 1
56 101 1
56 103 1
56 104 1
56 121 1
56 126 1
56 142 1
56 145 1
56 147 1
56 150 1
56 165 1
56 167 1
56 168 1
56 229 1
56 230 1
56 251 1
56 252 1
56 256 1
57 17 1
57 19 1
57 34 1
57 37 1
57 38 1
57 39 1
57 99 1
57 103 1
57 105 1
57 106 1
57 123 1
57 128 1
57 144 1
57 147 1
57 149 1
57 152 1
57 167 1
57 169 1
57 170 1
57 231 1
57 232 1
57 253 1
57 254 1
57 258 1
58 19 1
58 21 1
58 36 1
58 39 1
58 40 1
58 41 1
58 101 1
58 105 1
58 107 1
58 108 1
58 125 1
58 130 1
58 146 1
58 149 1
58 151 1
58 154 1
58 169 1
58 171 1
58 172 1
58 233 1
58 234 1
58 255 1
58 256 1
58 260 1
59 21 1
59 23 1
59 38 1
59 41 1
59 42 1
59 43 1
59 103 1
59 107 1
59 109 1
59 110 1
59 127 1
59 132 1
59 148 1
59 151 1
59 153 1
59 156 1
59 171 1
59 173 1
59 174 1
59 235 1
59 236 1
59 257 1
59 258 1
59 262 1
60 1 1
60 23 1
60 25 1
60 40 1
60 43 1
60 44 1
60 90 1
60 105 1
60 109 1
60 111 1
60 112 1
60 129 1
60 150 1
60 153 1
60 155 1
60 158 1
60 173 1
60 175 1
60 176 1
60 237 1
60 238 1
60 259 1
60 260 1
60 264 1
61 1 1
61 2 1
61 3 1
61 25 1
61 27 1
61 42 1
61 92 1
61 107 1
61 111 1
61 113 1
61 114 1
61 131 1
61 133 1
61 134 1
61 152 1
61 155 1
61 157 1
61 160 1
61 175 1
61 222 1
61 239 1
61 240 1
61 261 1
61 262 1
62 3 1
62 4 1
62 5 1
62 27 1
62 29 1
62 44 1
62 89 1
62 94 1
62 109 1
62 113 1
62 115 1
62 116 1
62 133 1
62 135 1
62 136 1
62 154 1
62 157 1
62 159 1
62 162 1
62 224 1
62 241 1
62 242 1
62 263 1
62 264 1
63 2 1
63 5 1
63 6 1
63 7 1
63 29 1
63 31 1
63 91 1
63 96 1
63 111 1
63 115 1
63 117 1
63 118 1
63 135 1
63 137 1
63 138 1
63 156 1
63 159 1
63 161 1
63 164 1
63 221 1
63 222 1
63 226 1
63 243 1
63 244 1
64 4 1
64 7 1
64 8 1
64 9 1
64 31 1
64 33 1
64 93 1
64 98 1
64 113 1
64 117 1
64 119 1
64 120 1
64 137 1
64 139 1
64 140 1
64 158 1
64 161 1
64 163 1
64 166 1
64 223 1
64 224 1
64 228 1
64 245 1
64 246 1
65 6 1
65 9 1
65 10 1
65 11 1
65 33 1
65 35 1
65 95 1
65 100 1
65 115 1
65 119 1
65 121 1
65 122 1
65 139 1
65 141 1
65 142 1
65 160 1
65 163 1
65 165 1
65 168 1
65 225 1
65 226 1
65 230 1
65 247 1
65 248 1
66 8 1
66 11 1
66 12 1
66 13 1
66 35 1
66 37 1
66 97 1
66 102 1
66 117 1
66 121 1
66 123 1
66 124 1
66 141 1
66 143 1
66 144 1
66 162 1
66 165 1
66 167 1
66 170 1
66 227 1
66 228 1
66 232 1
66 249 1
66 250 1
67 9 1
67 10 1
67 13 1
67 16 1
67 38 1
67 40 1
67 100 1
67 103 1
67 104 1
67 120 1
67 124 1
67 125 1
67 144 1
67 145 1
67 163 1
67 164 1
67 168 1
67 170 1
67 171 1
67 172 1
67 229 1
67 233 1
67 234 1
67 251 1
68 11 1
68 12 1
68 15 1
68 18 1
68 40 1
68 42 1
68 102 1
68 105 1
68 106 1
68 122 1
68 126 1
68 127 1
68 146 1
68 147 1
68 165 1
68 166 1
68 170 1
68 172 1
68 173 1
68 174 1
68 231 1
68 235 1
68 236 1
68 253 1
69 13 1
69 14 1
69 17 1
69 20 1
69 42 1
69 44 1
69 104 1
69 107 1
69 108 1
69 124 1
69 128 1
69 129 1
69 148 1
69 149 1
69 167 1
69 168 1
69 172 1
69 174 1
69 175 1
69 176 1
69 233 1
69 237 1
69 238 1
69 255 1
70 2 1
70 15 1
70 16 1
70 19 1
70 22 1
70 44 1
70 106 1
70 109 1
70 110 1
70 126 1
70 130 1
70 131 1
70 133 1
70 134 1
70 150 1
70 151 1
70 169 1
70 170 1
70 174 1
70 176 1
70 235 1
70 239 1
70 240 1
70 257 1
71 2 1
71 4 1
71 17 1
71 18 1
71 21 1
71 24 1
71 89 1
71 108 1
71 111 1
71 112 1
71 128 1
71 132 1
71 134 1
71 135 1
71 136 1
71 152 1
71 153 1
71 171 1
71 172 1
71 176 1
71 237 1
71 241 1
71 242 1
71 259 1
72 4 1
72 6 1
72 19 1
72 20 1
72 23 1
72 26 1
72 90 1
72 91 1
72 110 1
72 113 1
72 114 1
72 130 1
72 134 1
72 136 1
72 137 1
72 138 1
72 154 1
72 155 1
72 173 1
72 174 1
72 239 1
72 243 1
72 244 1
72 261 1
73 6 1
73 8 1
73 21 1
73 22 1
73 25 1
73 28 1
73 92 1
73 93 1
73 112 1
73 115 1
73 116 1
73 132 1
73 136 1
73 138 1
73 139 1
73 140 1
73 156 1
73 157 1
73 175 1
73 176 1
73 241 1
73 245 1
73 246 1
73 263 1
74 8 1
74 10 1
74 23 1
74 24 1
74 27 1
74 30 1
74 90 1
74 94 1
74 95 1
74 114 1
74 117 1
74 118 1
74 133 1
74 134 1
74 138 1
74 140 1
74 141 1
74 142 1
74 158 1
74 159 1
74 221 1
74 243 1
74 247 1
74 248 1
75 10 1
75 12 1
75 25 1
75 26 1
75 29 1
75 32 1
75 92 1
75 96 1
75 97 1
75 116 1
75 119 1
75 120 1
75 135 1
75 136 1
75 140 1
75 142 1
75 143 1
75 144 1
75 160 1
75 161 1
75 223 1
75 245 1
75 249 1
75 250 1
76 12 1
76 14 1
76 27 1
76 28 1
76 31 1
76 34 1
76 94 1
76 98 1
76 99 1
76 118 1
76 121 1
76 122 1
76 137 1
76 138 1
76 142 1
76 144 1
76 145 1
76 146 1
76 162 1
76 163 1
76 225 1
76 247 1
76 251 1
76 252 1
77 14 1
77 16 1
77 29 1
77 30 1
77 33 1
77 36 1
77 96 1
77 100 1
77 101 1
77 120 1
77 123 1
77 124 1
77 139 1
77 140 1
77 144 1
77 146 1
77 147 1
77 148 1
77 164 1
77 165 1
77 227 1
77 249 1
77 253 1
77 254 1
78 16 1
78 18 1
78 31 1
78 32 1
78 35 1
78 38 1
78 98 1
78 102 1
78 103 1
78 122 1
78 125 1
78 126 1
78 141 1
78 142 1
78 146 1
78 148 1
78 149 1
78 150 1
78 166 1
78 167 1
78 229 1
78 251 1
78 255 1
78 256 1
79 18 1
79 20 1
79 33 1
79 34 1
79 37 1
79 40 1
79 100 1
79 104 1
79 105 1
79 124 1
79 127 1
79 128 1
79 143 1
79 144 1
79 148 1
79 150 1
79 151 1
79 152 1
79 168 1
79 169 1
79 231 1
79 253 1
79 257 1
79 258 1
80 20 1
80 22 1
80 35 1
80 36 1
80 39 1
80 42 1
80 102 1
80 106 1
80 107 1
80 126 1
80 129 1
80 130 1
80 145 1
80 146 1
80 150 1
80 152 1
80 153 1
80 154 1
80 170 1
80 171 1
80 233 1
80 255 1
80 259 1
80 260 1
81 22 1
81 24 1
81 37 1
81 38 1
81 41 1
81 44 1
81 104 1
81 108 1
81 109 1
81 128 1
81 131 1
81 132 1
81 147 1
81 148 1
81 152 1
81 154 1
81 155 1
81 156 1
81 172 1
81 173 1
81 235 1
81 257 1
81 261 1
81 262 1
82 2 1
82 24 1
82 26 1
82 39 1
82 40 1
82 43 1
82 89 1
82 90 1
82 106 1
82 110 1
82 111 1
82 130 1
82 149 1
82 150 1
82 154 1
82 156 1
82 157 1
82 158 1
82 174 1
82 175 1
82 237 1
82 259 1
82 263 1
82 264 1
83 1 1
83 4 1
83 26 1
83 28 1
83 41 1
83 42 1
83 91 1
83 92 1
83 108 1
83 112 1
83 113 1
83 132 1
83 133 1
83 151 1
83 152 1
83 156 1
83 158 1
83 159 1
83 160 1
83 176 1
83 221 1
83 222 1
83 239 1
83 261 1
84 3 1
84 6 1
84 28 1
84 30 1
84 43 1
84 44 1
84 90 1
84 93 1
84 94 1
84 110 1
84 114 1
84 115 1
84 134 1
84 135 1
84 153 1
84 154 1
84 158 1
84 160 1
84 161 1
84 162 1
84 223 1
84 224 1
84 241 1
84 263 1
85 1 1
85 2 1
85 5 1
85 8 1
85 30 1
85 32 1
85 92 1
85 95 1
85 96 1
85 112 1
85 116 1
85 117 1
85 136 1
85 137 1
85 155 1
85 156 1
85 160 1
85 162 1
85 163 1
85 164 1
85 221 1
85 225 1
85 226 1
85 243 1
86 3 1
86 4 1
86 7 1
86 10 1
86 32 1
86 34 1
86 94 1
86 97 1
86 98 1
86 114 1
86 118 1
86 119 1
86 138 1
86 139 1
86 157 1
86 158 1
86 162 1
86 164 1
86 165 1
86 166 1
86 223 1
86 227 1
86 228 1
86 245 1
87 5 1
87 6 1
87 9 1
87 12 1
87 34 1
87 36 1
87 96 1
87 99 1
87 100 1
87 116 1
87 120 1
87 121 1
87 140 1
87 141 1
87 159 1
87 160 1
87 164 1
87 166 1
87 167 1
87 168 1
87 225 1
87 229 1
87 230 1
87 247 1
88 7 1
88 8 1
88 11 1
88 14 1
88 36 1
88 38 1
88 98 1
88 101 1
88 102 1
88 118 1
88 122 1
88 123 1
88 142 1
88 143 1
88 161 1
88 162 1
88 166 1
88 168 1
88 169 1
88 170 1
88 227 1
88 231 1
88 232 1
88 249 1
