%%MatrixMarket matrix coordinate integer general
% GF(4) labels 0,1,2=omega,3=omega+1; arithmetic is NOT integer arithmetic.
% Coordinate indices are 1-based; omitted entries are zero.
44 176 748
1 4 1
1 5 1
1 7 2
1 15 2
1 16 3
1 27 1
1 29 3
1 38 1
1 48 2
1 50 2
1 60 3
1 71 3
1 72 2
1 81 3
1 82 3
2 5 1
2 6 1
2 8 2
2 16 2
2 17 3
2 28 1
2 30 3
2 39 1
2 49 2
2 51 2
2 61 3
2 72 3
2 73 2
2 82 3
2 83 3
3 6 1
3 7 1
3 9 2
3 17 2
3 18 3
3 29 1
3 31 3
3 40 1
3 50 2
3 52 2
3 62 3
3 73 3
3 74 2
3 83 3
3 84 3
4 7 1
4 8 1
4 10 2
4 18 2
4 19 3
4 30 1
4 32 3
4 41 1
4 51 2
4 53 2
4 63 3
4 74 3
4 75 2
4 84 3
4 85 3
5 8 1
5 9 1
5 11 2
5 19 2
5 20 3
5 31 1
5 33 3
5 42 1
5 52 2
5 54 2
5 64 3
5 75 3
5 76 2
5 85 3
5 86 3
6 9 1
6 10 1
6 12 2
6 20 2
6 21 3
6 32 1
6 34 3
6 43 1
6 53 2
6 55 2
6 65 3
6 76 3
6 77 2
6 86 3
6 87 3
7 10 1
7 11 1
7 13 2
7 21 2
7 22 3
7 33 1
7 35 3
7 44 1
7 54 2
7 56 2
7 66 3
7 77 3
7 78 2
7 87 3
7 88 3
8 1 3
8 11 1
8 12 1
8 14 2
8 22 2
8 23 1
8 34 1
8 36 3
8 45 3
8 55 2
8 57 2
8 67 3
8 78 3
8 79 2
8 88 3
9 1 2
9 2 3
9 12 1
9 13 1
9 15 2
9 24 1
9 35 1
9 37 3
9 46 3
9 56 2
9 58 2
9 67 3
9 68 3
9 79 3
9 80 2
10 2 2
10 3 3
10 13 1
10 14 1
10 16 2
10 25 1
10 36 1
10 38 3
10 47 3
10 57 2
10 59 2
10 68 3
10 69 3
10 80 3
10 81 2
11 3 2
11 4 3
11 14 1
11 15 1
11 17 2
11 26 1
11 37 1
11 39 3
11 48 3
11 58 2
11 60 2
11 69 3
11 70 3
11 81 3
11 82 2
12 4 2
12 5 3
12 15 1
12 16 1
12 18 2
12 27 1
12 38 1
12 40 3
12 49 3
12 59 2
12 61 2
12 70 3
12 71 3
12 82 3
12 83 2
13 5 2
13 6 3
13 16 1
13 17 1
13 19 2
13 28 1
13 39 1
13 41 3
13 50 3
13 60 2
13 62 2
13 71 3
13 72 3
13 83 3
13 84 2
14 6 2
14 7 3
14 17 1
14 18 1
14 20 2
14 29 1
14 40 1
14 42 3
14 51 3
14 61 2
14 63 2
14 72 3
14 73 3
14 84 3
14 85 2
15 7 2
15 8 3
15 18 1
15 19 1
15 21 2
15 30 1
15 41 1
15 43 3
15 52 3
15 62 2
15 64 2
15 73 3
15 74 3
15 85 3
15 86 2
16 8 2
16 9 3
16 19 1
16 20 1
16 22 2
16 31 1
16 42 1
16 44 3
16 53 3
16 63 2
16 65 2
16 74 3
16 75 3
16 86 3
16 87 2
17 1 2
17 9 2
17 10 3
17 20 1
17 21 1
17 23 3
17 32 1
17 43 1
17 54 3
17 64 2
17 66 2
17 75 3
17 76 3
17 87 3
17 88 2
18 2 2
18 10 2
18 11 3
18 21 1
18 22 1
18 24 3
18 33 1
18 44 1
18 45 2
18 55 3
18 65 2
18 67 2
18 76 3
18 77 3
18 88 3
19 1 1
19 3 2
19 11 2
19 12 3
19 22 1
19 23 1
19 25 3
19 34 1
19 46 2
19 56 3
19 66 2
19 67 3
19 68 2
19 77 3
19 78 3
20 1 1
20 2 1
20 4 2
20 12 2
20 13 3
20 24 1
20 26 3
20 35 1
20 45 2
20 47 2
20 57 3
20 68 3
20 69 2
20 78 3
20 79 3
21 2 1
21 3 1
21 5 2
21 13 2
21 14 3
21 25 1
21 27 3
21 36 1
21 46 2
21 48 2
21 58 3
21 69 3
21 70 2
21 79 3
21 80 3
22 3 1
22 4 1
22 6 2
22 14 2
22 15 3
22 26 1
22 28 3
22 37 1
22 47 2
22 49 2
22 59 3
22 70 3
22 71 2
22 80 3
22 81 3
23 5 2
23 7 3
23 8 1
23 19 1
23 20 1
23 50 1
23 52 2
23 60 1
23 62 1
23 63 3
23 72 1
23 73 3
23 82 2
23 84 1
23 85 1
23 86 2
23 115 3
23 117 2
23 126 3
24 6 2
24 8 3
24 9 1
24 20 1
24 21 1
24 51 1
24 53 2
24 61 1
24 63 1
24 64 3
24 73 1
24 74 3
24 83 2
24 85 1
24 86 1
24 87 2
24 116 3
24 118 2
24 127 3
25 7 2
25 9 3
25 10 1
25 21 1
25 22 1
25 52 1
25 54 2
25 62 1
25 64 1
25 65 3
25 74 1
25 75 3
25 84 2
25 86 1
25 87 1
25 88 2
25 117 3
25 119 2
25 128 3
26 1 1
26 8 2
26 10 3
26 11 1
26 22 1
26 53 1
26 55 2
26 63 1
26 65 1
26 66 3
26 67 2
26 75 1
26 76 3
26 85 2
26 87 1
26 88 1
26 118 3
26 120 2
26 129 3
27 1 1
27 2 1
27 9 2
27 11 3
27 12 1
27 45 3
27 54 1
27 56 2
27 64 1
27 66 1
27 67 1
27 68 2
27 76 1
27 77 3
27 86 2
27 88 1
27 119 3
27 121 2
27 130 3
28 2 1
28 3 1
28 10 2
28 12 3
28 13 1
28 45 1
28 46 3
28 55 1
28 57 2
28 65 1
28 67 1
28 68 1
28 69 2
28 77 1
28 78 3
28 87 2
28 120 3
28 122 2
28 131 3
29 3 1
29 4 1
29 11 2
29 13 3
29 14 1
29 46 1
29 47 3
29 56 1
29 58 2
29 66 1
29 68 1
29 69 1
29 70 2
29 78 1
29 79 3
29 88 2
29 121 3
29 123 2
29 132 3
30 4 1
30 5 1
30 12 2
30 14 3
30 15 1
30 45 1
30 47 1
30 48 3
30 57 1
30 59 2
30 67 2
30 69 1
30 70 1
30 71 2
30 79 1
30 80 3
30 111 3
30 122 3
30 124 2
31 5 1
31 6 1
31 13 2
31 15 3
31 16 1
31 46 1
31 48 1
31 49 3
31 58 1
31 60 2
31 68 2
31 70 1
31 71 1
31 72 2
31 80 1
31 81 3
31 112 3
31 123 3
31 125 2
32 6 1
32 7 1
32 14 2
32 16 3
32 17 1
32 47 1
32 49 1
32 50 3
32 59 1
32 61 2
32 69 2
32 71 1
32 72 1
32 73 2
32 81 1
32 82 3
32 113 3
32 124 3
32 126 2
33 7 1
33 8 1
33 15 2
33 17 3
33 18 1
33 48 1
33 50 1
33 51 3
33 60 1
33 62 2
33 70 2
33 72 1
33 73 1
33 74 2
33 82 1
33 83 3
33 114 3
33 125 3
33 127 2
34 8 1
34 9 1
34 16 2
34 18 3
34 19 1
34 49 1
34 51 1
34 52 3
34 61 1
34 63 2
34 71 2
34 73 1
34 74 1
34 75 2
34 83 1
34 84 3
34 115 3
34 126 3
34 128 2
35 9 1
35 10 1
35 17 2
35 19 3
35 20 1
35 50 1
35 52 1
35 53 3
35 62 1
35 64 2
35 72 2
35 74 1
35 75 1
35 76 2
35 84 1
35 85 3
35 116 3
35 127 3
35 129 2
36 10 1
36 11 1
36 18 2
36 20 3
36 21 1
36 51 1
36 53 1
36 54 3
36 63 1
36 65 2
36 73 2
36 75 1
36 76 1
36 77 2
36 85 1
36 86 3
36 117 3
36 128 3
36 130 2
37 11 1
37 12 1
37 19 2
37 21 3
37 22 1
37 52 1
37 54 1
37 55 3
37 64 1
37 66 2
37 74 2
37 76 1
37 77 1
37 78 2
37 86 1
37 87 3
37 118 3
37 129 3
37 131 2
38 1 1
38 12 1
38 13 1
38 20 2
38 22 3
38 45 2
38 53 1
38 55 1
38 56 3
38 65 1
38 75 2
38 77 1
38 78 1
38 79 2
38 87 1
38 88 3
38 119 3
38 130 3
38 132 2
39 1 3
39 2 1
39 13 1
39 14 1
39 21 2
39 46 2
39 54 1
39 56 1
39 57 3
39 66 1
39 67 3
39 76 2
39 78 1
39 79 1
39 80 2
39 88 1
39 111 2
39 120 3
39 131 3
40 2 3
40 3 1
40 14 1
40 15 1
40 22 2
40 45 1
40 47 2
40 55 1
40 57 1
40 58 3
40 67 1
40 68 3
40 77 2
40 79 1
40 80 1
40 81 2
40 112 2
40 121 3
40 132 3
41 1 2
41 3 3
41 4 1
41 15 1
41 16 1
41 46 1
41 48 2
41 56 1
41 58 1
41 59 3
41 68 1
41 69 3
41 78 2
41 80 1
41 81 1
41 82 2
41 111 3
41 113 2
41 122 3
42 2 2
42 4 3
42 5 1
42 16 1
42 17 1
42 47 1
42 49 2
42 57 1
42 59 1
42 60 3
42 69 1
42 70 3
42 79 2
42 81 1
42 82 1
42 83 2
42 112 3
42 114 2
42 123 3
43 3 2
43 5 3
43 6 1
43 17 1
43 18 1
43 48 1
43 50 2
43 58 1
43 60 1
43 61 3
43 70 1
43 71 3
43 80 2
43 82 1
43 83 1
43 84 2
43 113 3
43 115 2
43 124 3
44 4 2
44 6 3
44 7 1
44 18 1
44 19 1
44 49 1
44 51 2
44 59 1
44 61 1
44 62 3
44 71 1
44 72 3
44 81 2
44 83 1
44 84 1
44 85 2
44 114 3
44 116 2
44 125 3
