%%MatrixMarket matrix coordinate integer general
% Binary matrix over GF(2).
% Coordinate indices are 1-based; omitted entries are zero.
90 240 765
1 2 1
1 31 1
1 61 1
1 91 1
1 121 1
1 151 1
1 181 1
1 211 1
2 1 1
2 2 1
2 32 1
2 62 1
2 92 1
2 122 1
2 152 1
2 182 1
2 212 1
3 4 1
3 33 1
3 63 1
3 93 1
3 123 1
3 153 1
3 183 1
3 213 1
4 3 1
4 4 1
4 34 1
4 64 1
4 94 1
4 124 1
4 154 1
4 184 1
4 214 1
5 6 1
5 35 1
5 65 1
5 95 1
5 125 1
5 155 1
5 185 1
5 215 1
6 5 1
6 6 1
6 36 1
6 66 1
6 96 1
6 126 1
6 156 1
6 186 1
6 216 1
7 8 1
7 37 1
7 67 1
7 97 1
7 127 1
7 157 1
7 187 1
7 217 1
8 7 1
8 8 1
8 38 1
8 68 1
8 98 1
8 128 1
8 158 1
8 188 1
8 218 1
9 10 1
9 39 1
9 69 1
9 99 1
9 129 1
9 159 1
9 189 1
9 219 1
10 9 1
10 10 1
10 40 1
10 70 1
10 100 1
10 130 1
10 160 1
10 190 1
10 220 1
11 12 1
11 41 1
11 71 1
11 101 1
11 131 1
11 161 1
11 191 1
11 221 1
12 11 1
12 12 1
12 42 1
12 72 1
12 102 1
12 132 1
12 162 1
12 192 1
12 222 1
13 14 1
13 43 1
13 73 1
13 103 1
13 133 1
13 163 1
13 193 1
13 223 1
14 13 1
14 14 1
14 44 1
14 74 1
14 104 1
14 134 1
14 164 1
14 194 1
14 224 1
15 16 1
15 45 1
15 75 1
15 105 1
15 135 1
15 165 1
15 195 1
15 225 1
16 15 1
16 16 1
16 46 1
16 76 1
16 106 1
16 136 1
16 166 1
16 196 1
16 226 1
17 18 1
17 47 1
17 77 1
17 107 1
17 137 1
17 167 1
17 197 1
17 227 1
18 17 1
18 18 1
18 48 1
18 78 1
18 108 1
18 138 1
18 168 1
18 198 1
18 228 1
19 20 1
19 49 1
19 79 1
19 109 1
19 139 1
19 169 1
19 199 1
19 229 1
20 19 1
20 20 1
20 50 1
20 80 1
20 110 1
20 140 1
20 170 1
20 200 1
20 230 1
21 22 1
21 51 1
21 81 1
21 111 1
21 141 1
21 171 1
21 201 1
21 231 1
22 21 1
22 22 1
22 52 1
22 82 1
22 112 1
22 142 1
22 172 1
22 202 1
22 232 1
23 24 1
23 53 1
23 83 1
23 113 1
23 143 1
23 173 1
23 203 1
23 233 1
24 23 1
24 24 1
24 54 1
24 84 1
24 114 1
24 144 1
24 174 1
24 204 1
24 234 1
25 26 1
25 55 1
25 85 1
25 115 1
25 145 1
25 175 1
25 205 1
25 235 1
26 25 1
26 26 1
26 56 1
26 86 1
26 116 1
26 146 1
26 176 1
26 206 1
26 236 1
27 28 1
27 57 1
27 87 1
27 117 1
27 147 1
27 177 1
27 207 1
27 237 1
28 27 1
28 28 1
28 58 1
28 88 1
28 118 1
28 148 1
28 178 1
28 208 1
28 238 1
29 30 1
29 59 1
29 89 1
29 119 1
29 149 1
29 179 1
29 209 1
29 239 1
30 29 1
30 30 1
30 60 1
30 90 1
30 120 1
30 150 1
30 180 1
30 210 1
30 240 1
31 1 1
31 42 1
31 89 1
31 95 1
31 127 1
31 159 1
31 205 1
31 225 1
32 2 1
32 41 1
32 42 1
32 90 1
32 96 1
32 128 1
32 160 1
32 206 1
32 226 1
33 3 1
33 44 1
33 61 1
33 97 1
33 129 1
33 161 1
33 207 1
33 227 1
34 4 1
34 43 1
34 44 1
34 62 1
34 98 1
34 130 1
34 162 1
34 208 1
34 228 1
35 5 1
35 46 1
35 63 1
35 99 1
35 131 1
35 163 1
35 209 1
35 229 1
36 6 1
36 45 1
36 46 1
36 64 1
36 100 1
36 132 1
36 164 1
36 210 1
36 230 1
37 7 1
37 48 1
37 65 1
37 101 1
37 133 1
37 165 1
37 181 1
37 231 1
38 8 1
38 47 1
38 48 1
38 66 1
38 102 1
38 134 1
38 166 1
38 182 1
38 232 1
39 9 1
39 50 1
39 67 1
39 103 1
39 135 1
39 167 1
39 183 1
39 233 1
40 10 1
40 49 1
40 50 1
40 68 1
40 104 1
40 136 1
40 168 1
40 184 1
40 234 1
41 11 1
41 52 1
41 69 1
41 105 1
41 137 1
41 169 1
41 185 1
41 235 1
42 12 1
42 51 1
42 52 1
42 70 1
42 106 1
42 138 1
42 170 1
42 186 1
42 236 1
43 13 1
43 54 1
43 71 1
43 107 1
43 139 1
43 171 1
43 187 1
43 237 1
44 14 1
44 53 1
44 54 1
44 72 1
44 108 1
44 140 1
44 172 1
44 188 1
44 238 1
45 15 1
45 56 1
45 73 1
45 109 1
45 141 1
45 173 1
45 189 1
45 239 1
46 16 1
46 55 1
46 56 1
46 74 1
46 110 1
46 142 1
46 174 1
46 190 1
46 240 1
47 17 1
47 58 1
47 75 1
47 111 1
47 143 1
47 175 1
47 191 1
47 211 1
48 18 1
48 57 1
48 58 1
48 76 1
48 112 1
48 144 1
48 176 1
48 192 1
48 212 1
49 19 1
49 60 1
49 77 1
49 113 1
49 145 1
49 177 1
49 193 1
49 213 1
50 20 1
50 59 1
50 60 1
50 78 1
50 114 1
50 146 1
50 178 1
50 194 1
50 214 1
51 21 1
51 32 1
51 79 1
51 115 1
51 147 1
51 179 1
51 195 1
51 215 1
52 22 1
52 31 1
52 32 1
52 80 1
52 116 1
52 148 1
52 180 1
52 196 1
52 216 1
53 23 1
53 34 1
53 81 1
53 117 1
53 149 1
53 151 1
53 197 1
53 217 1
54 24 1
54 33 1
54 34 1
54 82 1
54 118 1
54 150 1
54 152 1
54 198 1
54 218 1
55 25 1
55 36 1
55 83 1
55 119 1
55 121 1
55 153 1
55 199 1
55 219 1
56 26 1
56 35 1
56 36 1
56 84 1
56 120 1
56 122 1
56 154 1
56 200 1
56 220 1
57 27 1
57 38 1
57 85 1
57 91 1
57 123 1
57 155 1
57 201 1
57 221 1
58 28 1
58 37 1
58 38 1
58 86 1
58 92 1
58 124 1
58 156 1
58 202 1
58 222 1
59 29 1
59 40 1
59 87 1
59 93 1
59 125 1
59 157 1
59 203 1
59 223 1
60 30 1
60 39 1
60 40 1
60 88 1
60 94 1
60 126 1
60 158 1
60 204 1
60 224 1
61 1 1
61 47 1
61 86 1
61 105 1
61 141 1
61 179 1
61 187 1
61 219 1
62 2 1
62 48 1
62 85 1
62 86 1
62 106 1
62 142 1
62 180 1
62 188 1
62 220 1
63 3 1
63 49 1
63 88 1
63 107 1
63 143 1
63 151 1
63 189 1
63 221 1
64 4 1
64 50 1
64 87 1
64 88 1
64 108 1
64 144 1
64 152 1
64 190 1
64 222 1
65 5 1
65 51 1
65 90 1
65 109 1
65 145 1
65 153 1
65 191 1
65 223 1
66 6 1
66 52 1
66 89 1
66 90 1
66 110 1
66 146 1
66 154 1
66 192 1
66 224 1
67 7 1
67 53 1
67 62 1
67 111 1
67 147 1
67 155 1
67 193 1
67 225 1
68 8 1
68 54 1
68 61 1
68 62 1
68 112 1
68 148 1
68 156 1
68 194 1
68 226 1
69 9 1
69 55 1
69 64 1
69 113 1
69 149 1
69 157 1
69 195 1
69 227 1
70 10 1
70 56 1
70 63 1
70 64 1
70 114 1
70 150 1
70 158 1
70 196 1
70 228 1
71 11 1
71 57 1
71 66 1
71 115 1
71 121 1
71 159 1
71 197 1
71 229 1
72 12 1
72 58 1
72 65 1
72 66 1
72 116 1
72 122 1
72 160 1
72 198 1
72 230 1
73 13 1
73 59 1
73 68 1
73 117 1
73 123 1
73 161 1
73 199 1
73 231 1
74 14 1
74 60 1
74 67 1
74 68 1
74 118 1
74 124 1
74 162 1
74 200 1
74 232 1
75 15 1
75 31 1
75 70 1
75 119 1
75 125 1
75 163 1
75 201 1
75 233 1
76 16 1
76 32 1
76 69 1
76 70 1
76 120 1
76 126 1
76 164 1
76 202 1
76 234 1
77 17 1
77 33 1
77 72 1
77 91 1
77 127 1
77 165 1
77 203 1
77 235 1
78 18 1
78 34 1
78 71 1
78 72 1
78 92 1
78 128 1
78 166 1
78 204 1
78 236 1
79 19 1
79 35 1
79 74 1
79 93 1
79 129 1
79 167 1
79 205 1
79 237 1
80 20 1
80 36 1
80 73 1
80 74 1
80 94 1
80 130 1
80 168 1
80 206 1
80 238 1
81 21 1
81 37 1
81 76 1
81 95 1
81 131 1
81 169 1
81 207 1
81 239 1
82 22 1
82 38 1
82 75 1
82 76 1
82 96 1
82 132 1
82 170 1
82 208 1
82 240 1
83 23 1
83 39 1
83 78 1
83 97 1
83 133 1
83 171 1
83 209 1
83 211 1
84 24 1
84 40 1
84 77 1
84 78 1
84 98 1
84 134 1
84 172 1
84 210 1
84 212 1
85 25 1
85 41 1
85 80 1
85 99 1
85 135 1
85 173 1
85 181 1
85 213 1
86 26 1
86 42 1
86 79 1
86 80 1
86 100 1
86 136 1
86 174 1
86 182 1
86 214 1
87 27 1
87 43 1
87 82 1
87 101 1
87 137 1
87 175 1
87 183 1
87 215 1
88 28 1
88 44 1
88 81 1
88 82 1
88 102 1
88 138 1
88 176 1
88 184 1
88 216 1
89 29 1
89 45 1
89 84 1
89 103 1
89 139 1
89 177 1
89 185 1
89 217 1
90 30 1
90 46 1
90 83 1
90 84 1
90 104 1
90 140 1
90 178 1
90 186 1
90 218 1
