%%MatrixMarket matrix coordinate integer general
% GF(4) labels 0,1,2=omega,3=omega+1; arithmetic is NOT integer arithmetic.
% Coordinate indices are 1-based; omitted entries are zero.
45 120 360
1 1 2
1 16 1
1 31 1
1 46 1
1 61 1
1 76 1
1 91 1
1 106 1
2 2 2
2 17 1
2 32 1
2 47 1
2 62 1
2 77 1
2 92 1
2 107 1
3 3 2
3 18 1
3 33 1
3 48 1
3 63 1
3 78 1
3 93 1
3 108 1
4 4 2
4 19 1
4 34 1
4 49 1
4 64 1
4 79 1
4 94 1
4 109 1
5 5 2
5 20 1
5 35 1
5 50 1
5 65 1
5 80 1
5 95 1
5 110 1
6 6 2
6 21 1
6 36 1
6 51 1
6 66 1
6 81 1
6 96 1
6 111 1
7 7 2
7 22 1
7 37 1
7 52 1
7 67 1
7 82 1
7 97 1
7 112 1
8 8 2
8 23 1
8 38 1
8 53 1
8 68 1
8 83 1
8 98 1
8 113 1
9 9 2
9 24 1
9 39 1
9 54 1
9 69 1
9 84 1
9 99 1
9 114 1
10 10 2
10 25 1
10 40 1
10 55 1
10 70 1
10 85 1
10 100 1
10 115 1
11 11 2
11 26 1
11 41 1
11 56 1
11 71 1
11 86 1
11 101 1
11 116 1
12 12 2
12 27 1
12 42 1
12 57 1
12 72 1
12 87 1
12 102 1
12 117 1
13 13 2
13 28 1
13 43 1
13 58 1
13 73 1
13 88 1
13 103 1
13 118 1
14 14 2
14 29 1
14 44 1
14 59 1
14 74 1
14 89 1
14 104 1
14 119 1
15 15 2
15 30 1
15 45 1
15 60 1
15 75 1
15 90 1
15 105 1
15 120 1
16 1 1
16 21 2
16 45 1
16 48 1
16 64 1
16 80 1
16 103 1
16 113 1
17 2 1
17 22 2
17 31 1
17 49 1
17 65 1
17 81 1
17 104 1
17 114 1
18 3 1
18 23 2
18 32 1
18 50 1
18 66 1
18 82 1
18 105 1
18 115 1
19 4 1
19 24 2
19 33 1
19 51 1
19 67 1
19 83 1
19 91 1
19 116 1
20 5 1
20 25 2
20 34 1
20 52 1
20 68 1
20 84 1
20 92 1
20 117 1
21 6 1
21 26 2
21 35 1
21 53 1
21 69 1
21 85 1
21 93 1
21 118 1
22 7 1
22 27 2
22 36 1
22 54 1
22 70 1
22 86 1
22 94 1
22 119 1
23 8 1
23 28 2
23 37 1
23 55 1
23 71 1
23 87 1
23 95 1
23 120 1
24 9 1
24 29 2
24 38 1
24 56 1
24 72 1
24 88 1
24 96 1
24 106 1
25 10 1
25 30 2
25 39 1
25 57 1
25 73 1
25 89 1
25 97 1
25 107 1
26 11 1
26 16 2
26 40 1
26 58 1
26 74 1
26 90 1
26 98 1
26 108 1
27 12 1
27 17 2
27 41 1
27 59 1
27 75 1
27 76 1
27 99 1
27 109 1
28 13 1
28 18 2
28 42 1
28 60 1
28 61 1
28 77 1
28 100 1
28 110 1
29 14 1
29 19 2
29 43 1
29 46 1
29 62 1
29 78 1
29 101 1
29 111 1
30 15 1
30 20 2
30 44 1
30 47 1
30 63 1
30 79 1
30 102 1
30 112 1
31 1 1
31 24 1
31 43 2
31 53 1
31 71 1
31 90 1
31 94 1
31 110 1
32 2 1
32 25 1
32 44 2
32 54 1
32 72 1
32 76 1
32 95 1
32 111 1
33 3 1
33 26 1
33 45 2
33 55 1
33 73 1
33 77 1
33 96 1
33 112 1
34 4 1
34 27 1
34 31 2
34 56 1
34 74 1
34 78 1
34 97 1
34 113 1
35 5 1
35 28 1
35 32 2
35 57 1
35 75 1
35 79 1
35 98 1
35 114 1
36 6 1
36 29 1
36 33 2
36 58 1
36 61 1
36 80 1
36 99 1
36 115 1
37 7 1
37 30 1
37 34 2
37 59 1
37 62 1
37 81 1
37 100 1
37 116 1
38 8 1
38 16 1
38 35 2
38 60 1
38 63 1
38 82 1
38 101 1
38 117 1
39 9 1
39 17 1
39 36 2
39 46 1
39 64 1
39 83 1
39 102 1
39 118 1
40 10 1
40 18 1
40 37 2
40 47 1
40 65 1
40 84 1
40 103 1
40 119 1
41 11 1
41 19 1
41 38 2
41 48 1
41 66 1
41 85 1
41 104 1
41 120 1
42 12 1
42 20 1
42 39 2
42 49 1
42 67 1
42 86 1
42 105 1
42 106 1
43 13 1
43 21 1
43 40 2
43 50 1
43 68 1
43 87 1
43 91 1
43 107 1
44 14 1
44 22 1
44 41 2
44 51 1
44 69 1
44 88 1
44 92 1
44 108 1
45 15 1
45 23 1
45 42 2
45 52 1
45 70 1
45 89 1
45 93 1
45 109 1
