%%MatrixMarket matrix coordinate integer general
% Binary matrix over GF(2).
% Coordinate indices are 1-based; omitted entries are zero.
90 240 765
1 1 1
1 35 1
1 65 1
1 105 1
1 122 1
1 165 1
1 205 1
1 235 1
2 2 1
2 36 1
2 66 1
2 106 1
2 121 1
2 122 1
2 166 1
2 206 1
2 236 1
3 3 1
3 37 1
3 67 1
3 107 1
3 124 1
3 167 1
3 207 1
3 237 1
4 4 1
4 38 1
4 68 1
4 108 1
4 123 1
4 124 1
4 168 1
4 208 1
4 238 1
5 5 1
5 39 1
5 69 1
5 109 1
5 126 1
5 169 1
5 209 1
5 239 1
6 6 1
6 40 1
6 70 1
6 110 1
6 125 1
6 126 1
6 170 1
6 210 1
6 240 1
7 7 1
7 41 1
7 71 1
7 111 1
7 128 1
7 171 1
7 181 1
7 211 1
8 8 1
8 42 1
8 72 1
8 112 1
8 127 1
8 128 1
8 172 1
8 182 1
8 212 1
9 9 1
9 43 1
9 73 1
9 113 1
9 130 1
9 173 1
9 183 1
9 213 1
10 10 1
10 44 1
10 74 1
10 114 1
10 129 1
10 130 1
10 174 1
10 184 1
10 214 1
11 11 1
11 45 1
11 75 1
11 115 1
11 132 1
11 175 1
11 185 1
11 215 1
12 12 1
12 46 1
12 76 1
12 116 1
12 131 1
12 132 1
12 176 1
12 186 1
12 216 1
13 13 1
13 47 1
13 77 1
13 117 1
13 134 1
13 177 1
13 187 1
13 217 1
14 14 1
14 48 1
14 78 1
14 118 1
14 133 1
14 134 1
14 178 1
14 188 1
14 218 1
15 15 1
15 49 1
15 79 1
15 119 1
15 136 1
15 179 1
15 189 1
15 219 1
16 16 1
16 50 1
16 80 1
16 120 1
16 135 1
16 136 1
16 180 1
16 190 1
16 220 1
17 17 1
17 51 1
17 81 1
17 91 1
17 138 1
17 151 1
17 191 1
17 221 1
18 18 1
18 52 1
18 82 1
18 92 1
18 137 1
18 138 1
18 152 1
18 192 1
18 222 1
19 19 1
19 53 1
19 83 1
19 93 1
19 140 1
19 153 1
19 193 1
19 223 1
20 20 1
20 54 1
20 84 1
20 94 1
20 139 1
20 140 1
20 154 1
20 194 1
20 224 1
21 21 1
21 55 1
21 85 1
21 95 1
21 142 1
21 155 1
21 195 1
21 225 1
22 22 1
22 56 1
22 86 1
22 96 1
22 141 1
22 142 1
22 156 1
22 196 1
22 226 1
23 23 1
23 57 1
23 87 1
23 97 1
23 144 1
23 157 1
23 197 1
23 227 1
24 24 1
24 58 1
24 88 1
24 98 1
24 143 1
24 144 1
24 158 1
24 198 1
24 228 1
25 25 1
25 59 1
25 89 1
25 99 1
25 146 1
25 159 1
25 199 1
25 229 1
26 26 1
26 60 1
26 90 1
26 100 1
26 145 1
26 146 1
26 160 1
26 200 1
26 230 1
27 27 1
27 31 1
27 61 1
27 101 1
27 148 1
27 161 1
27 201 1
27 231 1
28 28 1
28 32 1
28 62 1
28 102 1
28 147 1
28 148 1
28 162 1
28 202 1
28 232 1
29 29 1
29 33 1
29 63 1
29 103 1
29 150 1
29 163 1
29 203 1
29 233 1
30 30 1
30 34 1
30 64 1
30 104 1
30 149 1
30 150 1
30 164 1
30 204 1
30 234 1
31 1 1
31 33 1
31 87 1
31 93 1
31 127 1
31 152 1
31 187 1
31 237 1
32 2 1
32 34 1
32 88 1
32 94 1
32 128 1
32 151 1
32 152 1
32 188 1
32 238 1
33 3 1
33 35 1
33 89 1
33 95 1
33 129 1
33 154 1
33 189 1
33 239 1
34 4 1
34 36 1
34 90 1
34 96 1
34 130 1
34 153 1
34 154 1
34 190 1
34 240 1
35 5 1
35 37 1
35 61 1
35 97 1
35 131 1
35 156 1
35 191 1
35 211 1
36 6 1
36 38 1
36 62 1
36 98 1
36 132 1
36 155 1
36 156 1
36 192 1
36 212 1
37 7 1
37 39 1
37 63 1
37 99 1
37 133 1
37 158 1
37 193 1
37 213 1
38 8 1
38 40 1
38 64 1
38 100 1
38 134 1
38 157 1
38 158 1
38 194 1
38 214 1
39 9 1
39 41 1
39 65 1
39 101 1
39 135 1
39 160 1
39 195 1
39 215 1
40 10 1
40 42 1
40 66 1
40 102 1
40 136 1
40 159 1
40 160 1
40 196 1
40 216 1
41 11 1
41 43 1
41 67 1
41 103 1
41 137 1
41 162 1
41 197 1
41 217 1
42 12 1
42 44 1
42 68 1
42 104 1
42 138 1
42 161 1
42 162 1
42 198 1
42 218 1
43 13 1
43 45 1
43 69 1
43 105 1
43 139 1
43 164 1
43 199 1
43 219 1
44 14 1
44 46 1
44 70 1
44 106 1
44 140 1
44 163 1
44 164 1
44 200 1
44 220 1
45 15 1
45 47 1
45 71 1
45 107 1
45 141 1
45 166 1
45 201 1
45 221 1
46 16 1
46 48 1
46 72 1
46 108 1
46 142 1
46 165 1
46 166 1
46 202 1
46 222 1
47 17 1
47 49 1
47 73 1
47 109 1
47 143 1
47 168 1
47 203 1
47 223 1
48 18 1
48 50 1
48 74 1
48 110 1
48 144 1
48 167 1
48 168 1
48 204 1
48 224 1
49 19 1
49 51 1
49 75 1
49 111 1
49 145 1
49 170 1
49 205 1
49 225 1
50 20 1
50 52 1
50 76 1
50 112 1
50 146 1
50 169 1
50 170 1
50 206 1
50 226 1
51 21 1
51 53 1
51 77 1
51 113 1
51 147 1
51 172 1
51 207 1
51 227 1
52 22 1
52 54 1
52 78 1
52 114 1
52 148 1
52 171 1
52 172 1
52 208 1
52 228 1
53 23 1
53 55 1
53 79 1
53 115 1
53 149 1
53 174 1
53 209 1
53 229 1
54 24 1
54 56 1
54 80 1
54 116 1
54 150 1
54 173 1
54 174 1
54 210 1
54 230 1
55 25 1
55 57 1
55 81 1
55 117 1
55 121 1
55 176 1
55 181 1
55 231 1
56 26 1
56 58 1
56 82 1
56 118 1
56 122 1
56 175 1
56 176 1
56 182 1
56 232 1
57 27 1
57 59 1
57 83 1
57 119 1
57 123 1
57 178 1
57 183 1
57 233 1
58 28 1
58 60 1
58 84 1
58 120 1
58 124 1
58 177 1
58 178 1
58 184 1
58 234 1
59 29 1
59 31 1
59 85 1
59 91 1
59 125 1
59 180 1
59 185 1
59 235 1
60 30 1
60 32 1
60 86 1
60 92 1
60 126 1
60 179 1
60 180 1
60 186 1
60 236 1
61 1 1
61 47 1
61 79 1
61 95 1
61 137 1
61 169 1
61 182 1
61 215 1
62 2 1
62 48 1
62 80 1
62 96 1
62 138 1
62 170 1
62 181 1
62 182 1
62 216 1
63 3 1
63 49 1
63 81 1
63 97 1
63 139 1
63 171 1
63 184 1
63 217 1
64 4 1
64 50 1
64 82 1
64 98 1
64 140 1
64 172 1
64 183 1
64 184 1
64 218 1
65 5 1
65 51 1
65 83 1
65 99 1
65 141 1
65 173 1
65 186 1
65 219 1
66 6 1
66 52 1
66 84 1
66 100 1
66 142 1
66 174 1
66 185 1
66 186 1
66 220 1
67 7 1
67 53 1
67 85 1
67 101 1
67 143 1
67 175 1
67 188 1
67 221 1
68 8 1
68 54 1
68 86 1
68 102 1
68 144 1
68 176 1
68 187 1
68 188 1
68 222 1
69 9 1
69 55 1
69 87 1
69 103 1
69 145 1
69 177 1
69 190 1
69 223 1
70 10 1
70 56 1
70 88 1
70 104 1
70 146 1
70 178 1
70 189 1
70 190 1
70 224 1
71 11 1
71 57 1
71 89 1
71 105 1
71 147 1
71 179 1
71 192 1
71 225 1
72 12 1
72 58 1
72 90 1
72 106 1
72 148 1
72 180 1
72 191 1
72 192 1
72 226 1
73 13 1
73 59 1
73 61 1
73 107 1
73 149 1
73 151 1
73 194 1
73 227 1
74 14 1
74 60 1
74 62 1
74 108 1
74 150 1
74 152 1
74 193 1
74 194 1
74 228 1
75 15 1
75 31 1
75 63 1
75 109 1
75 121 1
75 153 1
75 196 1
75 229 1
76 16 1
76 32 1
76 64 1
76 110 1
76 122 1
76 154 1
76 195 1
76 196 1
76 230 1
77 17 1
77 33 1
77 65 1
77 111 1
77 123 1
77 155 1
77 198 1
77 231 1
78 18 1
78 34 1
78 66 1
78 112 1
78 124 1
78 156 1
78 197 1
78 198 1
78 232 1
79 19 1
79 35 1
79 67 1
79 113 1
79 125 1
79 157 1
79 200 1
79 233 1
80 20 1
80 36 1
80 68 1
80 114 1
80 126 1
80 158 1
80 199 1
80 200 1
80 234 1
81 21 1
81 37 1
81 69 1
81 115 1
81 127 1
81 159 1
81 202 1
81 235 1
82 22 1
82 38 1
82 70 1
82 116 1
82 128 1
82 160 1
82 201 1
82 202 1
82 236 1
83 23 1
83 39 1
83 71 1
83 117 1
83 129 1
83 161 1
83 204 1
83 237 1
84 24 1
84 40 1
84 72 1
84 118 1
84 130 1
84 162 1
84 203 1
84 204 1
84 238 1
85 25 1
85 41 1
85 73 1
85 119 1
85 131 1
85 163 1
85 206 1
85 239 1
86 26 1
86 42 1
86 74 1
86 120 1
86 132 1
86 164 1
86 205 1
86 206 1
86 240 1
87 27 1
87 43 1
87 75 1
87 91 1
87 133 1
87 165 1
87 208 1
87 211 1
88 28 1
88 44 1
88 76 1
88 92 1
88 134 1
88 166 1
88 207 1
88 208 1
88 212 1
89 29 1
89 45 1
89 77 1
89 93 1
89 135 1
89 167 1
89 210 1
89 213 1
90 30 1
90 46 1
90 78 1
90 94 1
90 136 1
90 168 1
90 209 1
90 210 1
90 214 1
