%%MatrixMarket matrix coordinate integer general
% GF(4) labels 0,1,2=omega,3=omega+1; arithmetic is NOT integer arithmetic.
% Coordinate indices are 1-based; omitted entries are zero.
45 120 360
1 1 1
1 18 1
1 33 1
1 53 1
1 61 2
1 83 1
1 103 1
1 118 1
2 2 1
2 19 1
2 34 1
2 54 1
2 62 2
2 84 1
2 104 1
2 119 1
3 3 1
3 20 1
3 35 1
3 55 1
3 63 2
3 85 1
3 105 1
3 120 1
4 4 1
4 21 1
4 36 1
4 56 1
4 64 2
4 86 1
4 91 1
4 106 1
5 5 1
5 22 1
5 37 1
5 57 1
5 65 2
5 87 1
5 92 1
5 107 1
6 6 1
6 23 1
6 38 1
6 58 1
6 66 2
6 88 1
6 93 1
6 108 1
7 7 1
7 24 1
7 39 1
7 59 1
7 67 2
7 89 1
7 94 1
7 109 1
8 8 1
8 25 1
8 40 1
8 60 1
8 68 2
8 90 1
8 95 1
8 110 1
9 9 1
9 26 1
9 41 1
9 46 1
9 69 2
9 76 1
9 96 1
9 111 1
10 10 1
10 27 1
10 42 1
10 47 1
10 70 2
10 77 1
10 97 1
10 112 1
11 11 1
11 28 1
11 43 1
11 48 1
11 71 2
11 78 1
11 98 1
11 113 1
12 12 1
12 29 1
12 44 1
12 49 1
12 72 2
12 79 1
12 99 1
12 114 1
13 13 1
13 30 1
13 45 1
13 50 1
13 73 2
13 80 1
13 100 1
13 115 1
14 14 1
14 16 1
14 31 1
14 51 1
14 74 2
14 81 1
14 101 1
14 116 1
15 15 1
15 17 1
15 32 1
15 52 1
15 75 2
15 82 1
15 102 1
15 117 1
16 1 1
16 17 1
16 44 1
16 47 1
16 64 1
16 76 2
16 94 1
16 119 1
17 2 1
17 18 1
17 45 1
17 48 1
17 65 1
17 77 2
17 95 1
17 120 1
18 3 1
18 19 1
18 31 1
18 49 1
18 66 1
18 78 2
18 96 1
18 106 1
19 4 1
19 20 1
19 32 1
19 50 1
19 67 1
19 79 2
19 97 1
19 107 1
20 5 1
20 21 1
20 33 1
20 51 1
20 68 1
20 80 2
20 98 1
20 108 1
21 6 1
21 22 1
21 34 1
21 52 1
21 69 1
21 81 2
21 99 1
21 109 1
22 7 1
22 23 1
22 35 1
22 53 1
22 70 1
22 82 2
22 100 1
22 110 1
23 8 1
23 24 1
23 36 1
23 54 1
23 71 1
23 83 2
23 101 1
23 111 1
24 9 1
24 25 1
24 37 1
24 55 1
24 72 1
24 84 2
24 102 1
24 112 1
25 10 1
25 26 1
25 38 1
25 56 1
25 73 1
25 85 2
25 103 1
25 113 1
26 11 1
26 27 1
26 39 1
26 57 1
26 74 1
26 86 2
26 104 1
26 114 1
27 12 1
27 28 1
27 40 1
27 58 1
27 75 1
27 87 2
27 105 1
27 115 1
28 13 1
28 29 1
28 41 1
28 59 1
28 61 1
28 88 2
28 91 1
28 116 1
29 14 1
29 30 1
29 42 1
29 60 1
29 62 1
29 89 2
29 92 1
29 117 1
30 15 1
30 16 1
30 43 1
30 46 1
30 63 1
30 90 2
30 93 1
30 118 1
31 1 1
31 24 1
31 40 1
31 48 1
31 69 1
31 85 1
31 91 2
31 108 1
32 2 1
32 25 1
32 41 1
32 49 1
32 70 1
32 86 1
32 92 2
32 109 1
33 3 1
33 26 1
33 42 1
33 50 1
33 71 1
33 87 1
33 93 2
33 110 1
34 4 1
34 27 1
34 43 1
34 51 1
34 72 1
34 88 1
34 94 2
34 111 1
35 5 1
35 28 1
35 44 1
35 52 1
35 73 1
35 89 1
35 95 2
35 112 1
36 6 1
36 29 1
36 45 1
36 53 1
36 74 1
36 90 1
36 96 2
36 113 1
37 7 1
37 30 1
37 31 1
37 54 1
37 75 1
37 76 1
37 97 2
37 114 1
38 8 1
38 16 1
38 32 1
38 55 1
38 61 1
38 77 1
38 98 2
38 115 1
39 9 1
39 17 1
39 33 1
39 56 1
39 62 1
39 78 1
39 99 2
39 116 1
40 10 1
40 18 1
40 34 1
40 57 1
40 63 1
40 79 1
40 100 2
40 117 1
41 11 1
41 19 1
41 35 1
41 58 1
41 64 1
41 80 1
41 101 2
41 118 1
42 12 1
42 20 1
42 36 1
42 59 1
42 65 1
42 81 1
42 102 2
42 119 1
43 13 1
43 21 1
43 37 1
43 60 1
43 66 1
43 82 1
43 103 2
43 120 1
44 14 1
44 22 1
44 38 1
44 46 1
44 67 1
44 83 1
44 104 2
44 106 1
45 15 1
45 23 1
45 39 1
45 47 1
45 68 1
45 84 1
45 105 2
45 107 1
