%%MatrixMarket matrix coordinate integer general
% Binary matrix over GF(2).
% Coordinate indices are 1-based; omitted entries are zero.
60 240 1950
1 1 1
1 10 1
1 29 1
1 91 1
1 93 1
1 94 1
1 95 1
1 96 1
1 97 1
1 105 1
1 106 1
1 107 1
1 117 1
1 121 1
1 123 1
1 124 1
1 125 1
1 129 1
1 134 1
1 136 1
1 139 1
1 151 1
1 153 1
1 155 1
1 156 1
1 157 1
1 163 1
1 165 1
1 166 1
1 170 1
1 178 1
1 179 1
1 180 1
1 205 1
1 206 1
2 1 1
2 3 1
2 12 1
2 93 1
2 95 1
2 96 1
2 97 1
2 98 1
2 99 1
2 107 1
2 108 1
2 109 1
2 119 1
2 123 1
2 125 1
2 126 1
2 127 1
2 131 1
2 136 1
2 138 1
2 141 1
2 151 1
2 152 1
2 153 1
2 155 1
2 157 1
2 158 1
2 159 1
2 165 1
2 167 1
2 168 1
2 172 1
2 180 1
2 207 1
2 208 1
3 3 1
3 5 1
3 14 1
3 91 1
3 95 1
3 97 1
3 98 1
3 99 1
3 100 1
3 101 1
3 109 1
3 110 1
3 111 1
3 125 1
3 127 1
3 128 1
3 129 1
3 133 1
3 138 1
3 140 1
3 143 1
3 152 1
3 153 1
3 154 1
3 155 1
3 157 1
3 159 1
3 160 1
3 161 1
3 167 1
3 169 1
3 170 1
3 174 1
3 209 1
3 210 1
4 5 1
4 7 1
4 16 1
4 93 1
4 97 1
4 99 1
4 100 1
4 101 1
4 102 1
4 103 1
4 111 1
4 112 1
4 113 1
4 127 1
4 129 1
4 130 1
4 131 1
4 135 1
4 140 1
4 142 1
4 145 1
4 154 1
4 155 1
4 156 1
4 157 1
4 159 1
4 161 1
4 162 1
4 163 1
4 169 1
4 171 1
4 172 1
4 176 1
4 181 1
4 182 1
5 7 1
5 9 1
5 18 1
5 95 1
5 99 1
5 101 1
5 102 1
5 103 1
5 104 1
5 105 1
5 113 1
5 114 1
5 115 1
5 129 1
5 131 1
5 132 1
5 133 1
5 137 1
5 142 1
5 144 1
5 147 1
5 156 1
5 157 1
5 158 1
5 159 1
5 161 1
5 163 1
5 164 1
5 165 1
5 171 1
5 173 1
5 174 1
5 178 1
5 183 1
5 184 1
6 9 1
6 11 1
6 20 1
6 97 1
6 101 1
6 103 1
6 104 1
6 105 1
6 106 1
6 107 1
6 115 1
6 116 1
6 117 1
6 131 1
6 133 1
6 134 1
6 135 1
6 139 1
6 144 1
6 146 1
6 149 1
6 158 1
6 159 1
6 160 1
6 161 1
6 163 1
6 165 1
6 166 1
6 167 1
6 173 1
6 175 1
6 176 1
6 180 1
6 185 1
6 186 1
7 11 1
7 13 1
7 22 1
7 99 1
7 103 1
7 105 1
7 106 1
7 107 1
7 108 1
7 109 1
7 117 1
7 118 1
7 119 1
7 121 1
7 133 1
7 135 1
7 136 1
7 137 1
7 141 1
7 146 1
7 148 1
7 152 1
7 160 1
7 161 1
7 162 1
7 163 1
7 165 1
7 167 1
7 168 1
7 169 1
7 175 1
7 177 1
7 178 1
7 187 1
7 188 1
8 13 1
8 15 1
8 24 1
8 91 1
8 101 1
8 105 1
8 107 1
8 108 1
8 109 1
8 110 1
8 111 1
8 119 1
8 120 1
8 123 1
8 135 1
8 137 1
8 138 1
8 139 1
8 143 1
8 148 1
8 150 1
8 154 1
8 162 1
8 163 1
8 164 1
8 165 1
8 167 1
8 169 1
8 170 1
8 171 1
8 177 1
8 179 1
8 180 1
8 189 1
8 190 1
9 15 1
9 17 1
9 26 1
9 91 1
9 92 1
9 93 1
9 103 1
9 107 1
9 109 1
9 110 1
9 111 1
9 112 1
9 113 1
9 122 1
9 125 1
9 137 1
9 139 1
9 140 1
9 141 1
9 145 1
9 150 1
9 151 1
9 152 1
9 156 1
9 164 1
9 165 1
9 166 1
9 167 1
9 169 1
9 171 1
9 172 1
9 173 1
9 179 1
9 191 1
9 192 1
10 17 1
10 19 1
10 28 1
10 93 1
10 94 1
10 95 1
10 105 1
10 109 1
10 111 1
10 112 1
10 113 1
10 114 1
10 115 1
10 122 1
10 124 1
10 127 1
10 139 1
10 141 1
10 142 1
10 143 1
10 147 1
10 151 1
10 153 1
10 154 1
10 158 1
10 166 1
10 167 1
10 168 1
10 169 1
10 171 1
10 173 1
10 174 1
10 175 1
10 193 1
10 194 1
11 19 1
11 21 1
11 30 1
11 95 1
11 96 1
11 97 1
11 107 1
11 111 1
11 113 1
11 114 1
11 115 1
11 116 1
11 117 1
11 124 1
11 126 1
11 129 1
11 141 1
11 143 1
11 144 1
11 145 1
11 149 1
11 153 1
11 155 1
11 156 1
11 160 1
11 168 1
11 169 1
11 170 1
11 171 1
11 173 1
11 175 1
11 176 1
11 177 1
11 195 1
11 196 1
12 2 1
12 21 1
12 23 1
12 97 1
12 98 1
12 99 1
12 109 1
12 113 1
12 115 1
12 116 1
12 117 1
12 118 1
12 119 1
12 121 1
12 126 1
12 128 1
12 131 1
12 143 1
12 145 1
12 146 1
12 147 1
12 155 1
12 157 1
12 158 1
12 162 1
12 170 1
12 171 1
12 172 1
12 173 1
12 175 1
12 177 1
12 178 1
12 179 1
12 197 1
12 198 1
13 4 1
13 23 1
13 25 1
13 91 1
13 99 1
13 100 1
13 101 1
13 111 1
13 115 1
13 117 1
13 118 1
13 119 1
13 120 1
13 123 1
13 128 1
13 130 1
13 133 1
13 145 1
13 147 1
13 148 1
13 149 1
13 151 1
13 157 1
13 159 1
13 160 1
13 164 1
13 172 1
13 173 1
13 174 1
13 175 1
13 177 1
13 179 1
13 180 1
13 199 1
13 200 1
14 6 1
14 25 1
14 27 1
14 91 1
14 92 1
14 93 1
14 101 1
14 102 1
14 103 1
14 113 1
14 117 1
14 119 1
14 120 1
14 121 1
14 125 1
14 130 1
14 132 1
14 135 1
14 147 1
14 149 1
14 150 1
14 151 1
14 152 1
14 153 1
14 159 1
14 161 1
14 162 1
14 166 1
14 174 1
14 175 1
14 176 1
14 177 1
14 179 1
14 201 1
14 202 1
15 8 1
15 27 1
15 29 1
15 91 1
15 92 1
15 93 1
15 94 1
15 95 1
15 103 1
15 104 1
15 105 1
15 115 1
15 119 1
15 121 1
15 122 1
15 123 1
15 127 1
15 132 1
15 134 1
15 137 1
15 149 1
15 151 1
15 153 1
15 154 1
15 155 1
15 161 1
15 163 1
15 164 1
15 168 1
15 176 1
15 177 1
15 178 1
15 179 1
15 203 1
15 204 1
16 2 1
16 9 1
16 10 1
16 30 1
16 92 1
16 93 1
16 95 1
16 98 1
16 105 1
16 108 1
16 118 1
16 122 1
16 123 1
16 126 1
16 130 1
16 133 1
16 134 1
16 135 1
16 136 1
16 140 1
16 152 1
16 154 1
16 155 1
16 158 1
16 164 1
16 165 1
16 169 1
16 170 1
16 177 1
16 178 1
16 179 1
16 205 1
17 2 1
17 4 1
17 11 1
17 12 1
17 94 1
17 95 1
17 97 1
17 100 1
17 107 1
17 110 1
17 120 1
17 124 1
17 125 1
17 128 1
17 132 1
17 135 1
17 136 1
17 137 1
17 138 1
17 142 1
17 151 1
17 154 1
17 156 1
17 157 1
17 160 1
17 166 1
17 167 1
17 171 1
17 172 1
17 179 1
17 180 1
17 207 1
18 4 1
18 6 1
18 13 1
18 14 1
18 92 1
18 96 1
18 97 1
18 99 1
18 102 1
18 109 1
18 112 1
18 126 1
18 127 1
18 130 1
18 134 1
18 137 1
18 138 1
18 139 1
18 140 1
18 144 1
18 151 1
18 152 1
18 153 1
18 156 1
18 158 1
18 159 1
18 162 1
18 168 1
18 169 1
18 173 1
18 174 1
18 209 1
19 6 1
19 8 1
19 15 1
19 16 1
19 94 1
19 98 1
19 99 1
19 101 1
19 104 1
19 111 1
19 114 1
19 128 1
19 129 1
19 132 1
19 136 1
19 139 1
19 140 1
19 141 1
19 142 1
19 146 1
19 153 1
19 154 1
19 155 1
19 158 1
19 160 1
19 161 1
19 164 1
19 170 1
19 171 1
19 175 1
19 176 1
19 181 1
20 8 1
20 10 1
20 17 1
20 18 1
20 96 1
20 100 1
20 101 1
20 103 1
20 106 1
20 113 1
20 116 1
20 130 1
20 131 1
20 134 1
20 138 1
20 141 1
20 142 1
20 143 1
20 144 1
20 148 1
20 155 1
20 156 1
20 157 1
20 160 1
20 162 1
20 163 1
20 166 1
20 172 1
20 173 1
20 177 1
20 178 1
20 183 1
21 10 1
21 12 1
21 19 1
21 20 1
21 98 1
21 102 1
21 103 1
21 105 1
21 108 1
21 115 1
21 118 1
21 132 1
21 133 1
21 136 1
21 140 1
21 143 1
21 144 1
21 145 1
21 146 1
21 150 1
21 157 1
21 158 1
21 159 1
21 162 1
21 164 1
21 165 1
21 168 1
21 174 1
21 175 1
21 179 1
21 180 1
21 185 1
22 12 1
22 14 1
22 21 1
22 22 1
22 100 1
22 104 1
22 105 1
22 107 1
22 110 1
22 117 1
22 120 1
22 122 1
22 134 1
22 135 1
22 138 1
22 142 1
22 145 1
22 146 1
22 147 1
22 148 1
22 151 1
22 152 1
22 159 1
22 160 1
22 161 1
22 164 1
22 166 1
22 167 1
22 170 1
22 176 1
22 177 1
22 187 1
23 14 1
23 16 1
23 23 1
23 24 1
23 92 1
23 102 1
23 106 1
23 107 1
23 109 1
23 112 1
23 119 1
23 124 1
23 136 1
23 137 1
23 140 1
23 144 1
23 147 1
23 148 1
23 149 1
23 150 1
23 153 1
23 154 1
23 161 1
23 162 1
23 163 1
23 166 1
23 168 1
23 169 1
23 172 1
23 178 1
23 179 1
23 189 1
24 16 1
24 18 1
24 25 1
24 26 1
24 91 1
24 94 1
24 104 1
24 108 1
24 109 1
24 111 1
24 114 1
24 121 1
24 122 1
24 126 1
24 138 1
24 139 1
24 142 1
24 146 1
24 149 1
24 150 1
24 151 1
24 155 1
24 156 1
24 163 1
24 164 1
24 165 1
24 168 1
24 170 1
24 171 1
24 174 1
24 180 1
24 191 1
25 18 1
25 20 1
25 27 1
25 28 1
25 93 1
25 96 1
25 106 1
25 110 1
25 111 1
25 113 1
25 116 1
25 121 1
25 122 1
25 123 1
25 124 1
25 128 1
25 140 1
25 141 1
25 144 1
25 148 1
25 152 1
25 153 1
25 157 1
25 158 1
25 165 1
25 166 1
25 167 1
25 170 1
25 172 1
25 173 1
25 176 1
25 193 1
26 20 1
26 22 1
26 29 1
26 30 1
26 95 1
26 98 1
26 108 1
26 112 1
26 113 1
26 115 1
26 118 1
26 123 1
26 124 1
26 125 1
26 126 1
26 130 1
26 142 1
26 143 1
26 146 1
26 150 1
26 154 1
26 155 1
26 159 1
26 160 1
26 167 1
26 168 1
26 169 1
26 172 1
26 174 1
26 175 1
26 178 1
26 195 1
27 1 1
27 2 1
27 22 1
27 24 1
27 97 1
27 100 1
27 110 1
27 114 1
27 115 1
27 117 1
27 120 1
27 122 1
27 125 1
27 126 1
27 127 1
27 128 1
27 132 1
27 144 1
27 145 1
27 148 1
27 156 1
27 157 1
27 161 1
27 162 1
27 169 1
27 170 1
27 171 1
27 174 1
27 176 1
27 177 1
27 180 1
27 197 1
28 3 1
28 4 1
28 24 1
28 26 1
28 92 1
28 99 1
28 102 1
28 112 1
28 116 1
28 117 1
28 119 1
28 124 1
28 127 1
28 128 1
28 129 1
28 130 1
28 134 1
28 146 1
28 147 1
28 150 1
28 152 1
28 158 1
28 159 1
28 163 1
28 164 1
28 171 1
28 172 1
28 173 1
28 176 1
28 178 1
28 179 1
28 199 1
29 5 1
29 6 1
29 26 1
29 28 1
29 91 1
29 94 1
29 101 1
29 104 1
29 114 1
29 118 1
29 119 1
29 122 1
29 126 1
29 129 1
29 130 1
29 131 1
29 132 1
29 136 1
29 148 1
29 149 1
29 151 1
29 154 1
29 160 1
29 161 1
29 165 1
29 166 1
29 173 1
29 174 1
29 175 1
29 178 1
29 180 1
29 201 1
30 7 1
30 8 1
30 28 1
30 30 1
30 91 1
30 93 1
30 96 1
30 103 1
30 106 1
30 116 1
30 120 1
30 121 1
30 124 1
30 128 1
30 131 1
30 132 1
30 133 1
30 134 1
30 138 1
30 150 1
30 152 1
30 153 1
30 156 1
30 162 1
30 163 1
30 167 1
30 168 1
30 175 1
30 176 1
30 177 1
30 180 1
30 203 1
31 6 1
31 15 1
31 16 1
31 96 1
31 98 1
31 105 1
31 107 1
31 108 1
31 109 1
31 114 1
31 120 1
31 121 1
31 122 1
31 124 1
31 126 1
31 131 1
31 132 1
31 139 1
31 140 1
31 143 1
31 149 1
31 150 1
31 153 1
31 156 1
31 163 1
31 171 1
31 174 1
31 175 1
31 179 1
31 181 1
32 8 1
32 17 1
32 18 1
32 92 1
32 98 1
32 100 1
32 107 1
32 109 1
32 110 1
32 111 1
32 116 1
32 121 1
32 122 1
32 123 1
32 124 1
32 126 1
32 128 1
32 133 1
32 134 1
32 141 1
32 142 1
32 145 1
32 151 1
32 155 1
32 158 1
32 165 1
32 173 1
32 176 1
32 177 1
32 183 1
33 10 1
33 19 1
33 20 1
33 94 1
33 100 1
33 102 1
33 109 1
33 111 1
33 112 1
33 113 1
33 118 1
33 123 1
33 124 1
33 125 1
33 126 1
33 128 1
33 130 1
33 135 1
33 136 1
33 143 1
33 144 1
33 147 1
33 153 1
33 157 1
33 160 1
33 167 1
33 175 1
33 178 1
33 179 1
33 185 1
34 12 1
34 21 1
34 22 1
34 96 1
34 102 1
34 104 1
34 111 1
34 113 1
34 114 1
34 115 1
34 120 1
34 125 1
34 126 1
34 127 1
34 128 1
34 130 1
34 132 1
34 137 1
34 138 1
34 145 1
34 146 1
34 149 1
34 151 1
34 155 1
34 159 1
34 162 1
34 169 1
34 177 1
34 180 1
34 187 1
35 14 1
35 23 1
35 24 1
35 92 1
35 98 1
35 104 1
35 106 1
35 113 1
35 115 1
35 116 1
35 117 1
35 121 1
35 127 1
35 128 1
35 129 1
35 130 1
35 132 1
35 134 1
35 139 1
35 140 1
35 147 1
35 148 1
35 152 1
35 153 1
35 157 1
35 161 1
35 164 1
35 171 1
35 179 1
35 189 1
36 16 1
36 25 1
36 26 1
36 94 1
36 100 1
36 106 1
36 108 1
36 115 1
36 117 1
36 118 1
36 119 1
36 123 1
36 129 1
36 130 1
36 131 1
36 132 1
36 134 1
36 136 1
36 141 1
36 142 1
36 149 1
36 150 1
36 151 1
36 154 1
36 155 1
36 159 1
36 163 1
36 166 1
36 173 1
36 191 1
37 18 1
37 27 1
37 28 1
37 91 1
37 96 1
37 102 1
37 108 1
37 110 1
37 117 1
37 119 1
37 120 1
37 121 1
37 122 1
37 125 1
37 131 1
37 132 1
37 133 1
37 134 1
37 136 1
37 138 1
37 143 1
37 144 1
37 153 1
37 156 1
37 157 1
37 161 1
37 165 1
37 168 1
37 175 1
37 193 1
38 20 1
38 29 1
38 30 1
38 91 1
38 92 1
38 93 1
38 98 1
38 104 1
38 110 1
38 112 1
38 119 1
38 123 1
38 124 1
38 127 1
38 133 1
38 134 1
38 135 1
38 136 1
38 138 1
38 140 1
38 145 1
38 146 1
38 155 1
38 158 1
38 159 1
38 163 1
38 167 1
38 170 1
38 177 1
38 195 1
39 1 1
39 2 1
39 22 1
39 91 1
39 93 1
39 94 1
39 95 1
39 100 1
39 106 1
39 112 1
39 114 1
39 125 1
39 126 1
39 129 1
39 135 1
39 136 1
39 137 1
39 138 1
39 140 1
39 142 1
39 147 1
39 148 1
39 157 1
39 160 1
39 161 1
39 165 1
39 169 1
39 172 1
39 179 1
39 197 1
40 3 1
40 4 1
40 24 1
40 93 1
40 95 1
40 96 1
40 97 1
40 102 1
40 108 1
40 114 1
40 116 1
40 127 1
40 128 1
40 131 1
40 137 1
40 138 1
40 139 1
40 140 1
40 142 1
40 144 1
40 149 1
40 150 1
40 151 1
40 159 1
40 162 1
40 163 1
40 167 1
40 171 1
40 174 1
40 199 1
41 5 1
41 6 1
41 26 1
41 95 1
41 97 1
41 98 1
41 99 1
41 104 1
41 110 1
41 116 1
41 118 1
41 121 1
41 122 1
41 129 1
41 130 1
41 133 1
41 139 1
41 140 1
41 141 1
41 142 1
41 144 1
41 146 1
41 153 1
41 161 1
41 164 1
41 165 1
41 169 1
41 173 1
41 176 1
41 201 1
42 7 1
42 8 1
42 28 1
42 97 1
42 99 1
42 100 1
42 101 1
42 106 1
42 112 1
42 118 1
42 120 1
42 123 1
42 124 1
42 131 1
42 132 1
42 135 1
42 141 1
42 142 1
42 143 1
42 144 1
42 146 1
42 148 1
42 155 1
42 163 1
42 166 1
42 167 1
42 171 1
42 175 1
42 178 1
42 203 1
43 9 1
43 10 1
43 30 1
43 92 1
43 99 1
43 101 1
43 102 1
43 103 1
43 108 1
43 114 1
43 120 1
43 125 1
43 126 1
43 133 1
43 134 1
43 137 1
43 143 1
43 144 1
43 145 1
43 146 1
43 148 1
43 150 1
43 157 1
43 165 1
43 168 1
43 169 1
43 173 1
43 177 1
43 180 1
43 205 1
44 2 1
44 11 1
44 12 1
44 92 1
44 94 1
44 101 1
44 103 1
44 104 1
44 105 1
44 110 1
44 116 1
44 122 1
44 127 1
44 128 1
44 135 1
44 136 1
44 139 1
44 145 1
44 146 1
44 147 1
44 148 1
44 150 1
44 152 1
44 159 1
44 167 1
44 170 1
44 171 1
44 175 1
44 179 1
44 207 1
45 4 1
45 13 1
45 14 1
45 94 1
45 96 1
45 103 1
45 105 1
45 106 1
45 107 1
45 112 1
45 118 1
45 122 1
45 124 1
45 129 1
45 130 1
45 137 1
45 138 1
45 141 1
45 147 1
45 148 1
45 149 1
45 150 1
45 151 1
45 154 1
45 161 1
45 169 1
45 172 1
45 173 1
45 177 1
45 209 1
46 5 1
46 6 1
46 15 1
46 95 1
46 96 1
46 97 1
46 98 1
46 106 1
46 107 1
46 110 1
46 113 1
46 114 1
46 119 1
46 120 1
46 121 1
46 123 1
46 124 1
46 125 1
46 126 1
46 131 1
46 139 1
46 144 1
46 149 1
46 154 1
46 155 1
46 156 1
46 164 1
46 172 1
46 173 1
46 174 1
46 176 1
46 180 1
46 182 1
47 7 1
47 8 1
47 17 1
47 91 1
47 92 1
47 97 1
47 98 1
47 99 1
47 100 1
47 108 1
47 109 1
47 112 1
47 115 1
47 116 1
47 121 1
47 123 1
47 125 1
47 126 1
47 127 1
47 128 1
47 133 1
47 141 1
47 146 1
47 152 1
47 156 1
47 157 1
47 158 1
47 166 1
47 174 1
47 175 1
47 176 1
47 178 1
47 184 1
48 9 1
48 10 1
48 19 1
48 93 1
48 94 1
48 99 1
48 100 1
48 101 1
48 102 1
48 110 1
48 111 1
48 114 1
48 117 1
48 118 1
48 123 1
48 125 1
48 127 1
48 128 1
48 129 1
48 130 1
48 135 1
48 143 1
48 148 1
48 154 1
48 158 1
48 159 1
48 160 1
48 168 1
48 176 1
48 177 1
48 178 1
48 180 1
48 186 1
49 11 1
49 12 1
49 21 1
49 95 1
49 96 1
49 101 1
49 102 1
49 103 1
49 104 1
49 112 1
49 113 1
49 116 1
49 119 1
49 120 1
49 125 1
49 127 1
49 129 1
49 130 1
49 131 1
49 132 1
49 137 1
49 145 1
49 150 1
49 152 1
49 156 1
49 160 1
49 161 1
49 162 1
49 170 1
49 178 1
49 179 1
49 180 1
49 188 1
50 13 1
50 14 1
50 23 1
50 91 1
50 92 1
50 97 1
50 98 1
50 103 1
50 104 1
50 105 1
50 106 1
50 114 1
50 115 1
50 118 1
50 122 1
50 127 1
50 129 1
50 131 1
50 132 1
50 133 1
50 134 1
50 139 1
50 147 1
50 151 1
50 152 1
50 154 1
50 158 1
50 162 1
50 163 1
50 164 1
50 172 1
50 180 1
50 190 1
51 15 1
51 16 1
51 25 1
51 93 1
51 94 1
51 99 1
51 100 1
51 105 1
51 106 1
51 107 1
51 108 1
51 116 1
51 117 1
51 120 1
51 124 1
51 129 1
51 131 1
51 133 1
51 134 1
51 135 1
51 136 1
51 141 1
51 149 1
51 152 1
51 153 1
51 154 1
51 156 1
51 160 1
51 164 1
51 165 1
51 166 1
51 174 1
51 192 1
52 17 1
52 18 1
52 27 1
52 92 1
52 95 1
52 96 1
52 101 1
52 102 1
52 107 1
52 108 1
52 109 1
52 110 1
52 118 1
52 119 1
52 121 1
52 126 1
52 131 1
52 133 1
52 135 1
52 136 1
52 137 1
52 138 1
52 143 1
52 154 1
52 155 1
52 156 1
52 158 1
52 162 1
52 166 1
52 167 1
52 168 1
52 176 1
52 194 1
53 19 1
53 20 1
53 29 1
53 91 1
53 94 1
53 97 1
53 98 1
53 103 1
53 104 1
53 109 1
53 110 1
53 111 1
53 112 1
53 120 1
53 123 1
53 128 1
53 133 1
53 135 1
53 137 1
53 138 1
53 139 1
53 140 1
53 145 1
53 156 1
53 157 1
53 158 1
53 160 1
53 164 1
53 168 1
53 169 1
53 170 1
53 178 1
53 196 1
54 1 1
54 21 1
54 22 1
54 92 1
54 93 1
54 96 1
54 99 1
54 100 1
54 105 1
54 106 1
54 111 1
54 112 1
54 113 1
54 114 1
54 125 1
54 130 1
54 135 1
54 137 1
54 139 1
54 140 1
54 141 1
54 142 1
54 147 1
54 158 1
54 159 1
54 160 1
54 162 1
54 166 1
54 170 1
54 171 1
54 172 1
54 180 1
54 198 1
55 3 1
55 23 1
55 24 1
55 94 1
55 95 1
55 98 1
55 101 1
55 102 1
55 107 1
55 108 1
55 113 1
55 114 1
55 115 1
55 116 1
55 127 1
55 132 1
55 137 1
55 139 1
55 141 1
55 142 1
55 143 1
55 144 1
55 149 1
55 152 1
55 160 1
55 161 1
55 162 1
55 164 1
55 168 1
55 172 1
55 173 1
55 174 1
55 200 1
56 5 1
56 25 1
56 26 1
56 96 1
56 97 1
56 100 1
56 103 1
56 104 1
56 109 1
56 110 1
56 115 1
56 116 1
56 117 1
56 118 1
56 121 1
56 129 1
56 134 1
56 139 1
56 141 1
56 143 1
56 144 1
56 145 1
56 146 1
56 154 1
56 162 1
56 163 1
56 164 1
56 166 1
56 170 1
56 174 1
56 175 1
56 176 1
56 202 1
57 7 1
57 27 1
57 28 1
57 98 1
57 99 1
57 102 1
57 105 1
57 106 1
57 111 1
57 112 1
57 117 1
57 118 1
57 119 1
57 120 1
57 123 1
57 131 1
57 136 1
57 141 1
57 143 1
57 145 1
57 146 1
57 147 1
57 148 1
57 156 1
57 164 1
57 165 1
57 166 1
57 168 1
57 172 1
57 176 1
57 177 1
57 178 1
57 204 1
58 9 1
58 29 1
58 30 1
58 91 1
58 92 1
58 100 1
58 101 1
58 104 1
58 107 1
58 108 1
58 113 1
58 114 1
58 119 1
58 120 1
58 125 1
58 133 1
58 138 1
58 143 1
58 145 1
58 147 1
58 148 1
58 149 1
58 150 1
58 158 1
58 166 1
58 167 1
58 168 1
58 170 1
58 174 1
58 178 1
58 179 1
58 180 1
58 206 1
59 1 1
59 2 1
59 11 1
59 91 1
59 92 1
59 93 1
59 94 1
59 102 1
59 103 1
59 106 1
59 109 1
59 110 1
59 115 1
59 116 1
59 121 1
59 122 1
59 127 1
59 135 1
59 140 1
59 145 1
59 147 1
59 149 1
59 150 1
59 151 1
59 152 1
59 160 1
59 168 1
59 169 1
59 170 1
59 172 1
59 176 1
59 180 1
59 208 1
60 3 1
60 4 1
60 13 1
60 93 1
60 94 1
60 95 1
60 96 1
60 104 1
60 105 1
60 108 1
60 111 1
60 112 1
60 117 1
60 118 1
60 121 1
60 122 1
60 123 1
60 124 1
60 129 1
60 137 1
60 142 1
60 147 1
60 149 1
60 152 1
60 153 1
60 154 1
60 162 1
60 170 1
60 171 1
60 172 1
60 174 1
60 178 1
60 210 1
