%%MatrixMarket matrix coordinate integer general
% GF(4) labels 0,1,2=omega,3=omega+1; arithmetic is NOT integer arithmetic.
% Coordinate indices are 1-based; omitted entries are zero.
30 120 765
1 1 1
1 5 2
1 15 1
1 46 1
1 47 3
1 48 3
1 49 1
1 53 3
1 54 1
1 59 1
1 61 1
1 62 3
1 63 1
1 65 1
1 67 2
1 68 2
1 70 1
1 76 1
1 77 1
1 78 3
1 79 1
1 82 1
1 83 3
1 85 2
1 89 2
1 90 3
1 103 3
2 1 1
2 2 1
2 6 2
2 47 1
2 48 3
2 49 3
2 50 1
2 54 3
2 55 1
2 60 1
2 62 1
2 63 3
2 64 1
2 66 1
2 68 2
2 69 2
2 71 1
2 76 3
2 77 1
2 78 1
2 79 3
2 80 1
2 83 1
2 84 3
2 86 2
2 90 2
2 104 3
3 2 1
3 3 1
3 7 2
3 46 1
3 48 1
3 49 3
3 50 3
3 51 1
3 55 3
3 56 1
3 63 1
3 64 3
3 65 1
3 67 1
3 69 2
3 70 2
3 72 1
3 76 2
3 77 3
3 78 1
3 79 1
3 80 3
3 81 1
3 84 1
3 85 3
3 87 2
3 105 3
4 3 1
4 4 1
4 8 2
4 47 1
4 49 1
4 50 3
4 51 3
4 52 1
4 56 3
4 57 1
4 64 1
4 65 3
4 66 1
4 68 1
4 70 2
4 71 2
4 73 1
4 77 2
4 78 3
4 79 1
4 80 1
4 81 3
4 82 1
4 85 1
4 86 3
4 88 2
4 91 3
5 4 1
5 5 1
5 9 2
5 48 1
5 50 1
5 51 3
5 52 3
5 53 1
5 57 3
5 58 1
5 65 1
5 66 3
5 67 1
5 69 1
5 71 2
5 72 2
5 74 1
5 78 2
5 79 3
5 80 1
5 81 1
5 82 3
5 83 1
5 86 1
5 87 3
5 89 2
5 92 3
6 5 1
6 6 1
6 10 2
6 49 1
6 51 1
6 52 3
6 53 3
6 54 1
6 58 3
6 59 1
6 66 1
6 67 3
6 68 1
6 70 1
6 72 2
6 73 2
6 75 1
6 79 2
6 80 3
6 81 1
6 82 1
6 83 3
6 84 1
6 87 1
6 88 3
6 90 2
6 93 3
7 6 1
7 7 1
7 11 2
7 50 1
7 52 1
7 53 3
7 54 3
7 55 1
7 59 3
7 60 1
7 61 1
7 67 1
7 68 3
7 69 1
7 71 1
7 73 2
7 74 2
7 76 2
7 80 2
7 81 3
7 82 1
7 83 1
7 84 3
7 85 1
7 88 1
7 89 3
7 94 3
8 7 1
8 8 1
8 12 2
8 46 1
8 51 1
8 53 1
8 54 3
8 55 3
8 56 1
8 60 3
8 62 1
8 68 1
8 69 3
8 70 1
8 72 1
8 74 2
8 75 2
8 77 2
8 81 2
8 82 3
8 83 1
8 84 1
8 85 3
8 86 1
8 89 1
8 90 3
8 95 3
9 8 1
9 9 1
9 13 2
9 46 3
9 47 1
9 52 1
9 54 1
9 55 3
9 56 3
9 57 1
9 61 2
9 63 1
9 69 1
9 70 3
9 71 1
9 73 1
9 75 2
9 76 3
9 78 2
9 82 2
9 83 3
9 84 1
9 85 1
9 86 3
9 87 1
9 90 1
9 96 3
10 9 1
10 10 1
10 14 2
10 47 3
10 48 1
10 53 1
10 55 1
10 56 3
10 57 3
10 58 1
10 61 2
10 62 2
10 64 1
10 70 1
10 71 3
10 72 1
10 74 1
10 76 1
10 77 3
10 79 2
10 83 2
10 84 3
10 85 1
10 86 1
10 87 3
10 88 1
10 97 3
11 10 1
11 11 1
11 15 2
11 48 3
11 49 1
11 54 1
11 56 1
11 57 3
11 58 3
11 59 1
11 62 2
11 63 2
11 65 1
11 71 1
11 72 3
11 73 1
11 75 1
11 77 1
11 78 3
11 80 2
11 84 2
11 85 3
11 86 1
11 87 1
11 88 3
11 89 1
11 98 3
12 1 2
12 11 1
12 12 1
12 49 3
12 50 1
12 55 1
12 57 1
12 58 3
12 59 3
12 60 1
12 61 1
12 63 2
12 64 2
12 66 1
12 72 1
12 73 3
12 74 1
12 78 1
12 79 3
12 81 2
12 85 2
12 86 3
12 87 1
12 88 1
12 89 3
12 90 1
12 99 3
13 2 2
13 12 1
13 13 1
13 46 1
13 50 3
13 51 1
13 56 1
13 58 1
13 59 3
13 60 3
13 62 1
13 64 2
13 65 2
13 67 1
13 73 1
13 74 3
13 75 1
13 76 1
13 79 1
13 80 3
13 82 2
13 86 2
13 87 3
13 88 1
13 89 1
13 90 3
13 100 3
14 3 2
14 13 1
14 14 1
14 46 3
14 47 1
14 51 3
14 52 1
14 57 1
14 59 1
14 60 3
14 61 1
14 63 1
14 65 2
14 66 2
14 68 1
14 74 1
14 75 3
14 76 3
14 77 1
14 80 1
14 81 3
14 83 2
14 87 2
14 88 3
14 89 1
14 90 1
14 101 3
15 4 2
15 14 1
15 15 1
15 46 3
15 47 3
15 48 1
15 52 3
15 53 1
15 58 1
15 60 1
15 61 3
15 62 1
15 64 1
15 66 2
15 67 2
15 69 1
15 75 1
15 76 1
15 77 3
15 78 1
15 81 1
15 82 3
15 84 2
15 88 2
15 89 3
15 90 1
15 102 3
16 3 2
16 8 3
16 48 2
16 49 2
16 53 1
16 54 3
16 55 1
16 57 2
16 60 2
16 61 3
16 62 2
16 63 2
16 66 3
16 70 3
16 72 1
16 75 3
16 77 1
16 78 2
16 82 1
16 86 1
16 87 2
16 88 1
16 90 1
16 91 1
17 4 2
17 9 3
17 46 2
17 49 2
17 50 2
17 54 1
17 55 3
17 56 1
17 58 2
17 61 3
17 62 3
17 63 2
17 64 2
17 67 3
17 71 3
17 73 1
17 76 1
17 78 1
17 79 2
17 83 1
17 87 1
17 88 2
17 89 1
17 92 1
18 5 2
18 10 3
18 47 2
18 50 2
18 51 2
18 55 1
18 56 3
18 57 1
18 59 2
18 62 3
18 63 3
18 64 2
18 65 2
18 68 3
18 72 3
18 74 1
18 77 1
18 79 1
18 80 2
18 84 1
18 88 1
18 89 2
18 90 1
18 93 1
19 6 2
19 11 3
19 48 2
19 51 2
19 52 2
19 56 1
19 57 3
19 58 1
19 60 2
19 63 3
19 64 3
19 65 2
19 66 2
19 69 3
19 73 3
19 75 1
19 76 1
19 78 1
19 80 1
19 81 2
19 85 1
19 89 1
19 90 2
19 94 1
20 7 2
20 12 3
20 46 2
20 49 2
20 52 2
20 53 2
20 57 1
20 58 3
20 59 1
20 61 1
20 64 3
20 65 3
20 66 2
20 67 2
20 70 3
20 74 3
20 76 2
20 77 1
20 79 1
20 81 1
20 82 2
20 86 1
20 90 1
20 95 1
21 8 2
21 13 3
21 47 2
21 50 2
21 53 2
21 54 2
21 58 1
21 59 3
21 60 1
21 62 1
21 65 3
21 66 3
21 67 2
21 68 2
21 71 3
21 75 3
21 76 1
21 77 2
21 78 1
21 80 1
21 82 1
21 83 2
21 87 1
21 96 1
22 9 2
22 14 3
22 46 1
22 48 2
22 51 2
22 54 2
22 55 2
22 59 1
22 60 3
22 61 3
22 63 1
22 66 3
22 67 3
22 68 2
22 69 2
22 72 3
22 77 1
22 78 2
22 79 1
22 81 1
22 83 1
22 84 2
22 88 1
22 97 1
23 10 2
23 15 3
23 46 3
23 47 1
23 49 2
23 52 2
23 55 2
23 56 2
23 60 1
23 62 3
23 64 1
23 67 3
23 68 3
23 69 2
23 70 2
23 73 3
23 78 1
23 79 2
23 80 1
23 82 1
23 84 1
23 85 2
23 89 1
23 98 1
24 1 3
24 11 2
24 46 1
24 47 3
24 48 1
24 50 2
24 53 2
24 56 2
24 57 2
24 63 3
24 65 1
24 68 3
24 69 3
24 70 2
24 71 2
24 74 3
24 79 1
24 80 2
24 81 1
24 83 1
24 85 1
24 86 2
24 90 1
24 99 1
25 2 3
25 12 2
25 47 1
25 48 3
25 49 1
25 51 2
25 54 2
25 57 2
25 58 2
25 64 3
25 66 1
25 69 3
25 70 3
25 71 2
25 72 2
25 75 3
25 76 1
25 80 1
25 81 2
25 82 1
25 84 1
25 86 1
25 87 2
25 100 1
26 3 3
26 13 2
26 48 1
26 49 3
26 50 1
26 52 2
26 55 2
26 58 2
26 59 2
26 61 3
26 65 3
26 67 1
26 70 3
26 71 3
26 72 2
26 73 2
26 77 1
26 81 1
26 82 2
26 83 1
26 85 1
26 87 1
26 88 2
26 101 1
27 4 3
27 14 2
27 49 1
27 50 3
27 51 1
27 53 2
27 56 2
27 59 2
27 60 2
27 62 3
27 66 3
27 68 1
27 71 3
27 72 3
27 73 2
27 74 2
27 78 1
27 82 1
27 83 2
27 84 1
27 86 1
27 88 1
27 89 2
27 102 1
28 5 3
28 15 2
28 46 2
28 50 1
28 51 3
28 52 1
28 54 2
28 57 2
28 60 2
28 63 3
28 67 3
28 69 1
28 72 3
28 73 3
28 74 2
28 75 2
28 79 1
28 83 1
28 84 2
28 85 1
28 87 1
28 89 1
28 90 2
28 103 1
29 1 2
29 6 3
29 46 2
29 47 2
29 51 1
29 52 3
29 53 1
29 55 2
29 58 2
29 61 2
29 64 3
29 68 3
29 70 1
29 73 3
29 74 3
29 75 2
29 76 2
29 80 1
29 84 1
29 85 2
29 86 1
29 88 1
29 90 1
29 104 1
30 2 2
30 7 3
30 47 2
30 48 2
30 52 1
30 53 3
30 54 1
30 56 2
30 59 2
30 61 2
30 62 2
30 65 3
30 69 3
30 71 1
30 74 3
30 75 3
30 76 1
30 77 2
30 81 1
30 85 1
30 86 2
30 87 1
30 89 1
30 105 1
