%%MatrixMarket matrix coordinate integer general
% Binary matrix over GF(2).
% Coordinate indices are 1-based; omitted entries are zero.
60 240 1950
1 1 1
1 37 1
1 38 1
1 44 1
1 46 1
1 47 1
1 48 1
1 49 1
1 50 1
1 55 1
1 59 1
1 60 1
1 67 1
1 76 1
1 77 1
1 81 1
1 85 1
1 88 1
1 89 1
1 197 1
1 198 1
1 208 1
1 212 1
1 218 1
1 224 1
1 227 1
1 229 1
1 230 1
1 231 1
1 240 1
2 3 1
2 31 1
2 32 1
2 39 1
2 40 1
2 46 1
2 48 1
2 49 1
2 50 1
2 51 1
2 52 1
2 57 1
2 61 1
2 69 1
2 78 1
2 79 1
2 83 1
2 87 1
2 90 1
2 199 1
2 200 1
2 210 1
2 212 1
2 214 1
2 220 1
2 226 1
2 229 1
2 231 1
2 232 1
2 233 1
3 5 1
3 33 1
3 34 1
3 41 1
3 42 1
3 48 1
3 50 1
3 51 1
3 52 1
3 53 1
3 54 1
3 59 1
3 62 1
3 63 1
3 71 1
3 80 1
3 81 1
3 85 1
3 89 1
3 182 1
3 201 1
3 202 1
3 214 1
3 216 1
3 222 1
3 228 1
3 231 1
3 233 1
3 234 1
3 235 1
4 7 1
4 31 1
4 35 1
4 36 1
4 43 1
4 44 1
4 50 1
4 52 1
4 53 1
4 54 1
4 55 1
4 56 1
4 61 1
4 64 1
4 65 1
4 73 1
4 82 1
4 83 1
4 87 1
4 184 1
4 203 1
4 204 1
4 216 1
4 218 1
4 224 1
4 230 1
4 233 1
4 235 1
4 236 1
4 237 1
5 9 1
5 33 1
5 37 1
5 38 1
5 45 1
5 46 1
5 52 1
5 54 1
5 55 1
5 56 1
5 57 1
5 58 1
5 63 1
5 66 1
5 67 1
5 75 1
5 84 1
5 85 1
5 89 1
5 186 1
5 205 1
5 206 1
5 218 1
5 220 1
5 226 1
5 232 1
5 235 1
5 237 1
5 238 1
5 239 1
6 11 1
6 35 1
6 39 1
6 40 1
6 47 1
6 48 1
6 54 1
6 56 1
6 57 1
6 58 1
6 59 1
6 60 1
6 61 1
6 65 1
6 68 1
6 69 1
6 77 1
6 86 1
6 87 1
6 188 1
6 207 1
6 208 1
6 211 1
6 220 1
6 222 1
6 228 1
6 234 1
6 237 1
6 239 1
6 240 1
7 13 1
7 31 1
7 32 1
7 37 1
7 41 1
7 42 1
7 49 1
7 50 1
7 56 1
7 58 1
7 59 1
7 60 1
7 63 1
7 67 1
7 70 1
7 71 1
7 79 1
7 88 1
7 89 1
7 190 1
7 209 1
7 210 1
7 211 1
7 212 1
7 213 1
7 222 1
7 224 1
7 230 1
7 236 1
7 239 1
8 15 1
8 31 1
8 32 1
8 33 1
8 34 1
8 39 1
8 43 1
8 44 1
8 51 1
8 52 1
8 58 1
8 60 1
8 61 1
8 65 1
8 69 1
8 72 1
8 73 1
8 81 1
8 90 1
8 181 1
8 182 1
8 192 1
8 211 1
8 213 1
8 214 1
8 215 1
8 224 1
8 226 1
8 232 1
8 238 1
9 17 1
9 32 1
9 33 1
9 34 1
9 35 1
9 36 1
9 41 1
9 45 1
9 46 1
9 53 1
9 54 1
9 60 1
9 62 1
9 63 1
9 67 1
9 71 1
9 74 1
9 75 1
9 83 1
9 183 1
9 184 1
9 194 1
9 213 1
9 215 1
9 216 1
9 217 1
9 226 1
9 228 1
9 234 1
9 240 1
10 19 1
10 32 1
10 34 1
10 35 1
10 36 1
10 37 1
10 38 1
10 43 1
10 47 1
10 48 1
10 55 1
10 56 1
10 64 1
10 65 1
10 69 1
10 73 1
10 76 1
10 77 1
10 85 1
10 185 1
10 186 1
10 196 1
10 212 1
10 215 1
10 217 1
10 218 1
10 219 1
10 228 1
10 230 1
10 236 1
11 21 1
11 34 1
11 36 1
11 37 1
11 38 1
11 39 1
11 40 1
11 45 1
11 49 1
11 50 1
11 57 1
11 58 1
11 66 1
11 67 1
11 71 1
11 75 1
11 78 1
11 79 1
11 87 1
11 187 1
11 188 1
11 198 1
11 214 1
11 217 1
11 219 1
11 220 1
11 221 1
11 230 1
11 232 1
11 238 1
12 23 1
12 36 1
12 38 1
12 39 1
12 40 1
12 41 1
12 42 1
12 47 1
12 51 1
12 52 1
12 59 1
12 60 1
12 68 1
12 69 1
12 73 1
12 77 1
12 80 1
12 81 1
12 89 1
12 189 1
12 190 1
12 200 1
12 216 1
12 219 1
12 221 1
12 222 1
12 223 1
12 232 1
12 234 1
12 240 1
13 25 1
13 31 1
13 32 1
13 38 1
13 40 1
13 41 1
13 42 1
13 43 1
13 44 1
13 49 1
13 53 1
13 54 1
13 61 1
13 70 1
13 71 1
13 75 1
13 79 1
13 82 1
13 83 1
13 191 1
13 192 1
13 202 1
13 212 1
13 218 1
13 221 1
13 223 1
13 224 1
13 225 1
13 234 1
13 236 1
14 27 1
14 33 1
14 34 1
14 40 1
14 42 1
14 43 1
14 44 1
14 45 1
14 46 1
14 51 1
14 55 1
14 56 1
14 63 1
14 72 1
14 73 1
14 77 1
14 81 1
14 84 1
14 85 1
14 193 1
14 194 1
14 204 1
14 214 1
14 220 1
14 223 1
14 225 1
14 226 1
14 227 1
14 236 1
14 238 1
15 29 1
15 35 1
15 36 1
15 42 1
15 44 1
15 45 1
15 46 1
15 47 1
15 48 1
15 53 1
15 57 1
15 58 1
15 65 1
15 74 1
15 75 1
15 79 1
15 83 1
15 86 1
15 87 1
15 195 1
15 196 1
15 206 1
15 216 1
15 222 1
15 225 1
15 227 1
15 228 1
15 229 1
15 238 1
15 240 1
16 2 1
16 37 1
16 43 1
16 44 1
16 45 1
16 46 1
16 47 1
16 49 1
16 56 1
16 59 1
16 68 1
16 75 1
16 76 1
16 78 1
16 82 1
16 86 1
16 87 1
16 88 1
16 90 1
16 197 1
16 207 1
16 208 1
16 211 1
16 212 1
16 217 1
16 218 1
16 223 1
16 224 1
16 228 1
16 229 1
16 232 1
16 239 1
16 240 1
17 4 1
17 31 1
17 39 1
17 45 1
17 46 1
17 47 1
17 48 1
17 49 1
17 51 1
17 58 1
17 62 1
17 70 1
17 77 1
17 78 1
17 80 1
17 84 1
17 88 1
17 89 1
17 90 1
17 199 1
17 209 1
17 210 1
17 211 1
17 212 1
17 213 1
17 214 1
17 219 1
17 220 1
17 225 1
17 226 1
17 230 1
17 231 1
17 234 1
18 6 1
18 33 1
18 41 1
18 47 1
18 48 1
18 49 1
18 50 1
18 51 1
18 53 1
18 60 1
18 61 1
18 62 1
18 64 1
18 72 1
18 79 1
18 80 1
18 82 1
18 86 1
18 90 1
18 181 1
18 182 1
18 201 1
18 213 1
18 214 1
18 215 1
18 216 1
18 221 1
18 222 1
18 227 1
18 228 1
18 232 1
18 233 1
18 236 1
19 8 1
19 32 1
19 35 1
19 43 1
19 49 1
19 50 1
19 51 1
19 52 1
19 53 1
19 55 1
19 62 1
19 63 1
19 64 1
19 66 1
19 74 1
19 81 1
19 82 1
19 84 1
19 88 1
19 183 1
19 184 1
19 203 1
19 215 1
19 216 1
19 217 1
19 218 1
19 223 1
19 224 1
19 229 1
19 230 1
19 234 1
19 235 1
19 238 1
20 10 1
20 34 1
20 37 1
20 45 1
20 51 1
20 52 1
20 53 1
20 54 1
20 55 1
20 57 1
20 64 1
20 65 1
20 66 1
20 68 1
20 76 1
20 83 1
20 84 1
20 86 1
20 90 1
20 185 1
20 186 1
20 205 1
20 217 1
20 218 1
20 219 1
20 220 1
20 225 1
20 226 1
20 231 1
20 232 1
20 236 1
20 237 1
20 240 1
21 12 1
21 36 1
21 39 1
21 47 1
21 53 1
21 54 1
21 55 1
21 56 1
21 57 1
21 59 1
21 62 1
21 66 1
21 67 1
21 68 1
21 70 1
21 78 1
21 85 1
21 86 1
21 88 1
21 187 1
21 188 1
21 207 1
21 212 1
21 219 1
21 220 1
21 221 1
21 222 1
21 227 1
21 228 1
21 233 1
21 234 1
21 238 1
21 239 1
22 14 1
22 31 1
22 38 1
22 41 1
22 49 1
22 55 1
22 56 1
22 57 1
22 58 1
22 59 1
22 64 1
22 68 1
22 69 1
22 70 1
22 72 1
22 80 1
22 87 1
22 88 1
22 90 1
22 189 1
22 190 1
22 209 1
22 211 1
22 214 1
22 221 1
22 222 1
22 223 1
22 224 1
22 229 1
22 230 1
22 235 1
22 236 1
22 240 1
23 16 1
23 31 1
23 33 1
23 40 1
23 43 1
23 51 1
23 57 1
23 58 1
23 59 1
23 60 1
23 62 1
23 66 1
23 70 1
23 71 1
23 72 1
23 74 1
23 82 1
23 89 1
23 90 1
23 181 1
23 191 1
23 192 1
23 212 1
23 213 1
23 216 1
23 223 1
23 224 1
23 225 1
23 226 1
23 231 1
23 232 1
23 237 1
23 238 1
24 18 1
24 31 1
24 32 1
24 33 1
24 35 1
24 42 1
24 45 1
24 53 1
24 59 1
24 60 1
24 61 1
24 62 1
24 64 1
24 68 1
24 72 1
24 73 1
24 74 1
24 76 1
24 84 1
24 183 1
24 193 1
24 194 1
24 214 1
24 215 1
24 218 1
24 225 1
24 226 1
24 227 1
24 228 1
24 233 1
24 234 1
24 239 1
24 240 1
25 20 1
25 31 1
25 32 1
25 33 1
25 34 1
25 35 1
25 37 1
25 44 1
25 47 1
25 55 1
25 63 1
25 64 1
25 66 1
25 70 1
25 74 1
25 75 1
25 76 1
25 78 1
25 86 1
25 185 1
25 195 1
25 196 1
25 211 1
25 212 1
25 216 1
25 217 1
25 220 1
25 227 1
25 228 1
25 229 1
25 230 1
25 235 1
25 236 1
26 22 1
26 33 1
26 34 1
26 35 1
26 36 1
26 37 1
26 39 1
26 46 1
26 49 1
26 57 1
26 65 1
26 66 1
26 68 1
26 72 1
26 76 1
26 77 1
26 78 1
26 80 1
26 88 1
26 187 1
26 197 1
26 198 1
26 213 1
26 214 1
26 218 1
26 219 1
26 222 1
26 229 1
26 230 1
26 231 1
26 232 1
26 237 1
26 238 1
27 24 1
27 35 1
27 36 1
27 37 1
27 38 1
27 39 1
27 41 1
27 48 1
27 51 1
27 59 1
27 67 1
27 68 1
27 70 1
27 74 1
27 78 1
27 79 1
27 80 1
27 82 1
27 90 1
27 189 1
27 199 1
27 200 1
27 215 1
27 216 1
27 220 1
27 221 1
27 224 1
27 231 1
27 232 1
27 233 1
27 234 1
27 239 1
27 240 1
28 26 1
28 31 1
28 37 1
28 38 1
28 39 1
28 40 1
28 41 1
28 43 1
28 50 1
28 53 1
28 62 1
28 69 1
28 70 1
28 72 1
28 76 1
28 80 1
28 81 1
28 82 1
28 84 1
28 191 1
28 201 1
28 202 1
28 211 1
28 212 1
28 217 1
28 218 1
28 222 1
28 223 1
28 226 1
28 233 1
28 234 1
28 235 1
28 236 1
29 28 1
29 33 1
29 39 1
29 40 1
29 41 1
29 42 1
29 43 1
29 45 1
29 52 1
29 55 1
29 64 1
29 71 1
29 72 1
29 74 1
29 78 1
29 82 1
29 83 1
29 84 1
29 86 1
29 193 1
29 203 1
29 204 1
29 213 1
29 214 1
29 219 1
29 220 1
29 224 1
29 225 1
29 228 1
29 235 1
29 236 1
29 237 1
29 238 1
30 30 1
30 35 1
30 41 1
30 42 1
30 43 1
30 44 1
30 45 1
30 47 1
30 54 1
30 57 1
30 66 1
30 73 1
30 74 1
30 76 1
30 80 1
30 84 1
30 85 1
30 86 1
30 88 1
30 195 1
30 205 1
30 206 1
30 215 1
30 216 1
30 221 1
30 222 1
30 226 1
30 227 1
30 230 1
30 237 1
30 238 1
30 239 1
30 240 1
31 7 1
31 8 1
31 34 1
31 36 1
31 39 1
31 43 1
31 45 1
31 46 1
31 47 1
31 59 1
31 62 1
31 65 1
31 66 1
31 67 1
31 73 1
31 75 1
31 76 1
31 77 1
31 79 1
31 81 1
31 82 1
31 84 1
31 181 1
31 183 1
31 204 1
31 211 1
31 212 1
31 213 1
31 214 1
31 215 1
31 219 1
31 229 1
31 231 1
31 232 1
31 239 1
32 9 1
32 10 1
32 31 1
32 36 1
32 38 1
32 41 1
32 45 1
32 47 1
32 48 1
32 49 1
32 64 1
32 67 1
32 68 1
32 69 1
32 75 1
32 77 1
32 78 1
32 79 1
32 81 1
32 83 1
32 84 1
32 86 1
32 183 1
32 185 1
32 206 1
32 211 1
32 213 1
32 214 1
32 215 1
32 216 1
32 217 1
32 221 1
32 231 1
32 233 1
32 234 1
33 11 1
33 12 1
33 33 1
33 38 1
33 40 1
33 43 1
33 47 1
33 49 1
33 50 1
33 51 1
33 66 1
33 69 1
33 70 1
33 71 1
33 77 1
33 79 1
33 80 1
33 81 1
33 83 1
33 85 1
33 86 1
33 88 1
33 185 1
33 187 1
33 208 1
33 213 1
33 215 1
33 216 1
33 217 1
33 218 1
33 219 1
33 223 1
33 233 1
33 235 1
33 236 1
34 13 1
34 14 1
34 35 1
34 40 1
34 42 1
34 45 1
34 49 1
34 51 1
34 52 1
34 53 1
34 68 1
34 71 1
34 72 1
34 73 1
34 79 1
34 81 1
34 82 1
34 83 1
34 85 1
34 87 1
34 88 1
34 90 1
34 187 1
34 189 1
34 210 1
34 215 1
34 217 1
34 218 1
34 219 1
34 220 1
34 221 1
34 225 1
34 235 1
34 237 1
34 238 1
35 15 1
35 16 1
35 37 1
35 42 1
35 44 1
35 47 1
35 51 1
35 53 1
35 54 1
35 55 1
35 62 1
35 70 1
35 73 1
35 74 1
35 75 1
35 81 1
35 83 1
35 84 1
35 85 1
35 87 1
35 89 1
35 90 1
35 182 1
35 189 1
35 191 1
35 217 1
35 219 1
35 220 1
35 221 1
35 222 1
35 223 1
35 227 1
35 237 1
35 239 1
35 240 1
36 17 1
36 18 1
36 39 1
36 44 1
36 46 1
36 49 1
36 53 1
36 55 1
36 56 1
36 57 1
36 61 1
36 62 1
36 64 1
36 72 1
36 75 1
36 76 1
36 77 1
36 83 1
36 85 1
36 86 1
36 87 1
36 89 1
36 184 1
36 191 1
36 193 1
36 211 1
36 212 1
36 219 1
36 221 1
36 222 1
36 223 1
36 224 1
36 225 1
36 229 1
36 239 1
37 19 1
37 20 1
37 41 1
37 46 1
37 48 1
37 51 1
37 55 1
37 57 1
37 58 1
37 59 1
37 61 1
37 63 1
37 64 1
37 66 1
37 74 1
37 77 1
37 78 1
37 79 1
37 85 1
37 87 1
37 88 1
37 89 1
37 186 1
37 193 1
37 195 1
37 211 1
37 213 1
37 214 1
37 221 1
37 223 1
37 224 1
37 225 1
37 226 1
37 227 1
37 231 1
38 21 1
38 22 1
38 31 1
38 43 1
38 48 1
38 50 1
38 53 1
38 57 1
38 59 1
38 60 1
38 61 1
38 63 1
38 65 1
38 66 1
38 68 1
38 76 1
38 79 1
38 80 1
38 81 1
38 87 1
38 89 1
38 90 1
38 188 1
38 195 1
38 197 1
38 213 1
38 215 1
38 216 1
38 223 1
38 225 1
38 226 1
38 227 1
38 228 1
38 229 1
38 233 1
39 23 1
39 24 1
39 31 1
39 32 1
39 33 1
39 45 1
39 50 1
39 52 1
39 55 1
39 59 1
39 61 1
39 62 1
39 63 1
39 65 1
39 67 1
39 68 1
39 70 1
39 78 1
39 81 1
39 82 1
39 83 1
39 89 1
39 190 1
39 197 1
39 199 1
39 215 1
39 217 1
39 218 1
39 225 1
39 227 1
39 228 1
39 229 1
39 230 1
39 231 1
39 235 1
40 25 1
40 26 1
40 31 1
40 33 1
40 34 1
40 35 1
40 47 1
40 52 1
40 54 1
40 57 1
40 61 1
40 63 1
40 64 1
40 65 1
40 67 1
40 69 1
40 70 1
40 72 1
40 80 1
40 83 1
40 84 1
40 85 1
40 192 1
40 199 1
40 201 1
40 217 1
40 219 1
40 220 1
40 227 1
40 229 1
40 230 1
40 231 1
40 232 1
40 233 1
40 237 1
41 27 1
41 28 1
41 33 1
41 35 1
41 36 1
41 37 1
41 49 1
41 54 1
41 56 1
41 59 1
41 63 1
41 65 1
41 66 1
41 67 1
41 69 1
41 71 1
41 72 1
41 74 1
41 82 1
41 85 1
41 86 1
41 87 1
41 194 1
41 201 1
41 203 1
41 219 1
41 221 1
41 222 1
41 229 1
41 231 1
41 232 1
41 233 1
41 234 1
41 235 1
41 239 1
42 29 1
42 30 1
42 31 1
42 35 1
42 37 1
42 38 1
42 39 1
42 51 1
42 56 1
42 58 1
42 65 1
42 67 1
42 68 1
42 69 1
42 71 1
42 73 1
42 74 1
42 76 1
42 84 1
42 87 1
42 88 1
42 89 1
42 196 1
42 203 1
42 205 1
42 211 1
42 221 1
42 223 1
42 224 1
42 231 1
42 233 1
42 234 1
42 235 1
42 236 1
42 237 1
43 1 1
43 2 1
43 33 1
43 37 1
43 39 1
43 40 1
43 41 1
43 53 1
43 58 1
43 60 1
43 61 1
43 67 1
43 69 1
43 70 1
43 71 1
43 73 1
43 75 1
43 76 1
43 78 1
43 86 1
43 89 1
43 90 1
43 198 1
43 205 1
43 207 1
43 213 1
43 223 1
43 225 1
43 226 1
43 233 1
43 235 1
43 236 1
43 237 1
43 238 1
43 239 1
44 3 1
44 4 1
44 32 1
44 35 1
44 39 1
44 41 1
44 42 1
44 43 1
44 55 1
44 60 1
44 61 1
44 62 1
44 63 1
44 69 1
44 71 1
44 72 1
44 73 1
44 75 1
44 77 1
44 78 1
44 80 1
44 88 1
44 200 1
44 207 1
44 209 1
44 211 1
44 215 1
44 225 1
44 227 1
44 228 1
44 235 1
44 237 1
44 238 1
44 239 1
44 240 1
45 5 1
45 6 1
45 32 1
45 34 1
45 37 1
45 41 1
45 43 1
45 44 1
45 45 1
45 57 1
45 63 1
45 64 1
45 65 1
45 71 1
45 73 1
45 74 1
45 75 1
45 77 1
45 79 1
45 80 1
45 82 1
45 90 1
45 181 1
45 202 1
45 209 1
45 211 1
45 212 1
45 213 1
45 217 1
45 227 1
45 229 1
45 230 1
45 237 1
45 239 1
45 240 1
46 7 1
46 33 1
46 34 1
46 35 1
46 36 1
46 40 1
46 44 1
46 45 1
46 48 1
46 60 1
46 61 1
46 62 1
46 65 1
46 68 1
46 74 1
46 75 1
46 78 1
46 80 1
46 81 1
46 83 1
46 84 1
46 182 1
46 184 1
46 203 1
46 204 1
46 211 1
46 213 1
46 216 1
46 220 1
46 230 1
46 231 1
46 240 1
47 9 1
47 32 1
47 35 1
47 36 1
47 37 1
47 38 1
47 42 1
47 46 1
47 47 1
47 50 1
47 63 1
47 64 1
47 67 1
47 70 1
47 76 1
47 77 1
47 80 1
47 82 1
47 83 1
47 85 1
47 86 1
47 184 1
47 186 1
47 205 1
47 206 1
47 212 1
47 213 1
47 215 1
47 218 1
47 222 1
47 232 1
47 233 1
48 11 1
48 34 1
48 37 1
48 38 1
48 39 1
48 40 1
48 44 1
48 48 1
48 49 1
48 52 1
48 65 1
48 66 1
48 69 1
48 72 1
48 78 1
48 79 1
48 82 1
48 84 1
48 85 1
48 87 1
48 88 1
48 186 1
48 188 1
48 207 1
48 208 1
48 214 1
48 215 1
48 217 1
48 220 1
48 224 1
48 234 1
48 235 1
49 13 1
49 36 1
49 39 1
49 40 1
49 41 1
49 42 1
49 46 1
49 50 1
49 51 1
49 54 1
49 67 1
49 68 1
49 71 1
49 74 1
49 80 1
49 81 1
49 84 1
49 86 1
49 87 1
49 89 1
49 90 1
49 188 1
49 190 1
49 209 1
49 210 1
49 216 1
49 217 1
49 219 1
49 222 1
49 226 1
49 236 1
49 237 1
50 15 1
50 38 1
50 41 1
50 42 1
50 43 1
50 44 1
50 48 1
50 52 1
50 53 1
50 56 1
50 61 1
50 62 1
50 69 1
50 70 1
50 73 1
50 76 1
50 82 1
50 83 1
50 86 1
50 88 1
50 89 1
50 181 1
50 182 1
50 190 1
50 192 1
50 218 1
50 219 1
50 221 1
50 224 1
50 228 1
50 238 1
50 239 1
51 17 1
51 40 1
51 43 1
51 44 1
51 45 1
51 46 1
51 50 1
51 54 1
51 55 1
51 58 1
51 61 1
51 63 1
51 64 1
51 71 1
51 72 1
51 75 1
51 78 1
51 84 1
51 85 1
51 88 1
51 90 1
51 183 1
51 184 1
51 192 1
51 194 1
51 211 1
51 220 1
51 221 1
51 223 1
51 226 1
51 230 1
51 240 1
52 19 1
52 42 1
52 45 1
52 46 1
52 47 1
52 48 1
52 52 1
52 56 1
52 57 1
52 60 1
52 62 1
52 63 1
52 65 1
52 66 1
52 73 1
52 74 1
52 77 1
52 80 1
52 86 1
52 87 1
52 90 1
52 185 1
52 186 1
52 194 1
52 196 1
52 212 1
52 213 1
52 222 1
52 223 1
52 225 1
52 228 1
52 232 1
53 21 1
53 32 1
53 44 1
53 47 1
53 48 1
53 49 1
53 50 1
53 54 1
53 58 1
53 59 1
53 62 1
53 64 1
53 65 1
53 67 1
53 68 1
53 75 1
53 76 1
53 79 1
53 82 1
53 88 1
53 89 1
53 187 1
53 188 1
53 196 1
53 198 1
53 214 1
53 215 1
53 224 1
53 225 1
53 227 1
53 230 1
53 234 1
54 23 1
54 31 1
54 34 1
54 46 1
54 49 1
54 50 1
54 51 1
54 52 1
54 56 1
54 60 1
54 61 1
54 64 1
54 66 1
54 67 1
54 69 1
54 70 1
54 77 1
54 78 1
54 81 1
54 84 1
54 90 1
54 189 1
54 190 1
54 198 1
54 200 1
54 216 1
54 217 1
54 226 1
54 227 1
54 229 1
54 232 1
54 236 1
55 25 1
55 32 1
55 33 1
55 36 1
55 48 1
55 51 1
55 52 1
55 53 1
55 54 1
55 58 1
55 62 1
55 63 1
55 66 1
55 68 1
55 69 1
55 71 1
55 72 1
55 79 1
55 80 1
55 83 1
55 86 1
55 191 1
55 192 1
55 200 1
55 202 1
55 218 1
55 219 1
55 228 1
55 229 1
55 231 1
55 234 1
55 238 1
56 27 1
56 34 1
56 35 1
56 38 1
56 50 1
56 53 1
56 54 1
56 55 1
56 56 1
56 60 1
56 64 1
56 65 1
56 68 1
56 70 1
56 71 1
56 73 1
56 74 1
56 81 1
56 82 1
56 85 1
56 88 1
56 193 1
56 194 1
56 202 1
56 204 1
56 220 1
56 221 1
56 230 1
56 231 1
56 233 1
56 236 1
56 240 1
57 29 1
57 32 1
57 36 1
57 37 1
57 40 1
57 52 1
57 55 1
57 56 1
57 57 1
57 58 1
57 66 1
57 67 1
57 70 1
57 72 1
57 73 1
57 75 1
57 76 1
57 83 1
57 84 1
57 87 1
57 90 1
57 195 1
57 196 1
57 204 1
57 206 1
57 212 1
57 222 1
57 223 1
57 232 1
57 233 1
57 235 1
57 238 1
58 1 1
58 34 1
58 38 1
58 39 1
58 42 1
58 54 1
58 57 1
58 58 1
58 59 1
58 60 1
58 62 1
58 68 1
58 69 1
58 72 1
58 74 1
58 75 1
58 77 1
58 78 1
58 85 1
58 86 1
58 89 1
58 197 1
58 198 1
58 206 1
58 208 1
58 214 1
58 224 1
58 225 1
58 234 1
58 235 1
58 237 1
58 240 1
59 3 1
59 31 1
59 32 1
59 36 1
59 40 1
59 41 1
59 44 1
59 56 1
59 59 1
59 60 1
59 61 1
59 64 1
59 70 1
59 71 1
59 74 1
59 76 1
59 77 1
59 79 1
59 80 1
59 87 1
59 88 1
59 199 1
59 200 1
59 208 1
59 210 1
59 212 1
59 216 1
59 226 1
59 227 1
59 236 1
59 237 1
59 239 1
60 5 1
60 31 1
60 32 1
60 33 1
60 34 1
60 38 1
60 42 1
60 43 1
60 46 1
60 58 1
60 63 1
60 66 1
60 72 1
60 73 1
60 76 1
60 78 1
60 79 1
60 81 1
60 82 1
60 89 1
60 90 1
60 182 1
60 201 1
60 202 1
60 210 1
60 211 1
60 214 1
60 218 1
60 228 1
60 229 1
60 238 1
60 239 1
