%%MatrixMarket matrix coordinate integer general
% GF(4) labels 0,1,2=omega,3=omega+1; arithmetic is NOT integer arithmetic.
% Coordinate indices are 1-based; omitted entries are zero.
30 120 765
1 1 1
1 19 3
1 22 2
1 23 2
1 24 3
1 25 3
1 28 1
1 30 3
1 34 1
1 38 2
1 39 1
1 41 1
1 43 1
1 44 2
1 45 1
1 99 3
1 104 2
1 106 2
1 109 2
1 112 2
1 114 1
1 115 3
1 116 1
1 120 2
2 2 1
2 16 3
2 20 3
2 23 2
2 24 2
2 25 3
2 26 3
2 29 1
2 31 1
2 35 1
2 39 2
2 40 1
2 42 1
2 44 1
2 45 2
2 100 3
2 105 2
2 106 2
2 107 2
2 110 2
2 113 2
2 115 1
2 116 3
2 117 1
3 3 1
3 17 3
3 21 3
3 24 2
3 25 2
3 26 3
3 27 3
3 30 1
3 31 2
3 32 1
3 36 1
3 40 2
3 41 1
3 43 1
3 45 1
3 91 2
3 101 3
3 107 2
3 108 2
3 111 2
3 114 2
3 116 1
3 117 3
3 118 1
4 4 1
4 16 1
4 18 3
4 22 3
4 25 2
4 26 2
4 27 3
4 28 3
4 31 1
4 32 2
4 33 1
4 37 1
4 41 2
4 42 1
4 44 1
4 92 2
4 102 3
4 108 2
4 109 2
4 112 2
4 115 2
4 117 1
4 118 3
4 119 1
5 5 1
5 17 1
5 19 3
5 23 3
5 26 2
5 27 2
5 28 3
5 29 3
5 32 1
5 33 2
5 34 1
5 38 1
5 42 2
5 43 1
5 45 1
5 93 2
5 103 3
5 109 2
5 110 2
5 113 2
5 116 2
5 118 1
5 119 3
5 120 1
6 6 1
6 18 1
6 20 3
6 24 3
6 27 2
6 28 2
6 29 3
6 30 3
6 31 1
6 33 1
6 34 2
6 35 1
6 39 1
6 43 2
6 44 1
6 94 2
6 104 3
6 106 1
6 110 2
6 111 2
6 114 2
6 117 2
6 119 1
6 120 3
7 7 1
7 16 3
7 19 1
7 21 3
7 25 3
7 28 2
7 29 2
7 30 3
7 32 1
7 34 1
7 35 2
7 36 1
7 40 1
7 44 2
7 45 1
7 95 2
7 105 3
7 106 3
7 107 1
7 111 2
7 112 2
7 115 2
7 118 2
7 120 1
8 8 1
8 16 3
8 17 3
8 20 1
8 22 3
8 26 3
8 29 2
8 30 2
8 31 1
8 33 1
8 35 1
8 36 2
8 37 1
8 41 1
8 45 2
8 91 3
8 96 2
8 106 1
8 107 3
8 108 1
8 112 2
8 113 2
8 116 2
8 119 2
9 9 1
9 16 2
9 17 3
9 18 3
9 21 1
9 23 3
9 27 3
9 30 2
9 31 2
9 32 1
9 34 1
9 36 1
9 37 2
9 38 1
9 42 1
9 92 3
9 97 2
9 107 1
9 108 3
9 109 1
9 113 2
9 114 2
9 117 2
9 120 2
10 10 1
10 16 2
10 17 2
10 18 3
10 19 3
10 22 1
10 24 3
10 28 3
10 32 2
10 33 1
10 35 1
10 37 1
10 38 2
10 39 1
10 43 1
10 93 3
10 98 2
10 106 2
10 108 1
10 109 3
10 110 1
10 114 2
10 115 2
10 118 2
11 11 1
11 17 2
11 18 2
11 19 3
11 20 3
11 23 1
11 25 3
11 29 3
11 33 2
11 34 1
11 36 1
11 38 1
11 39 2
11 40 1
11 44 1
11 94 3
11 99 2
11 107 2
11 109 1
11 110 3
11 111 1
11 115 2
11 116 2
11 119 2
12 12 1
12 18 2
12 19 2
12 20 3
12 21 3
12 24 1
12 26 3
12 30 3
12 34 2
12 35 1
12 37 1
12 39 1
12 40 2
12 41 1
12 45 1
12 95 3
12 100 2
12 108 2
12 110 1
12 111 3
12 112 1
12 116 2
12 117 2
12 120 2
13 13 1
13 16 3
13 19 2
13 20 2
13 21 3
13 22 3
13 25 1
13 27 3
13 31 1
13 35 2
13 36 1
13 38 1
13 40 1
13 41 2
13 42 1
13 96 3
13 101 2
13 106 2
13 109 2
13 111 1
13 112 3
13 113 1
13 117 2
13 118 2
14 14 1
14 17 3
14 20 2
14 21 2
14 22 3
14 23 3
14 26 1
14 28 3
14 32 1
14 36 2
14 37 1
14 39 1
14 41 1
14 42 2
14 43 1
14 97 3
14 102 2
14 107 2
14 110 2
14 112 1
14 113 3
14 114 1
14 118 2
14 119 2
15 15 1
15 18 3
15 21 2
15 22 2
15 23 3
15 24 3
15 27 1
15 29 3
15 33 1
15 37 2
15 38 1
15 40 1
15 42 1
15 43 2
15 44 1
15 98 3
15 103 2
15 108 2
15 111 2
15 113 1
15 114 3
15 115 1
15 119 2
15 120 2
16 4 3
16 17 2
16 18 2
16 20 1
16 22 1
16 23 3
16 24 1
16 30 1
16 31 2
16 33 3
16 34 1
16 37 1
16 38 3
16 39 1
16 40 1
16 41 3
16 42 2
16 91 1
16 92 1
16 102 2
16 106 3
16 107 3
16 108 1
16 110 1
16 115 1
16 116 3
16 120 1
17 5 3
17 16 1
17 18 2
17 19 2
17 21 1
17 23 1
17 24 3
17 25 1
17 32 2
17 34 3
17 35 1
17 38 1
17 39 3
17 40 1
17 41 1
17 42 3
17 43 2
17 92 1
17 93 1
17 103 2
17 106 1
17 107 3
17 108 3
17 109 1
17 111 1
17 116 1
17 117 3
18 6 3
18 17 1
18 19 2
18 20 2
18 22 1
18 24 1
18 25 3
18 26 1
18 33 2
18 35 3
18 36 1
18 39 1
18 40 3
18 41 1
18 42 1
18 43 3
18 44 2
18 93 1
18 94 1
18 104 2
18 107 1
18 108 3
18 109 3
18 110 1
18 112 1
18 117 1
18 118 3
19 7 3
19 18 1
19 20 2
19 21 2
19 23 1
19 25 1
19 26 3
19 27 1
19 34 2
19 36 3
19 37 1
19 40 1
19 41 3
19 42 1
19 43 1
19 44 3
19 45 2
19 94 1
19 95 1
19 105 2
19 108 1
19 109 3
19 110 3
19 111 1
19 113 1
19 118 1
19 119 3
20 8 3
20 19 1
20 21 2
20 22 2
20 24 1
20 26 1
20 27 3
20 28 1
20 31 2
20 35 2
20 37 3
20 38 1
20 41 1
20 42 3
20 43 1
20 44 1
20 45 3
20 91 2
20 95 1
20 96 1
20 109 1
20 110 3
20 111 3
20 112 1
20 114 1
20 119 1
20 120 3
21 9 3
21 20 1
21 22 2
21 23 2
21 25 1
21 27 1
21 28 3
21 29 1
21 31 3
21 32 2
21 36 2
21 38 3
21 39 1
21 42 1
21 43 3
21 44 1
21 45 1
21 92 2
21 96 1
21 97 1
21 106 3
21 110 1
21 111 3
21 112 3
21 113 1
21 115 1
21 120 1
22 10 3
22 21 1
22 23 2
22 24 2
22 26 1
22 28 1
22 29 3
22 30 1
22 31 1
22 32 3
22 33 2
22 37 2
22 39 3
22 40 1
22 43 1
22 44 3
22 45 1
22 93 2
22 97 1
22 98 1
22 106 1
22 107 3
22 111 1
22 112 3
22 113 3
22 114 1
22 116 1
23 11 3
23 16 1
23 22 1
23 24 2
23 25 2
23 27 1
23 29 1
23 30 3
23 31 1
23 32 1
23 33 3
23 34 2
23 38 2
23 40 3
23 41 1
23 44 1
23 45 3
23 94 2
23 98 1
23 99 1
23 107 1
23 108 3
23 112 1
23 113 3
23 114 3
23 115 1
23 117 1
24 12 3
24 16 3
24 17 1
24 23 1
24 25 2
24 26 2
24 28 1
24 30 1
24 31 3
24 32 1
24 33 1
24 34 3
24 35 2
24 39 2
24 41 3
24 42 1
24 45 1
24 95 2
24 99 1
24 100 1
24 108 1
24 109 3
24 113 1
24 114 3
24 115 3
24 116 1
24 118 1
25 13 3
25 16 1
25 17 3
25 18 1
25 24 1
25 26 2
25 27 2
25 29 1
25 31 1
25 32 3
25 33 1
25 34 1
25 35 3
25 36 2
25 40 2
25 42 3
25 43 1
25 96 2
25 100 1
25 101 1
25 109 1
25 110 3
25 114 1
25 115 3
25 116 3
25 117 1
25 119 1
26 14 3
26 17 1
26 18 3
26 19 1
26 25 1
26 27 2
26 28 2
26 30 1
26 32 1
26 33 3
26 34 1
26 35 1
26 36 3
26 37 2
26 41 2
26 43 3
26 44 1
26 97 2
26 101 1
26 102 1
26 110 1
26 111 3
26 115 1
26 116 3
26 117 3
26 118 1
26 120 1
27 15 3
27 16 1
27 18 1
27 19 3
27 20 1
27 26 1
27 28 2
27 29 2
27 33 1
27 34 3
27 35 1
27 36 1
27 37 3
27 38 2
27 42 2
27 44 3
27 45 1
27 98 2
27 102 1
27 103 1
27 106 1
27 111 1
27 112 3
27 116 1
27 117 3
27 118 3
27 119 1
28 1 3
28 17 1
28 19 1
28 20 3
28 21 1
28 27 1
28 29 2
28 30 2
28 31 1
28 34 1
28 35 3
28 36 1
28 37 1
28 38 3
28 39 2
28 43 2
28 45 3
28 99 2
28 103 1
28 104 1
28 107 1
28 112 1
28 113 3
28 117 1
28 118 3
28 119 3
28 120 1
29 2 3
29 16 2
29 18 1
29 20 1
29 21 3
29 22 1
29 28 1
29 30 2
29 31 3
29 32 1
29 35 1
29 36 3
29 37 1
29 38 1
29 39 3
29 40 2
29 44 2
29 100 2
29 104 1
29 105 1
29 106 1
29 108 1
29 113 1
29 114 3
29 118 1
29 119 3
29 120 3
30 3 3
30 16 2
30 17 2
30 19 1
30 21 1
30 22 3
30 23 1
30 29 1
30 32 3
30 33 1
30 36 1
30 37 3
30 38 1
30 39 1
30 40 3
30 41 2
30 45 2
30 91 1
30 101 2
30 105 1
30 106 3
30 107 1
30 109 1
30 114 1
30 115 3
30 119 1
30 120 3
