%%MatrixMarket matrix coordinate integer general
% Binary matrix over GF(2).
% Coordinate indices are 1-based; omitted entries are zero.
96 256 816
1 2 1
1 33 1
1 65 1
1 97 1
1 129 1
1 161 1
1 193 1
1 225 1
2 1 1
2 2 1
2 34 1
2 66 1
2 98 1
2 130 1
2 162 1
2 194 1
2 226 1
3 4 1
3 35 1
3 67 1
3 99 1
3 131 1
3 163 1
3 195 1
3 227 1
4 3 1
4 4 1
4 36 1
4 68 1
4 100 1
4 132 1
4 164 1
4 196 1
4 228 1
5 6 1
5 37 1
5 69 1
5 101 1
5 133 1
5 165 1
5 197 1
5 229 1
6 5 1
6 6 1
6 38 1
6 70 1
6 102 1
6 134 1
6 166 1
6 198 1
6 230 1
7 8 1
7 39 1
7 71 1
7 103 1
7 135 1
7 167 1
7 199 1
7 231 1
8 7 1
8 8 1
8 40 1
8 72 1
8 104 1
8 136 1
8 168 1
8 200 1
8 232 1
9 10 1
9 41 1
9 73 1
9 105 1
9 137 1
9 169 1
9 201 1
9 233 1
10 9 1
10 10 1
10 42 1
10 74 1
10 106 1
10 138 1
10 170 1
10 202 1
10 234 1
11 12 1
11 43 1
11 75 1
11 107 1
11 139 1
11 171 1
11 203 1
11 235 1
12 11 1
12 12 1
12 44 1
12 76 1
12 108 1
12 140 1
12 172 1
12 204 1
12 236 1
13 14 1
13 45 1
13 77 1
13 109 1
13 141 1
13 173 1
13 205 1
13 237 1
14 13 1
14 14 1
14 46 1
14 78 1
14 110 1
14 142 1
14 174 1
14 206 1
14 238 1
15 16 1
15 47 1
15 79 1
15 111 1
15 143 1
15 175 1
15 207 1
15 239 1
16 15 1
16 16 1
16 48 1
16 80 1
16 112 1
16 144 1
16 176 1
16 208 1
16 240 1
17 18 1
17 49 1
17 81 1
17 113 1
17 145 1
17 177 1
17 209 1
17 241 1
18 17 1
18 18 1
18 50 1
18 82 1
18 114 1
18 146 1
18 178 1
18 210 1
18 242 1
19 20 1
19 51 1
19 83 1
19 115 1
19 147 1
19 179 1
19 211 1
19 243 1
20 19 1
20 20 1
20 52 1
20 84 1
20 116 1
20 148 1
20 180 1
20 212 1
20 244 1
21 22 1
21 53 1
21 85 1
21 117 1
21 149 1
21 181 1
21 213 1
21 245 1
22 21 1
22 22 1
22 54 1
22 86 1
22 118 1
22 150 1
22 182 1
22 214 1
22 246 1
23 24 1
23 55 1
23 87 1
23 119 1
23 151 1
23 183 1
23 215 1
23 247 1
24 23 1
24 24 1
24 56 1
24 88 1
24 120 1
24 152 1
24 184 1
24 216 1
24 248 1
25 26 1
25 57 1
25 89 1
25 121 1
25 153 1
25 185 1
25 217 1
25 249 1
26 25 1
26 26 1
26 58 1
26 90 1
26 122 1
26 154 1
26 186 1
26 218 1
26 250 1
27 28 1
27 59 1
27 91 1
27 123 1
27 155 1
27 187 1
27 219 1
27 251 1
28 27 1
28 28 1
28 60 1
28 92 1
28 124 1
28 156 1
28 188 1
28 220 1
28 252 1
29 30 1
29 61 1
29 93 1
29 125 1
29 157 1
29 189 1
29 221 1
29 253 1
30 29 1
30 30 1
30 62 1
30 94 1
30 126 1
30 158 1
30 190 1
30 222 1
30 254 1
31 32 1
31 63 1
31 95 1
31 127 1
31 159 1
31 191 1
31 223 1
31 255 1
32 31 1
32 32 1
32 64 1
32 96 1
32 128 1
32 160 1
32 192 1
32 224 1
32 256 1
33 1 1
33 42 1
33 95 1
33 113 1
33 149 1
33 185 1
33 221 1
33 239 1
34 2 1
34 41 1
34 42 1
34 96 1
34 114 1
34 150 1
34 186 1
34 222 1
34 240 1
35 3 1
35 44 1
35 65 1
35 115 1
35 151 1
35 187 1
35 223 1
35 241 1
36 4 1
36 43 1
36 44 1
36 66 1
36 116 1
36 152 1
36 188 1
36 224 1
36 242 1
37 5 1
37 46 1
37 67 1
37 117 1
37 153 1
37 189 1
37 193 1
37 243 1
38 6 1
38 45 1
38 46 1
38 68 1
38 118 1
38 154 1
38 190 1
38 194 1
38 244 1
39 7 1
39 48 1
39 69 1
39 119 1
39 155 1
39 191 1
39 195 1
39 245 1
40 8 1
40 47 1
40 48 1
40 70 1
40 120 1
40 156 1
40 192 1
40 196 1
40 246 1
41 9 1
41 50 1
41 71 1
41 121 1
41 157 1
41 161 1
41 197 1
41 247 1
42 10 1
42 49 1
42 50 1
42 72 1
42 122 1
42 158 1
42 162 1
42 198 1
42 248 1
43 11 1
43 52 1
43 73 1
43 123 1
43 159 1
43 163 1
43 199 1
43 249 1
44 12 1
44 51 1
44 52 1
44 74 1
44 124 1
44 160 1
44 164 1
44 200 1
44 250 1
45 13 1
45 54 1
45 75 1
45 125 1
45 129 1
45 165 1
45 201 1
45 251 1
46 14 1
46 53 1
46 54 1
46 76 1
46 126 1
46 130 1
46 166 1
46 202 1
46 252 1
47 15 1
47 56 1
47 77 1
47 127 1
47 131 1
47 167 1
47 203 1
47 253 1
48 16 1
48 55 1
48 56 1
48 78 1
48 128 1
48 132 1
48 168 1
48 204 1
48 254 1
49 17 1
49 58 1
49 79 1
49 97 1
49 133 1
49 169 1
49 205 1
49 255 1
50 18 1
50 57 1
50 58 1
50 80 1
50 98 1
50 134 1
50 170 1
50 206 1
50 256 1
51 19 1
51 60 1
51 81 1
51 99 1
51 135 1
51 171 1
51 207 1
51 225 1
52 20 1
52 59 1
52 60 1
52 82 1
52 100 1
52 136 1
52 172 1
52 208 1
52 226 1
53 21 1
53 62 1
53 83 1
53 101 1
53 137 1
53 173 1
53 209 1
53 227 1
54 22 1
54 61 1
54 62 1
54 84 1
54 102 1
54 138 1
54 174 1
54 210 1
54 228 1
55 23 1
55 64 1
55 85 1
55 103 1
55 139 1
55 175 1
55 211 1
55 229 1
56 24 1
56 63 1
56 64 1
56 86 1
56 104 1
56 140 1
56 176 1
56 212 1
56 230 1
57 25 1
57 34 1
57 87 1
57 105 1
57 141 1
57 177 1
57 213 1
57 231 1
58 26 1
58 33 1
58 34 1
58 88 1
58 106 1
58 142 1
58 178 1
58 214 1
58 232 1
59 27 1
59 36 1
59 89 1
59 107 1
59 143 1
59 179 1
59 215 1
59 233 1
60 28 1
60 35 1
60 36 1
60 90 1
60 108 1
60 144 1
60 180 1
60 216 1
60 234 1
61 29 1
61 38 1
61 91 1
61 109 1
61 145 1
61 181 1
61 217 1
61 235 1
62 30 1
62 37 1
62 38 1
62 92 1
62 110 1
62 146 1
62 182 1
62 218 1
62 236 1
63 31 1
63 40 1
63 93 1
63 111 1
63 147 1
63 183 1
63 219 1
63 237 1
64 32 1
64 39 1
64 40 1
64 94 1
64 112 1
64 148 1
64 184 1
64 220 1
64 238 1
65 1 1
65 57 1
65 88 1
65 111 1
65 131 1
65 189 1
65 197 1
65 251 1
66 2 1
66 58 1
66 87 1
66 88 1
66 112 1
66 132 1
66 190 1
66 198 1
66 252 1
67 3 1
67 59 1
67 90 1
67 113 1
67 133 1
67 191 1
67 199 1
67 253 1
68 4 1
68 60 1
68 89 1
68 90 1
68 114 1
68 134 1
68 192 1
68 200 1
68 254 1
69 5 1
69 61 1
69 92 1
69 115 1
69 135 1
69 161 1
69 201 1
69 255 1
70 6 1
70 62 1
70 91 1
70 92 1
70 116 1
70 136 1
70 162 1
70 202 1
70 256 1
71 7 1
71 63 1
71 94 1
71 117 1
71 137 1
71 163 1
71 203 1
71 225 1
72 8 1
72 64 1
72 93 1
72 94 1
72 118 1
72 138 1
72 164 1
72 204 1
72 226 1
73 9 1
73 33 1
73 96 1
73 119 1
73 139 1
73 165 1
73 205 1
73 227 1
74 10 1
74 34 1
74 95 1
74 96 1
74 120 1
74 140 1
74 166 1
74 206 1
74 228 1
75 11 1
75 35 1
75 66 1
75 121 1
75 141 1
75 167 1
75 207 1
75 229 1
76 12 1
76 36 1
76 65 1
76 66 1
76 122 1
76 142 1
76 168 1
76 208 1
76 230 1
77 13 1
77 37 1
77 68 1
77 123 1
77 143 1
77 169 1
77 209 1
77 231 1
78 14 1
78 38 1
78 67 1
78 68 1
78 124 1
78 144 1
78 170 1
78 210 1
78 232 1
79 15 1
79 39 1
79 70 1
79 125 1
79 145 1
79 171 1
79 211 1
79 233 1
80 16 1
80 40 1
80 69 1
80 70 1
80 126 1
80 146 1
80 172 1
80 212 1
80 234 1
81 17 1
81 41 1
81 72 1
81 127 1
81 147 1
81 173 1
81 213 1
81 235 1
82 18 1
82 42 1
82 71 1
82 72 1
82 128 1
82 148 1
82 174 1
82 214 1
82 236 1
83 19 1
83 43 1
83 74 1
83 97 1
83 149 1
83 175 1
83 215 1
83 237 1
84 20 1
84 44 1
84 73 1
84 74 1
84 98 1
84 150 1
84 176 1
84 216 1
84 238 1
85 21 1
85 45 1
85 76 1
85 99 1
85 151 1
85 177 1
85 217 1
85 239 1
86 22 1
86 46 1
86 75 1
86 76 1
86 100 1
86 152 1
86 178 1
86 218 1
86 240 1
87 23 1
87 47 1
87 78 1
87 101 1
87 153 1
87 179 1
87 219 1
87 241 1
88 24 1
88 48 1
88 77 1
88 78 1
88 102 1
88 154 1
88 180 1
88 220 1
88 242 1
89 25 1
89 49 1
89 80 1
89 103 1
89 155 1
89 181 1
89 221 1
89 243 1
90 26 1
90 50 1
90 79 1
90 80 1
90 104 1
90 156 1
90 182 1
90 222 1
90 244 1
91 27 1
91 51 1
91 82 1
91 105 1
91 157 1
91 183 1
91 223 1
91 245 1
92 28 1
92 52 1
92 81 1
92 82 1
92 106 1
92 158 1
92 184 1
92 224 1
92 246 1
93 29 1
93 53 1
93 84 1
93 107 1
93 159 1
93 185 1
93 193 1
93 247 1
94 30 1
94 54 1
94 83 1
94 84 1
94 108 1
94 160 1
94 186 1
94 194 1
94 248 1
95 31 1
95 55 1
95 86 1
95 109 1
95 129 1
95 187 1
95 195 1
95 249 1
96 32 1
96 56 1
96 85 1
96 86 1
96 110 1
96 130 1
96 188 1
96 196 1
96 250 1
