%%MatrixMarket matrix coordinate integer general
% GF(4) labels 0,1,2=omega,3=omega+1; arithmetic is NOT integer arithmetic.
% Coordinate indices are 1-based; omitted entries are zero.
48 128 384
1 1 2
1 17 1
1 33 1
1 49 1
1 65 1
1 81 1
1 97 1
1 113 1
2 2 2
2 18 1
2 34 1
2 50 1
2 66 1
2 82 1
2 98 1
2 114 1
3 3 2
3 19 1
3 35 1
3 51 1
3 67 1
3 83 1
3 99 1
3 115 1
4 4 2
4 20 1
4 36 1
4 52 1
4 68 1
4 84 1
4 100 1
4 116 1
5 5 2
5 21 1
5 37 1
5 53 1
5 69 1
5 85 1
5 101 1
5 117 1
6 6 2
6 22 1
6 38 1
6 54 1
6 70 1
6 86 1
6 102 1
6 118 1
7 7 2
7 23 1
7 39 1
7 55 1
7 71 1
7 87 1
7 103 1
7 119 1
8 8 2
8 24 1
8 40 1
8 56 1
8 72 1
8 88 1
8 104 1
8 120 1
9 9 2
9 25 1
9 41 1
9 57 1
9 73 1
9 89 1
9 105 1
9 121 1
10 10 2
10 26 1
10 42 1
10 58 1
10 74 1
10 90 1
10 106 1
10 122 1
11 11 2
11 27 1
11 43 1
11 59 1
11 75 1
11 91 1
11 107 1
11 123 1
12 12 2
12 28 1
12 44 1
12 60 1
12 76 1
12 92 1
12 108 1
12 124 1
13 13 2
13 29 1
13 45 1
13 61 1
13 77 1
13 93 1
13 109 1
13 125 1
14 14 2
14 30 1
14 46 1
14 62 1
14 78 1
14 94 1
14 110 1
14 126 1
15 15 2
15 31 1
15 47 1
15 63 1
15 79 1
15 95 1
15 111 1
15 127 1
16 16 2
16 32 1
16 48 1
16 64 1
16 80 1
16 96 1
16 112 1
16 128 1
17 1 1
17 21 2
17 48 1
17 57 1
17 75 1
17 93 1
17 111 1
17 120 1
18 2 1
18 22 2
18 33 1
18 58 1
18 76 1
18 94 1
18 112 1
18 121 1
19 3 1
19 23 2
19 34 1
19 59 1
19 77 1
19 95 1
19 97 1
19 122 1
20 4 1
20 24 2
20 35 1
20 60 1
20 78 1
20 96 1
20 98 1
20 123 1
21 5 1
21 25 2
21 36 1
21 61 1
21 79 1
21 81 1
21 99 1
21 124 1
22 6 1
22 26 2
22 37 1
22 62 1
22 80 1
22 82 1
22 100 1
22 125 1
23 7 1
23 27 2
23 38 1
23 63 1
23 65 1
23 83 1
23 101 1
23 126 1
24 8 1
24 28 2
24 39 1
24 64 1
24 66 1
24 84 1
24 102 1
24 127 1
25 9 1
25 29 2
25 40 1
25 49 1
25 67 1
25 85 1
25 103 1
25 128 1
26 10 1
26 30 2
26 41 1
26 50 1
26 68 1
26 86 1
26 104 1
26 113 1
27 11 1
27 31 2
27 42 1
27 51 1
27 69 1
27 87 1
27 105 1
27 114 1
28 12 1
28 32 2
28 43 1
28 52 1
28 70 1
28 88 1
28 106 1
28 115 1
29 13 1
29 17 2
29 44 1
29 53 1
29 71 1
29 89 1
29 107 1
29 116 1
30 14 1
30 18 2
30 45 1
30 54 1
30 72 1
30 90 1
30 108 1
30 117 1
31 15 1
31 19 2
31 46 1
31 55 1
31 73 1
31 91 1
31 109 1
31 118 1
32 16 1
32 20 2
32 47 1
32 56 1
32 74 1
32 92 1
32 110 1
32 119 1
33 1 1
33 29 1
33 44 2
33 56 1
33 66 1
33 95 1
33 99 1
33 126 1
34 2 1
34 30 1
34 45 2
34 57 1
34 67 1
34 96 1
34 100 1
34 127 1
35 3 1
35 31 1
35 46 2
35 58 1
35 68 1
35 81 1
35 101 1
35 128 1
36 4 1
36 32 1
36 47 2
36 59 1
36 69 1
36 82 1
36 102 1
36 113 1
37 5 1
37 17 1
37 48 2
37 60 1
37 70 1
37 83 1
37 103 1
37 114 1
38 6 1
38 18 1
38 33 2
38 61 1
38 71 1
38 84 1
38 104 1
38 115 1
39 7 1
39 19 1
39 34 2
39 62 1
39 72 1
39 85 1
39 105 1
39 116 1
40 8 1
40 20 1
40 35 2
40 63 1
40 73 1
40 86 1
40 106 1
40 117 1
41 9 1
41 21 1
41 36 2
41 64 1
41 74 1
41 87 1
41 107 1
41 118 1
42 10 1
42 22 1
42 37 2
42 49 1
42 75 1
42 88 1
42 108 1
42 119 1
43 11 1
43 23 1
43 38 2
43 50 1
43 76 1
43 89 1
43 109 1
43 120 1
44 12 1
44 24 1
44 39 2
44 51 1
44 77 1
44 90 1
44 110 1
44 121 1
45 13 1
45 25 1
45 40 2
45 52 1
45 78 1
45 91 1
45 111 1
45 122 1
46 14 1
46 26 1
46 41 2
46 53 1
46 79 1
46 92 1
46 112 1
46 123 1
47 15 1
47 27 1
47 42 2
47 54 1
47 80 1
47 93 1
47 97 1
47 124 1
48 16 1
48 28 1
48 43 2
48 55 1
48 65 1
48 94 1
48 98 1
48 125 1
