%%MatrixMarket matrix coordinate integer general
% Binary matrix over GF(2).
% Coordinate indices are 1-based; omitted entries are zero.
96 256 816
1 1 1
1 53 1
1 85 1
1 121 1
1 130 1
1 185 1
1 197 1
1 229 1
2 2 1
2 54 1
2 86 1
2 122 1
2 129 1
2 130 1
2 186 1
2 198 1
2 230 1
3 3 1
3 55 1
3 87 1
3 123 1
3 132 1
3 187 1
3 199 1
3 231 1
4 4 1
4 56 1
4 88 1
4 124 1
4 131 1
4 132 1
4 188 1
4 200 1
4 232 1
5 5 1
5 57 1
5 89 1
5 125 1
5 134 1
5 189 1
5 201 1
5 233 1
6 6 1
6 58 1
6 90 1
6 126 1
6 133 1
6 134 1
6 190 1
6 202 1
6 234 1
7 7 1
7 59 1
7 91 1
7 127 1
7 136 1
7 191 1
7 203 1
7 235 1
8 8 1
8 60 1
8 92 1
8 128 1
8 135 1
8 136 1
8 192 1
8 204 1
8 236 1
9 9 1
9 61 1
9 93 1
9 97 1
9 138 1
9 161 1
9 205 1
9 237 1
10 10 1
10 62 1
10 94 1
10 98 1
10 137 1
10 138 1
10 162 1
10 206 1
10 238 1
11 11 1
11 63 1
11 95 1
11 99 1
11 140 1
11 163 1
11 207 1
11 239 1
12 12 1
12 64 1
12 96 1
12 100 1
12 139 1
12 140 1
12 164 1
12 208 1
12 240 1
13 13 1
13 33 1
13 65 1
13 101 1
13 142 1
13 165 1
13 209 1
13 241 1
14 14 1
14 34 1
14 66 1
14 102 1
14 141 1
14 142 1
14 166 1
14 210 1
14 242 1
15 15 1
15 35 1
15 67 1
15 103 1
15 144 1
15 167 1
15 211 1
15 243 1
16 16 1
16 36 1
16 68 1
16 104 1
16 143 1
16 144 1
16 168 1
16 212 1
16 244 1
17 17 1
17 37 1
17 69 1
17 105 1
17 146 1
17 169 1
17 213 1
17 245 1
18 18 1
18 38 1
18 70 1
18 106 1
18 145 1
18 146 1
18 170 1
18 214 1
18 246 1
19 19 1
19 39 1
19 71 1
19 107 1
19 148 1
19 171 1
19 215 1
19 247 1
20 20 1
20 40 1
20 72 1
20 108 1
20 147 1
20 148 1
20 172 1
20 216 1
20 248 1
21 21 1
21 41 1
21 73 1
21 109 1
21 150 1
21 173 1
21 217 1
21 249 1
22 22 1
22 42 1
22 74 1
22 110 1
22 149 1
22 150 1
22 174 1
22 218 1
22 250 1
23 23 1
23 43 1
23 75 1
23 111 1
23 152 1
23 175 1
23 219 1
23 251 1
24 24 1
24 44 1
24 76 1
24 112 1
24 151 1
24 152 1
24 176 1
24 220 1
24 252 1
25 25 1
25 45 1
25 77 1
25 113 1
25 154 1
25 177 1
25 221 1
25 253 1
26 26 1
26 46 1
26 78 1
26 114 1
26 153 1
26 154 1
26 178 1
26 222 1
26 254 1
27 27 1
27 47 1
27 79 1
27 115 1
27 156 1
27 179 1
27 223 1
27 255 1
28 28 1
28 48 1
28 80 1
28 116 1
28 155 1
28 156 1
28 180 1
28 224 1
28 256 1
29 29 1
29 49 1
29 81 1
29 117 1
29 158 1
29 181 1
29 193 1
29 225 1
30 30 1
30 50 1
30 82 1
30 118 1
30 157 1
30 158 1
30 182 1
30 194 1
30 226 1
31 31 1
31 51 1
31 83 1
31 119 1
31 160 1
31 183 1
31 195 1
31 227 1
32 32 1
32 52 1
32 84 1
32 120 1
32 159 1
32 160 1
32 184 1
32 196 1
32 228 1
33 1 1
33 49 1
33 91 1
33 125 1
33 145 1
33 162 1
33 221 1
33 251 1
34 2 1
34 50 1
34 92 1
34 126 1
34 146 1
34 161 1
34 162 1
34 222 1
34 252 1
35 3 1
35 51 1
35 93 1
35 127 1
35 147 1
35 164 1
35 223 1
35 253 1
36 4 1
36 52 1
36 94 1
36 128 1
36 148 1
36 163 1
36 164 1
36 224 1
36 254 1
37 5 1
37 53 1
37 95 1
37 97 1
37 149 1
37 166 1
37 193 1
37 255 1
38 6 1
38 54 1
38 96 1
38 98 1
38 150 1
38 165 1
38 166 1
38 194 1
38 256 1
39 7 1
39 55 1
39 65 1
39 99 1
39 151 1
39 168 1
39 195 1
39 225 1
40 8 1
40 56 1
40 66 1
40 100 1
40 152 1
40 167 1
40 168 1
40 196 1
40 226 1
41 9 1
41 57 1
41 67 1
41 101 1
41 153 1
41 170 1
41 197 1
41 227 1
42 10 1
42 58 1
42 68 1
42 102 1
42 154 1
42 169 1
42 170 1
42 198 1
42 228 1
43 11 1
43 59 1
43 69 1
43 103 1
43 155 1
43 172 1
43 199 1
43 229 1
44 12 1
44 60 1
44 70 1
44 104 1
44 156 1
44 171 1
44 172 1
44 200 1
44 230 1
45 13 1
45 61 1
45 71 1
45 105 1
45 157 1
45 174 1
45 201 1
45 231 1
46 14 1
46 62 1
46 72 1
46 106 1
46 158 1
46 173 1
46 174 1
46 202 1
46 232 1
47 15 1
47 63 1
47 73 1
47 107 1
47 159 1
47 176 1
47 203 1
47 233 1
48 16 1
48 64 1
48 74 1
48 108 1
48 160 1
48 175 1
48 176 1
48 204 1
48 234 1
49 17 1
49 33 1
49 75 1
49 109 1
49 129 1
49 178 1
49 205 1
49 235 1
50 18 1
50 34 1
50 76 1
50 110 1
50 130 1
50 177 1
50 178 1
50 206 1
50 236 1
51 19 1
51 35 1
51 77 1
51 111 1
51 131 1
51 180 1
51 207 1
51 237 1
52 20 1
52 36 1
52 78 1
52 112 1
52 132 1
52 179 1
52 180 1
52 208 1
52 238 1
53 21 1
53 37 1
53 79 1
53 113 1
53 133 1
53 182 1
53 209 1
53 239 1
54 22 1
54 38 1
54 80 1
54 114 1
54 134 1
54 181 1
54 182 1
54 210 1
54 240 1
55 23 1
55 39 1
55 81 1
55 115 1
55 135 1
55 184 1
55 211 1
55 241 1
56 24 1
56 40 1
56 82 1
56 116 1
56 136 1
56 183 1
56 184 1
56 212 1
56 242 1
57 25 1
57 41 1
57 83 1
57 117 1
57 137 1
57 186 1
57 213 1
57 243 1
58 26 1
58 42 1
58 84 1
58 118 1
58 138 1
58 185 1
58 186 1
58 214 1
58 244 1
59 27 1
59 43 1
59 85 1
59 119 1
59 139 1
59 188 1
59 215 1
59 245 1
60 28 1
60 44 1
60 86 1
60 120 1
60 140 1
60 187 1
60 188 1
60 216 1
60 246 1
61 29 1
61 45 1
61 87 1
61 121 1
61 141 1
61 190 1
61 217 1
61 247 1
62 30 1
62 46 1
62 88 1
62 122 1
62 142 1
62 189 1
62 190 1
62 218 1
62 248 1
63 31 1
63 47 1
63 89 1
63 123 1
63 143 1
63 192 1
63 219 1
63 249 1
64 32 1
64 48 1
64 90 1
64 124 1
64 144 1
64 191 1
64 192 1
64 220 1
64 250 1
65 1 1
65 45 1
65 83 1
65 111 1
65 147 1
65 173 1
65 194 1
65 239 1
66 2 1
66 46 1
66 84 1
66 112 1
66 148 1
66 174 1
66 193 1
66 194 1
66 240 1
67 3 1
67 47 1
67 85 1
67 113 1
67 149 1
67 175 1
67 196 1
67 241 1
68 4 1
68 48 1
68 86 1
68 114 1
68 150 1
68 176 1
68 195 1
68 196 1
68 242 1
69 5 1
69 49 1
69 87 1
69 115 1
69 151 1
69 177 1
69 198 1
69 243 1
70 6 1
70 50 1
70 88 1
70 116 1
70 152 1
70 178 1
70 197 1
70 198 1
70 244 1
71 7 1
71 51 1
71 89 1
71 117 1
71 153 1
71 179 1
71 200 1
71 245 1
72 8 1
72 52 1
72 90 1
72 118 1
72 154 1
72 180 1
72 199 1
72 200 1
72 246 1
73 9 1
73 53 1
73 91 1
73 119 1
73 155 1
73 181 1
73 202 1
73 247 1
74 10 1
74 54 1
74 92 1
74 120 1
74 156 1
74 182 1
74 201 1
74 202 1
74 248 1
75 11 1
75 55 1
75 93 1
75 121 1
75 157 1
75 183 1
75 204 1
75 249 1
76 12 1
76 56 1
76 94 1
76 122 1
76 158 1
76 184 1
76 203 1
76 204 1
76 250 1
77 13 1
77 57 1
77 95 1
77 123 1
77 159 1
77 185 1
77 206 1
77 251 1
78 14 1
78 58 1
78 96 1
78 124 1
78 160 1
78 186 1
78 205 1
78 206 1
78 252 1
79 15 1
79 59 1
79 65 1
79 125 1
79 129 1
79 187 1
79 208 1
79 253 1
80 16 1
80 60 1
80 66 1
80 126 1
80 130 1
80 188 1
80 207 1
80 208 1
80 254 1
81 17 1
81 61 1
81 67 1
81 127 1
81 131 1
81 189 1
81 210 1
81 255 1
82 18 1
82 62 1
82 68 1
82 128 1
82 132 1
82 190 1
82 209 1
82 210 1
82 256 1
83 19 1
83 63 1
83 69 1
83 97 1
83 133 1
83 191 1
83 212 1
83 225 1
84 20 1
84 64 1
84 70 1
84 98 1
84 134 1
84 192 1
84 211 1
84 212 1
84 226 1
85 21 1
85 33 1
85 71 1
85 99 1
85 135 1
85 161 1
85 214 1
85 227 1
86 22 1
86 34 1
86 72 1
86 100 1
86 136 1
86 162 1
86 213 1
86 214 1
86 228 1
87 23 1
87 35 1
87 73 1
87 101 1
87 137 1
87 163 1
87 216 1
87 229 1
88 24 1
88 36 1
88 74 1
88 102 1
88 138 1
88 164 1
88 215 1
88 216 1
88 230 1
89 25 1
89 37 1
89 75 1
89 103 1
89 139 1
89 165 1
89 218 1
89 231 1
90 26 1
90 38 1
90 76 1
90 104 1
90 140 1
90 166 1
90 217 1
90 218 1
90 232 1
91 27 1
91 39 1
91 77 1
91 105 1
91 141 1
91 167 1
91 220 1
91 233 1
92 28 1
92 40 1
92 78 1
92 106 1
92 142 1
92 168 1
92 219 1
92 220 1
92 234 1
93 29 1
93 41 1
93 79 1
93 107 1
93 143 1
93 169 1
93 222 1
93 235 1
94 30 1
94 42 1
94 80 1
94 108 1
94 144 1
94 170 1
94 221 1
94 222 1
94 236 1
95 31 1
95 43 1
95 81 1
95 109 1
95 145 1
95 171 1
95 224 1
95 237 1
96 32 1
96 44 1
96 82 1
96 110 1
96 146 1
96 172 1
96 223 1
96 224 1
96 238 1
