%%MatrixMarket matrix coordinate integer general
% GF(4) labels 0,1,2=omega,3=omega+1; arithmetic is NOT integer arithmetic.
% Coordinate indices are 1-based; omitted entries are zero.
48 128 384
1 1 1
1 27 1
1 43 1
1 61 1
1 65 2
1 93 1
1 99 1
1 115 1
2 2 1
2 28 1
2 44 1
2 62 1
2 66 2
2 94 1
2 100 1
2 116 1
3 3 1
3 29 1
3 45 1
3 63 1
3 67 2
3 95 1
3 101 1
3 117 1
4 4 1
4 30 1
4 46 1
4 64 1
4 68 2
4 96 1
4 102 1
4 118 1
5 5 1
5 31 1
5 47 1
5 49 1
5 69 2
5 81 1
5 103 1
5 119 1
6 6 1
6 32 1
6 48 1
6 50 1
6 70 2
6 82 1
6 104 1
6 120 1
7 7 1
7 17 1
7 33 1
7 51 1
7 71 2
7 83 1
7 105 1
7 121 1
8 8 1
8 18 1
8 34 1
8 52 1
8 72 2
8 84 1
8 106 1
8 122 1
9 9 1
9 19 1
9 35 1
9 53 1
9 73 2
9 85 1
9 107 1
9 123 1
10 10 1
10 20 1
10 36 1
10 54 1
10 74 2
10 86 1
10 108 1
10 124 1
11 11 1
11 21 1
11 37 1
11 55 1
11 75 2
11 87 1
11 109 1
11 125 1
12 12 1
12 22 1
12 38 1
12 56 1
12 76 2
12 88 1
12 110 1
12 126 1
13 13 1
13 23 1
13 39 1
13 57 1
13 77 2
13 89 1
13 111 1
13 127 1
14 14 1
14 24 1
14 40 1
14 58 1
14 78 2
14 90 1
14 112 1
14 128 1
15 15 1
15 25 1
15 41 1
15 59 1
15 79 2
15 91 1
15 97 1
15 113 1
16 16 1
16 26 1
16 42 1
16 60 1
16 80 2
16 92 1
16 98 1
16 114 1
17 1 1
17 25 1
17 46 1
17 63 1
17 73 1
17 81 2
17 111 1
17 126 1
18 2 1
18 26 1
18 47 1
18 64 1
18 74 1
18 82 2
18 112 1
18 127 1
19 3 1
19 27 1
19 48 1
19 49 1
19 75 1
19 83 2
19 97 1
19 128 1
20 4 1
20 28 1
20 33 1
20 50 1
20 76 1
20 84 2
20 98 1
20 113 1
21 5 1
21 29 1
21 34 1
21 51 1
21 77 1
21 85 2
21 99 1
21 114 1
22 6 1
22 30 1
22 35 1
22 52 1
22 78 1
22 86 2
22 100 1
22 115 1
23 7 1
23 31 1
23 36 1
23 53 1
23 79 1
23 87 2
23 101 1
23 116 1
24 8 1
24 32 1
24 37 1
24 54 1
24 80 1
24 88 2
24 102 1
24 117 1
25 9 1
25 17 1
25 38 1
25 55 1
25 65 1
25 89 2
25 103 1
25 118 1
26 10 1
26 18 1
26 39 1
26 56 1
26 66 1
26 90 2
26 104 1
26 119 1
27 11 1
27 19 1
27 40 1
27 57 1
27 67 1
27 91 2
27 105 1
27 120 1
28 12 1
28 20 1
28 41 1
28 58 1
28 68 1
28 92 2
28 106 1
28 121 1
29 13 1
29 21 1
29 42 1
29 59 1
29 69 1
29 93 2
29 107 1
29 122 1
30 14 1
30 22 1
30 43 1
30 60 1
30 70 1
30 94 2
30 108 1
30 123 1
31 15 1
31 23 1
31 44 1
31 61 1
31 71 1
31 95 2
31 109 1
31 124 1
32 16 1
32 24 1
32 45 1
32 62 1
32 72 1
32 96 2
32 110 1
32 125 1
33 1 1
33 23 1
33 42 1
33 56 1
33 74 1
33 87 1
33 97 2
33 120 1
34 2 1
34 24 1
34 43 1
34 57 1
34 75 1
34 88 1
34 98 2
34 121 1
35 3 1
35 25 1
35 44 1
35 58 1
35 76 1
35 89 1
35 99 2
35 122 1
36 4 1
36 26 1
36 45 1
36 59 1
36 77 1
36 90 1
36 100 2
36 123 1
37 5 1
37 27 1
37 46 1
37 60 1
37 78 1
37 91 1
37 101 2
37 124 1
38 6 1
38 28 1
38 47 1
38 61 1
38 79 1
38 92 1
38 102 2
38 125 1
39 7 1
39 29 1
39 48 1
39 62 1
39 80 1
39 93 1
39 103 2
39 126 1
40 8 1
40 30 1
40 33 1
40 63 1
40 65 1
40 94 1
40 104 2
40 127 1
41 9 1
41 31 1
41 34 1
41 64 1
41 66 1
41 95 1
41 105 2
41 128 1
42 10 1
42 32 1
42 35 1
42 49 1
42 67 1
42 96 1
42 106 2
42 113 1
43 11 1
43 17 1
43 36 1
43 50 1
43 68 1
43 81 1
43 107 2
43 114 1
44 12 1
44 18 1
44 37 1
44 51 1
44 69 1
44 82 1
44 108 2
44 115 1
45 13 1
45 19 1
45 38 1
45 52 1
45 70 1
45 83 1
45 109 2
45 116 1
46 14 1
46 20 1
46 39 1
46 53 1
46 71 1
46 84 1
46 110 2
46 117 1
47 15 1
47 21 1
47 40 1
47 54 1
47 72 1
47 85 1
47 111 2
47 118 1
48 16 1
48 22 1
48 41 1
48 55 1
48 73 1
48 86 1
48 112 2
48 119 1
