%%MatrixMarket matrix coordinate integer general
% Binary matrix over GF(2).
% Coordinate indices are 1-based; omitted entries are zero.
64 256 1552
1 108 1
1 123 1
1 129 1
1 137 1
1 138 1
1 142 1
1 144 1
1 149 1
1 159 1
1 165 1
1 166 1
1 175 1
1 184 1
1 186 1
1 187 1
1 191 1
1 203 1
1 205 1
1 211 1
1 212 1
1 216 1
1 218 1
1 219 1
2 110 1
2 125 1
2 129 1
2 131 1
2 139 1
2 140 1
2 144 1
2 146 1
2 151 1
2 161 1
2 167 1
2 168 1
2 177 1
2 186 1
2 188 1
2 189 1
2 205 1
2 207 1
2 213 1
2 214 1
2 218 1
2 220 1
2 221 1
3 112 1
3 127 1
3 131 1
3 133 1
3 141 1
3 142 1
3 146 1
3 148 1
3 153 1
3 163 1
3 169 1
3 170 1
3 179 1
3 188 1
3 190 1
3 191 1
3 207 1
3 209 1
3 215 1
3 216 1
3 220 1
3 222 1
3 223 1
4 97 1
4 114 1
4 133 1
4 135 1
4 143 1
4 144 1
4 148 1
4 150 1
4 155 1
4 161 1
4 165 1
4 171 1
4 172 1
4 181 1
4 190 1
4 192 1
4 193 1
4 209 1
4 211 1
4 217 1
4 218 1
4 222 1
4 224 1
5 99 1
5 116 1
5 135 1
5 137 1
5 145 1
5 146 1
5 150 1
5 152 1
5 157 1
5 162 1
5 163 1
5 167 1
5 173 1
5 174 1
5 183 1
5 192 1
5 194 1
5 195 1
5 211 1
5 213 1
5 219 1
5 220 1
5 224 1
6 101 1
6 118 1
6 137 1
6 139 1
6 147 1
6 148 1
6 152 1
6 154 1
6 159 1
6 162 1
6 164 1
6 165 1
6 169 1
6 175 1
6 176 1
6 185 1
6 194 1
6 196 1
6 197 1
6 213 1
6 215 1
6 221 1
6 222 1
7 103 1
7 120 1
7 129 1
7 139 1
7 141 1
7 149 1
7 150 1
7 154 1
7 156 1
7 164 1
7 166 1
7 167 1
7 171 1
7 177 1
7 178 1
7 187 1
7 196 1
7 198 1
7 199 1
7 215 1
7 217 1
7 223 1
7 224 1
8 105 1
8 122 1
8 131 1
8 141 1
8 143 1
8 151 1
8 152 1
8 156 1
8 158 1
8 166 1
8 168 1
8 169 1
8 173 1
8 179 1
8 180 1
8 189 1
8 193 1
8 194 1
8 198 1
8 200 1
8 201 1
8 217 1
8 219 1
9 107 1
9 124 1
9 133 1
9 143 1
9 145 1
9 153 1
9 154 1
9 158 1
9 160 1
9 168 1
9 170 1
9 171 1
9 175 1
9 181 1
9 182 1
9 191 1
9 195 1
9 196 1
9 200 1
9 202 1
9 203 1
9 219 1
9 221 1
10 109 1
10 126 1
10 130 1
10 135 1
10 145 1
10 147 1
10 155 1
10 156 1
10 160 1
10 161 1
10 170 1
10 172 1
10 173 1
10 177 1
10 183 1
10 184 1
10 197 1
10 198 1
10 202 1
10 204 1
10 205 1
10 221 1
10 223 1
11 111 1
11 128 1
11 130 1
11 132 1
11 137 1
11 147 1
11 149 1
11 157 1
11 158 1
11 163 1
11 172 1
11 174 1
11 175 1
11 179 1
11 185 1
11 186 1
11 193 1
11 199 1
11 200 1
11 204 1
11 206 1
11 207 1
11 223 1
12 98 1
12 113 1
12 132 1
12 134 1
12 139 1
12 149 1
12 151 1
12 159 1
12 160 1
12 165 1
12 174 1
12 176 1
12 177 1
12 181 1
12 187 1
12 188 1
12 193 1
12 195 1
12 201 1
12 202 1
12 206 1
12 208 1
12 209 1
13 100 1
13 115 1
13 129 1
13 130 1
13 134 1
13 136 1
13 141 1
13 151 1
13 153 1
13 167 1
13 176 1
13 178 1
13 179 1
13 183 1
13 189 1
13 190 1
13 195 1
13 197 1
13 203 1
13 204 1
13 208 1
13 210 1
13 211 1
14 102 1
14 117 1
14 131 1
14 132 1
14 136 1
14 138 1
14 143 1
14 153 1
14 155 1
14 169 1
14 178 1
14 180 1
14 181 1
14 185 1
14 191 1
14 192 1
14 197 1
14 199 1
14 205 1
14 206 1
14 210 1
14 212 1
14 213 1
15 104 1
15 119 1
15 133 1
15 134 1
15 138 1
15 140 1
15 145 1
15 155 1
15 157 1
15 161 1
15 162 1
15 171 1
15 180 1
15 182 1
15 183 1
15 187 1
15 199 1
15 201 1
15 207 1
15 208 1
15 212 1
15 214 1
15 215 1
16 106 1
16 121 1
16 135 1
16 136 1
16 140 1
16 142 1
16 147 1
16 157 1
16 159 1
16 163 1
16 164 1
16 173 1
16 182 1
16 184 1
16 185 1
16 189 1
16 201 1
16 203 1
16 209 1
16 210 1
16 214 1
16 216 1
16 217 1
17 107 1
17 108 1
17 124 1
17 130 1
17 137 1
17 141 1
17 142 1
17 143 1
17 144 1
17 150 1
17 160 1
17 165 1
17 176 1
17 183 1
17 184 1
17 185 1
17 186 1
17 188 1
17 192 1
17 204 1
17 206 1
17 211 1
17 215 1
17 216 1
17 217 1
17 218 1
17 220 1
18 109 1
18 110 1
18 126 1
18 130 1
18 132 1
18 139 1
18 143 1
18 144 1
18 145 1
18 146 1
18 152 1
18 162 1
18 167 1
18 178 1
18 185 1
18 186 1
18 187 1
18 188 1
18 190 1
18 206 1
18 208 1
18 213 1
18 217 1
18 218 1
18 219 1
18 220 1
18 222 1
19 111 1
19 112 1
19 128 1
19 132 1
19 134 1
19 141 1
19 145 1
19 146 1
19 147 1
19 148 1
19 154 1
19 164 1
19 169 1
19 180 1
19 187 1
19 188 1
19 189 1
19 190 1
19 192 1
19 208 1
19 210 1
19 215 1
19 219 1
19 220 1
19 221 1
19 222 1
19 224 1
20 98 1
20 113 1
20 114 1
20 134 1
20 136 1
20 143 1
20 147 1
20 148 1
20 149 1
20 150 1
20 156 1
20 162 1
20 166 1
20 171 1
20 182 1
20 189 1
20 190 1
20 191 1
20 192 1
20 194 1
20 210 1
20 212 1
20 217 1
20 221 1
20 222 1
20 223 1
20 224 1
21 100 1
21 115 1
21 116 1
21 136 1
21 138 1
21 145 1
21 149 1
21 150 1
21 151 1
21 152 1
21 158 1
21 161 1
21 162 1
21 164 1
21 168 1
21 173 1
21 184 1
21 191 1
21 192 1
21 193 1
21 194 1
21 196 1
21 212 1
21 214 1
21 219 1
21 223 1
21 224 1
22 102 1
22 117 1
22 118 1
22 138 1
22 140 1
22 147 1
22 151 1
22 152 1
22 153 1
22 154 1
22 160 1
22 161 1
22 162 1
22 163 1
22 164 1
22 166 1
22 170 1
22 175 1
22 186 1
22 193 1
22 194 1
22 195 1
22 196 1
22 198 1
22 214 1
22 216 1
22 221 1
23 104 1
23 119 1
23 120 1
23 130 1
23 140 1
23 142 1
23 149 1
23 153 1
23 154 1
23 155 1
23 156 1
23 163 1
23 164 1
23 165 1
23 166 1
23 168 1
23 172 1
23 177 1
23 188 1
23 195 1
23 196 1
23 197 1
23 198 1
23 200 1
23 216 1
23 218 1
23 223 1
24 106 1
24 121 1
24 122 1
24 132 1
24 142 1
24 144 1
24 151 1
24 155 1
24 156 1
24 157 1
24 158 1
24 165 1
24 166 1
24 167 1
24 168 1
24 170 1
24 174 1
24 179 1
24 190 1
24 193 1
24 197 1
24 198 1
24 199 1
24 200 1
24 202 1
24 218 1
24 220 1
25 108 1
25 123 1
25 124 1
25 134 1
25 144 1
25 146 1
25 153 1
25 157 1
25 158 1
25 159 1
25 160 1
25 167 1
25 168 1
25 169 1
25 170 1
25 172 1
25 176 1
25 181 1
25 192 1
25 195 1
25 199 1
25 200 1
25 201 1
25 202 1
25 204 1
25 220 1
25 222 1
26 110 1
26 125 1
26 126 1
26 129 1
26 130 1
26 136 1
26 146 1
26 148 1
26 155 1
26 159 1
26 160 1
26 162 1
26 169 1
26 170 1
26 171 1
26 172 1
26 174 1
26 178 1
26 183 1
26 197 1
26 201 1
26 202 1
26 203 1
26 204 1
26 206 1
26 222 1
26 224 1
27 112 1
27 127 1
27 128 1
27 129 1
27 130 1
27 131 1
27 132 1
27 138 1
27 148 1
27 150 1
27 157 1
27 164 1
27 171 1
27 172 1
27 173 1
27 174 1
27 176 1
27 180 1
27 185 1
27 194 1
27 199 1
27 203 1
27 204 1
27 205 1
27 206 1
27 208 1
27 224 1
28 97 1
28 98 1
28 114 1
28 131 1
28 132 1
28 133 1
28 134 1
28 140 1
28 150 1
28 152 1
28 159 1
28 166 1
28 173 1
28 174 1
28 175 1
28 176 1
28 178 1
28 182 1
28 187 1
28 194 1
28 196 1
28 201 1
28 205 1
28 206 1
28 207 1
28 208 1
28 210 1
29 99 1
29 100 1
29 116 1
29 129 1
29 133 1
29 134 1
29 135 1
29 136 1
29 142 1
29 152 1
29 154 1
29 168 1
29 175 1
29 176 1
29 177 1
29 178 1
29 180 1
29 184 1
29 189 1
29 196 1
29 198 1
29 203 1
29 207 1
29 208 1
29 209 1
29 210 1
29 212 1
30 101 1
30 102 1
30 118 1
30 131 1
30 135 1
30 136 1
30 137 1
30 138 1
30 144 1
30 154 1
30 156 1
30 170 1
30 177 1
30 178 1
30 179 1
30 180 1
30 182 1
30 186 1
30 191 1
30 198 1
30 200 1
30 205 1
30 209 1
30 210 1
30 211 1
30 212 1
30 214 1
31 103 1
31 104 1
31 120 1
31 133 1
31 137 1
31 138 1
31 139 1
31 140 1
31 146 1
31 156 1
31 158 1
31 161 1
31 172 1
31 179 1
31 180 1
31 181 1
31 182 1
31 184 1
31 188 1
31 200 1
31 202 1
31 207 1
31 211 1
31 212 1
31 213 1
31 214 1
31 216 1
32 105 1
32 106 1
32 122 1
32 135 1
32 139 1
32 140 1
32 141 1
32 142 1
32 148 1
32 158 1
32 160 1
32 163 1
32 174 1
32 181 1
32 182 1
32 183 1
32 184 1
32 186 1
32 190 1
32 202 1
32 204 1
32 209 1
32 213 1
32 214 1
32 215 1
32 216 1
32 218 1
33 149 1
33 150 1
33 151 1
33 152 1
33 158 1
33 159 1
33 160 1
33 168 1
33 173 1
33 175 1
33 176 1
33 177 1
33 178 1
33 183 1
33 191 1
33 192 1
33 193 1
33 194 1
33 204 1
33 212 1
33 219 1
33 221 1
33 222 1
33 235 1
33 251 1
33 252 1
34 129 1
34 130 1
34 151 1
34 152 1
34 153 1
34 154 1
34 160 1
34 161 1
34 162 1
34 170 1
34 175 1
34 177 1
34 178 1
34 179 1
34 180 1
34 185 1
34 195 1
34 196 1
34 206 1
34 214 1
34 221 1
34 223 1
34 224 1
34 237 1
34 253 1
34 254 1
35 130 1
35 131 1
35 132 1
35 153 1
35 154 1
35 155 1
35 156 1
35 163 1
35 164 1
35 172 1
35 177 1
35 179 1
35 180 1
35 181 1
35 182 1
35 187 1
35 193 1
35 194 1
35 197 1
35 198 1
35 208 1
35 216 1
35 223 1
35 239 1
35 255 1
35 256 1
36 132 1
36 133 1
36 134 1
36 155 1
36 156 1
36 157 1
36 158 1
36 165 1
36 166 1
36 174 1
36 179 1
36 181 1
36 182 1
36 183 1
36 184 1
36 189 1
36 193 1
36 195 1
36 196 1
36 199 1
36 200 1
36 210 1
36 218 1
36 225 1
36 226 1
36 241 1
37 134 1
37 135 1
37 136 1
37 157 1
37 158 1
37 159 1
37 160 1
37 167 1
37 168 1
37 176 1
37 181 1
37 183 1
37 184 1
37 185 1
37 186 1
37 191 1
37 195 1
37 197 1
37 198 1
37 201 1
37 202 1
37 212 1
37 220 1
37 227 1
37 228 1
37 243 1
38 129 1
38 130 1
38 136 1
38 137 1
38 138 1
38 159 1
38 160 1
38 161 1
38 169 1
38 170 1
38 178 1
38 183 1
38 185 1
38 186 1
38 187 1
38 188 1
38 197 1
38 199 1
38 200 1
38 203 1
38 204 1
38 214 1
38 222 1
38 229 1
38 230 1
38 245 1
39 129 1
39 130 1
39 131 1
39 132 1
39 138 1
39 139 1
39 140 1
39 163 1
39 171 1
39 172 1
39 180 1
39 185 1
39 187 1
39 188 1
39 189 1
39 190 1
39 199 1
39 201 1
39 202 1
39 205 1
39 206 1
39 216 1
39 224 1
39 231 1
39 232 1
39 247 1
40 131 1
40 132 1
40 133 1
40 134 1
40 140 1
40 141 1
40 142 1
40 165 1
40 173 1
40 174 1
40 182 1
40 187 1
40 189 1
40 190 1
40 191 1
40 192 1
40 194 1
40 201 1
40 203 1
40 204 1
40 207 1
40 208 1
40 218 1
40 233 1
40 234 1
40 249 1
41 133 1
41 134 1
41 135 1
41 136 1
41 142 1
41 143 1
41 144 1
41 161 1
41 162 1
41 167 1
41 175 1
41 176 1
41 184 1
41 189 1
41 191 1
41 192 1
41 196 1
41 203 1
41 205 1
41 206 1
41 209 1
41 210 1
41 220 1
41 235 1
41 236 1
41 251 1
42 135 1
42 136 1
42 137 1
42 138 1
42 144 1
42 145 1
42 146 1
42 161 1
42 162 1
42 163 1
42 164 1
42 169 1
42 177 1
42 178 1
42 186 1
42 191 1
42 198 1
42 205 1
42 207 1
42 208 1
42 211 1
42 212 1
42 222 1
42 237 1
42 238 1
42 253 1
43 137 1
43 138 1
43 139 1
43 140 1
43 146 1
43 147 1
43 148 1
43 161 1
43 163 1
43 164 1
43 165 1
43 166 1
43 171 1
43 179 1
43 180 1
43 188 1
43 200 1
43 207 1
43 209 1
43 210 1
43 213 1
43 214 1
43 224 1
43 239 1
43 240 1
43 255 1
44 139 1
44 140 1
44 141 1
44 142 1
44 148 1
44 149 1
44 150 1
44 163 1
44 165 1
44 166 1
44 167 1
44 168 1
44 173 1
44 181 1
44 182 1
44 190 1
44 194 1
44 202 1
44 209 1
44 211 1
44 212 1
44 215 1
44 216 1
44 225 1
44 241 1
44 242 1
45 141 1
45 142 1
45 143 1
45 144 1
45 150 1
45 151 1
45 152 1
45 165 1
45 167 1
45 168 1
45 169 1
45 170 1
45 175 1
45 183 1
45 184 1
45 192 1
45 196 1
45 204 1
45 211 1
45 213 1
45 214 1
45 217 1
45 218 1
45 227 1
45 243 1
45 244 1
46 143 1
46 144 1
46 145 1
46 146 1
46 152 1
46 153 1
46 154 1
46 162 1
46 167 1
46 169 1
46 170 1
46 171 1
46 172 1
46 177 1
46 185 1
46 186 1
46 198 1
46 206 1
46 213 1
46 215 1
46 216 1
46 219 1
46 220 1
46 229 1
46 245 1
46 246 1
47 145 1
47 146 1
47 147 1
47 148 1
47 154 1
47 155 1
47 156 1
47 164 1
47 169 1
47 171 1
47 172 1
47 173 1
47 174 1
47 179 1
47 187 1
47 188 1
47 200 1
47 208 1
47 215 1
47 217 1
47 218 1
47 221 1
47 222 1
47 231 1
47 247 1
47 248 1
48 147 1
48 148 1
48 149 1
48 150 1
48 156 1
48 157 1
48 158 1
48 166 1
48 171 1
48 173 1
48 174 1
48 175 1
48 176 1
48 181 1
48 189 1
48 190 1
48 202 1
48 210 1
48 217 1
48 219 1
48 220 1
48 223 1
48 224 1
48 233 1
48 249 1
48 250 1
49 149 1
49 151 1
49 157 1
49 158 1
49 159 1
49 167 1
49 168 1
49 174 1
49 175 1
49 177 1
49 184 1
49 191 1
49 193 1
49 203 1
49 204 1
49 211 1
49 212 1
49 220 1
49 221 1
49 236 1
49 251 1
50 129 1
50 151 1
50 153 1
50 159 1
50 160 1
50 161 1
50 169 1
50 170 1
50 176 1
50 177 1
50 179 1
50 186 1
50 195 1
50 205 1
50 206 1
50 213 1
50 214 1
50 222 1
50 223 1
50 238 1
50 253 1
51 129 1
51 130 1
51 131 1
51 153 1
51 155 1
51 163 1
51 171 1
51 172 1
51 178 1
51 179 1
51 181 1
51 188 1
51 193 1
51 197 1
51 207 1
51 208 1
51 215 1
51 216 1
51 224 1
51 240 1
51 255 1
52 131 1
52 132 1
52 133 1
52 155 1
52 157 1
52 165 1
52 173 1
52 174 1
52 180 1
52 181 1
52 183 1
52 190 1
52 194 1
52 195 1
52 199 1
52 209 1
52 210 1
52 217 1
52 218 1
52 225 1
52 242 1
53 133 1
53 134 1
53 135 1
53 157 1
53 159 1
53 167 1
53 175 1
53 176 1
53 182 1
53 183 1
53 185 1
53 192 1
53 196 1
53 197 1
53 201 1
53 211 1
53 212 1
53 219 1
53 220 1
53 227 1
53 244 1
54 129 1
54 135 1
54 136 1
54 137 1
54 159 1
54 162 1
54 169 1
54 177 1
54 178 1
54 184 1
54 185 1
54 187 1
54 198 1
54 199 1
54 203 1
54 213 1
54 214 1
54 221 1
54 222 1
54 229 1
54 246 1
55 129 1
55 131 1
55 137 1
55 138 1
55 139 1
55 164 1
55 171 1
55 179 1
55 180 1
55 186 1
55 187 1
55 189 1
55 200 1
55 201 1
55 205 1
55 215 1
55 216 1
55 223 1
55 224 1
55 231 1
55 248 1
56 131 1
56 133 1
56 139 1
56 140 1
56 141 1
56 166 1
56 173 1
56 181 1
56 182 1
56 188 1
56 189 1
56 191 1
56 193 1
56 194 1
56 202 1
56 203 1
56 207 1
56 217 1
56 218 1
56 233 1
56 250 1
57 133 1
57 135 1
57 141 1
57 142 1
57 143 1
57 161 1
57 168 1
57 175 1
57 183 1
57 184 1
57 190 1
57 191 1
57 195 1
57 196 1
57 204 1
57 205 1
57 209 1
57 219 1
57 220 1
57 235 1
57 252 1
58 135 1
58 137 1
58 143 1
58 144 1
58 145 1
58 161 1
58 163 1
58 170 1
58 177 1
58 185 1
58 186 1
58 192 1
58 197 1
58 198 1
58 206 1
58 207 1
58 211 1
58 221 1
58 222 1
58 237 1
58 254 1
59 137 1
59 139 1
59 145 1
59 146 1
59 147 1
59 162 1
59 163 1
59 165 1
59 172 1
59 179 1
59 187 1
59 188 1
59 199 1
59 200 1
59 208 1
59 209 1
59 213 1
59 223 1
59 224 1
59 239 1
59 256 1
60 139 1
60 141 1
60 147 1
60 148 1
60 149 1
60 164 1
60 165 1
60 167 1
60 174 1
60 181 1
60 189 1
60 190 1
60 193 1
60 194 1
60 201 1
60 202 1
60 210 1
60 211 1
60 215 1
60 226 1
60 241 1
61 141 1
61 143 1
61 149 1
61 150 1
61 151 1
61 166 1
61 167 1
61 169 1
61 176 1
61 183 1
61 191 1
61 192 1
61 195 1
61 196 1
61 203 1
61 204 1
61 212 1
61 213 1
61 217 1
61 228 1
61 243 1
62 143 1
62 145 1
62 151 1
62 152 1
62 153 1
62 161 1
62 162 1
62 168 1
62 169 1
62 171 1
62 178 1
62 185 1
62 197 1
62 198 1
62 205 1
62 206 1
62 214 1
62 215 1
62 219 1
62 230 1
62 245 1
63 145 1
63 147 1
63 153 1
63 154 1
63 155 1
63 163 1
63 164 1
63 170 1
63 171 1
63 173 1
63 180 1
63 187 1
63 199 1
63 200 1
63 207 1
63 208 1
63 216 1
63 217 1
63 221 1
63 232 1
63 247 1
64 147 1
64 149 1
64 155 1
64 156 1
64 157 1
64 165 1
64 166 1
64 172 1
64 173 1
64 175 1
64 182 1
64 189 1
64 201 1
64 202 1
64 209 1
64 210 1
64 218 1
64 219 1
64 223 1
64 234 1
64 249 1
