%%MatrixMarket matrix coordinate integer general
% GF(4) labels 0,1,2=omega,3=omega+1; arithmetic is NOT integer arithmetic.
% Coordinate indices are 1-based; omitted entries are zero.
32 128 592
1 54 2
1 62 1
1 65 1
1 69 3
1 71 2
1 72 2
1 75 1
1 80 1
1 83 3
1 88 1
1 92 2
1 93 2
1 94 1
1 96 1
1 102 1
1 103 1
1 106 3
1 108 2
1 109 2
1 110 1
2 55 2
2 63 1
2 65 1
2 66 1
2 70 3
2 72 2
2 73 2
2 76 1
2 81 1
2 84 3
2 89 1
2 93 2
2 94 2
2 95 1
2 103 1
2 104 1
2 107 3
2 109 2
2 110 2
2 111 1
3 56 2
3 64 1
3 66 1
3 67 1
3 71 3
3 73 2
3 74 2
3 77 1
3 82 1
3 85 3
3 90 1
3 94 2
3 95 2
3 96 1
3 104 1
3 105 1
3 108 3
3 110 2
3 111 2
3 112 1
4 49 1
4 57 2
4 67 1
4 68 1
4 72 3
4 74 2
4 75 2
4 78 1
4 81 1
4 83 1
4 86 3
4 91 1
4 95 2
4 96 2
4 97 1
4 105 1
4 106 1
4 109 3
4 111 2
4 112 2
5 50 1
5 58 2
5 68 1
5 69 1
5 73 3
5 75 2
5 76 2
5 79 1
5 81 2
5 82 1
5 84 1
5 87 3
5 92 1
5 96 2
5 97 2
5 98 1
5 106 1
5 107 1
5 110 3
5 112 2
6 51 1
6 59 2
6 69 1
6 70 1
6 74 3
6 76 2
6 77 2
6 80 1
6 81 2
6 82 2
6 83 1
6 85 1
6 88 3
6 93 1
6 97 2
6 98 2
6 99 1
6 107 1
6 108 1
6 111 3
7 52 1
7 60 2
7 65 1
7 70 1
7 71 1
7 75 3
7 77 2
7 78 2
7 82 2
7 83 2
7 84 1
7 86 1
7 89 3
7 94 1
7 98 2
7 99 2
7 100 1
7 108 1
7 109 1
7 112 3
8 53 1
8 61 2
8 66 1
8 71 1
8 72 1
8 76 3
8 78 2
8 79 2
8 83 2
8 84 2
8 85 1
8 87 1
8 90 3
8 95 1
8 97 3
8 99 2
8 100 2
8 101 1
8 109 1
8 110 1
9 54 1
9 62 2
9 67 1
9 72 1
9 73 1
9 77 3
9 79 2
9 80 2
9 84 2
9 85 2
9 86 1
9 88 1
9 91 3
9 96 1
9 98 3
9 100 2
9 101 2
9 102 1
9 110 1
9 111 1
10 55 1
10 63 2
10 65 2
10 68 1
10 73 1
10 74 1
10 78 3
10 80 2
10 81 1
10 85 2
10 86 2
10 87 1
10 89 1
10 92 3
10 99 3
10 101 2
10 102 2
10 103 1
10 111 1
10 112 1
11 56 1
11 64 2
11 65 2
11 66 2
11 69 1
11 74 1
11 75 1
11 79 3
11 82 1
11 86 2
11 87 2
11 88 1
11 90 1
11 93 3
11 97 1
11 100 3
11 102 2
11 103 2
11 104 1
11 112 1
12 49 2
12 57 1
12 66 2
12 67 2
12 70 1
12 75 1
12 76 1
12 80 3
12 83 1
12 87 2
12 88 2
12 89 1
12 91 1
12 94 3
12 97 1
12 98 1
12 101 3
12 103 2
12 104 2
12 105 1
13 50 2
13 58 1
13 65 3
13 67 2
13 68 2
13 71 1
13 76 1
13 77 1
13 84 1
13 88 2
13 89 2
13 90 1
13 92 1
13 95 3
13 98 1
13 99 1
13 102 3
13 104 2
13 105 2
13 106 1
14 51 2
14 59 1
14 66 3
14 68 2
14 69 2
14 72 1
14 77 1
14 78 1
14 85 1
14 89 2
14 90 2
14 91 1
14 93 1
14 96 3
14 99 1
14 100 1
14 103 3
14 105 2
14 106 2
14 107 1
15 52 2
15 60 1
15 67 3
15 69 2
15 70 2
15 73 1
15 78 1
15 79 1
15 81 3
15 86 1
15 90 2
15 91 2
15 92 1
15 94 1
15 100 1
15 101 1
15 104 3
15 106 2
15 107 2
15 108 1
16 53 2
16 61 1
16 68 3
16 70 2
16 71 2
16 74 1
16 79 1
16 80 1
16 82 3
16 87 1
16 91 2
16 92 2
16 93 1
16 95 1
16 101 1
16 102 1
16 105 3
16 107 2
16 108 2
16 109 1
17 75 3
17 76 3
17 79 2
17 80 3
17 84 2
17 87 1
17 88 3
17 89 3
17 92 1
17 96 3
17 97 3
17 102 2
17 106 2
17 110 1
17 111 3
17 118 1
17 126 3
18 65 3
18 76 3
18 77 3
18 80 2
18 81 3
18 85 2
18 88 1
18 89 3
18 90 3
18 93 1
18 98 3
18 103 2
18 107 2
18 111 1
18 112 3
18 119 1
18 127 3
19 65 2
19 66 3
19 77 3
19 78 3
19 82 3
19 86 2
19 89 1
19 90 3
19 91 3
19 94 1
19 97 3
19 99 3
19 104 2
19 108 2
19 112 1
19 120 1
19 128 3
20 66 2
20 67 3
20 78 3
20 79 3
20 83 3
20 87 2
20 90 1
20 91 3
20 92 3
20 95 1
20 97 1
20 98 3
20 100 3
20 105 2
20 109 2
20 113 3
20 121 1
21 67 2
21 68 3
21 79 3
21 80 3
21 84 3
21 88 2
21 91 1
21 92 3
21 93 3
21 96 1
21 98 1
21 99 3
21 101 3
21 106 2
21 110 2
21 114 3
21 122 1
22 65 3
22 68 2
22 69 3
22 80 3
22 81 1
22 85 3
22 89 2
22 92 1
22 93 3
22 94 3
22 99 1
22 100 3
22 102 3
22 107 2
22 111 2
22 115 3
22 123 1
23 65 3
23 66 3
23 69 2
23 70 3
23 82 1
23 86 3
23 90 2
23 93 1
23 94 3
23 95 3
23 100 1
23 101 3
23 103 3
23 108 2
23 112 2
23 116 3
23 124 1
24 66 3
24 67 3
24 70 2
24 71 3
24 83 1
24 87 3
24 91 2
24 94 1
24 95 3
24 96 3
24 97 2
24 101 1
24 102 3
24 104 3
24 109 2
24 117 3
24 125 1
25 67 3
25 68 3
25 71 2
25 72 3
25 81 3
25 84 1
25 88 3
25 92 2
25 95 1
25 96 3
25 98 2
25 102 1
25 103 3
25 105 3
25 110 2
25 118 3
25 126 1
26 68 3
26 69 3
26 72 2
26 73 3
26 81 3
26 82 3
26 85 1
26 89 3
26 93 2
26 96 1
26 99 2
26 103 1
26 104 3
26 106 3
26 111 2
26 119 3
26 127 1
27 69 3
27 70 3
27 73 2
27 74 3
27 81 1
27 82 3
27 83 3
27 86 1
27 90 3
27 94 2
27 100 2
27 104 1
27 105 3
27 107 3
27 112 2
27 120 3
27 128 1
28 70 3
28 71 3
28 74 2
28 75 3
28 82 1
28 83 3
28 84 3
28 87 1
28 91 3
28 95 2
28 97 2
28 101 2
28 105 1
28 106 3
28 108 3
28 113 1
28 121 3
29 71 3
29 72 3
29 75 2
29 76 3
29 83 1
29 84 3
29 85 3
29 88 1
29 92 3
29 96 2
29 98 2
29 102 2
29 106 1
29 107 3
29 109 3
29 114 1
29 122 3
30 72 3
30 73 3
30 76 2
30 77 3
30 81 2
30 84 1
30 85 3
30 86 3
30 89 1
30 93 3
30 99 2
30 103 2
30 107 1
30 108 3
30 110 3
30 115 1
30 123 3
31 73 3
31 74 3
31 77 2
31 78 3
31 82 2
31 85 1
31 86 3
31 87 3
31 90 1
31 94 3
31 100 2
31 104 2
31 108 1
31 109 3
31 111 3
31 116 1
31 124 3
32 74 3
32 75 3
32 78 2
32 79 3
32 83 2
32 86 1
32 87 3
32 88 3
32 91 1
32 95 3
32 101 2
32 105 2
32 109 1
32 110 3
32 112 3
32 117 1
32 125 3
