%%MatrixMarket matrix coordinate integer general
% Binary matrix over GF(2).
% Coordinate indices are 1-based; omitted entries are zero.
64 256 1552
1 7 1
1 8 1
1 11 1
1 12 1
1 13 1
1 22 1
1 30 1
1 35 1
1 36 1
1 37 1
1 38 1
1 39 1
1 46 1
1 53 1
1 54 1
1 61 1
1 67 1
1 68 1
1 69 1
1 70 1
1 91 1
1 92 1
1 94 1
1 107 1
1 123 1
1 124 1
2 9 1
2 10 1
2 13 1
2 14 1
2 15 1
2 24 1
2 32 1
2 37 1
2 38 1
2 39 1
2 40 1
2 41 1
2 48 1
2 55 1
2 56 1
2 63 1
2 69 1
2 70 1
2 71 1
2 72 1
2 93 1
2 94 1
2 96 1
2 109 1
2 125 1
2 126 1
3 2 1
3 11 1
3 12 1
3 15 1
3 16 1
3 17 1
3 26 1
3 33 1
3 39 1
3 40 1
3 41 1
3 42 1
3 43 1
3 50 1
3 57 1
3 58 1
3 66 1
3 71 1
3 72 1
3 73 1
3 74 1
3 95 1
3 96 1
3 111 1
3 127 1
3 128 1
4 4 1
4 13 1
4 14 1
4 17 1
4 18 1
4 19 1
4 28 1
4 35 1
4 41 1
4 42 1
4 43 1
4 44 1
4 45 1
4 52 1
4 59 1
4 60 1
4 65 1
4 66 1
4 68 1
4 73 1
4 74 1
4 75 1
4 76 1
4 97 1
4 98 1
4 113 1
5 6 1
5 15 1
5 16 1
5 19 1
5 20 1
5 21 1
5 30 1
5 37 1
5 43 1
5 44 1
5 45 1
5 46 1
5 47 1
5 54 1
5 61 1
5 62 1
5 67 1
5 68 1
5 70 1
5 75 1
5 76 1
5 77 1
5 78 1
5 99 1
5 100 1
5 115 1
6 8 1
6 17 1
6 18 1
6 21 1
6 22 1
6 23 1
6 32 1
6 39 1
6 45 1
6 46 1
6 47 1
6 48 1
6 49 1
6 56 1
6 63 1
6 64 1
6 69 1
6 70 1
6 72 1
6 77 1
6 78 1
6 79 1
6 80 1
6 101 1
6 102 1
6 117 1
7 2 1
7 10 1
7 19 1
7 20 1
7 23 1
7 24 1
7 25 1
7 33 1
7 34 1
7 41 1
7 47 1
7 48 1
7 49 1
7 50 1
7 51 1
7 58 1
7 71 1
7 72 1
7 74 1
7 79 1
7 80 1
7 81 1
7 82 1
7 103 1
7 104 1
7 119 1
8 4 1
8 12 1
8 21 1
8 22 1
8 25 1
8 26 1
8 27 1
8 35 1
8 36 1
8 43 1
8 49 1
8 50 1
8 51 1
8 52 1
8 53 1
8 60 1
8 73 1
8 74 1
8 76 1
8 81 1
8 82 1
8 83 1
8 84 1
8 105 1
8 106 1
8 121 1
9 6 1
9 14 1
9 23 1
9 24 1
9 27 1
9 28 1
9 29 1
9 37 1
9 38 1
9 45 1
9 51 1
9 52 1
9 53 1
9 54 1
9 55 1
9 62 1
9 75 1
9 76 1
9 78 1
9 83 1
9 84 1
9 85 1
9 86 1
9 107 1
9 108 1
9 123 1
10 8 1
10 16 1
10 25 1
10 26 1
10 29 1
10 30 1
10 31 1
10 39 1
10 40 1
10 47 1
10 53 1
10 54 1
10 55 1
10 56 1
10 57 1
10 64 1
10 77 1
10 78 1
10 80 1
10 85 1
10 86 1
10 87 1
10 88 1
10 109 1
10 110 1
10 125 1
11 1 1
11 10 1
11 18 1
11 27 1
11 28 1
11 31 1
11 32 1
11 34 1
11 41 1
11 42 1
11 49 1
11 55 1
11 56 1
11 57 1
11 58 1
11 59 1
11 79 1
11 80 1
11 82 1
11 87 1
11 88 1
11 89 1
11 90 1
11 111 1
11 112 1
11 127 1
12 1 1
12 2 1
12 3 1
12 12 1
12 20 1
12 29 1
12 30 1
12 36 1
12 43 1
12 44 1
12 51 1
12 57 1
12 58 1
12 59 1
12 60 1
12 61 1
12 81 1
12 82 1
12 84 1
12 89 1
12 90 1
12 91 1
12 92 1
12 97 1
12 113 1
12 114 1
13 3 1
13 4 1
13 5 1
13 14 1
13 22 1
13 31 1
13 32 1
13 38 1
13 45 1
13 46 1
13 53 1
13 59 1
13 60 1
13 61 1
13 62 1
13 63 1
13 83 1
13 84 1
13 86 1
13 91 1
13 92 1
13 93 1
13 94 1
13 99 1
13 115 1
13 116 1
14 1 1
14 2 1
14 5 1
14 6 1
14 7 1
14 16 1
14 24 1
14 33 1
14 40 1
14 47 1
14 48 1
14 55 1
14 61 1
14 62 1
14 63 1
14 64 1
14 85 1
14 86 1
14 88 1
14 93 1
14 94 1
14 95 1
14 96 1
14 101 1
14 117 1
14 118 1
15 3 1
15 4 1
15 7 1
15 8 1
15 9 1
15 18 1
15 26 1
15 33 1
15 34 1
15 35 1
15 42 1
15 49 1
15 50 1
15 57 1
15 63 1
15 64 1
15 65 1
15 66 1
15 87 1
15 88 1
15 90 1
15 95 1
15 96 1
15 103 1
15 119 1
15 120 1
16 5 1
16 6 1
16 9 1
16 10 1
16 11 1
16 20 1
16 28 1
16 33 1
16 34 1
16 35 1
16 36 1
16 37 1
16 44 1
16 51 1
16 52 1
16 59 1
16 65 1
16 66 1
16 67 1
16 68 1
16 89 1
16 90 1
16 92 1
16 105 1
16 121 1
16 122 1
17 7 1
17 11 1
17 14 1
17 21 1
17 22 1
17 29 1
17 30 1
17 35 1
17 37 1
17 40 1
17 45 1
17 46 1
17 53 1
17 62 1
17 67 1
17 69 1
17 91 1
17 93 1
17 94 1
17 108 1
17 123 1
18 9 1
18 13 1
18 16 1
18 23 1
18 24 1
18 31 1
18 32 1
18 37 1
18 39 1
18 42 1
18 47 1
18 48 1
18 55 1
18 64 1
18 69 1
18 71 1
18 93 1
18 95 1
18 96 1
18 110 1
18 125 1
19 1 1
19 2 1
19 11 1
19 15 1
19 18 1
19 25 1
19 26 1
19 34 1
19 39 1
19 41 1
19 44 1
19 49 1
19 50 1
19 57 1
19 65 1
19 66 1
19 71 1
19 73 1
19 95 1
19 112 1
19 127 1
20 3 1
20 4 1
20 13 1
20 17 1
20 20 1
20 27 1
20 28 1
20 36 1
20 41 1
20 43 1
20 46 1
20 51 1
20 52 1
20 59 1
20 65 1
20 67 1
20 68 1
20 73 1
20 75 1
20 97 1
20 114 1
21 5 1
21 6 1
21 15 1
21 19 1
21 22 1
21 29 1
21 30 1
21 38 1
21 43 1
21 45 1
21 48 1
21 53 1
21 54 1
21 61 1
21 67 1
21 69 1
21 70 1
21 75 1
21 77 1
21 99 1
21 116 1
22 7 1
22 8 1
22 17 1
22 21 1
22 24 1
22 31 1
22 32 1
22 40 1
22 45 1
22 47 1
22 50 1
22 55 1
22 56 1
22 63 1
22 69 1
22 71 1
22 72 1
22 77 1
22 79 1
22 101 1
22 118 1
23 1 1
23 2 1
23 9 1
23 10 1
23 19 1
23 23 1
23 26 1
23 33 1
23 42 1
23 47 1
23 49 1
23 52 1
23 57 1
23 58 1
23 71 1
23 73 1
23 74 1
23 79 1
23 81 1
23 103 1
23 120 1
24 3 1
24 4 1
24 11 1
24 12 1
24 21 1
24 25 1
24 28 1
24 35 1
24 44 1
24 49 1
24 51 1
24 54 1
24 59 1
24 60 1
24 73 1
24 75 1
24 76 1
24 81 1
24 83 1
24 105 1
24 122 1
25 5 1
25 6 1
25 13 1
25 14 1
25 23 1
25 27 1
25 30 1
25 37 1
25 46 1
25 51 1
25 53 1
25 56 1
25 61 1
25 62 1
25 75 1
25 77 1
25 78 1
25 83 1
25 85 1
25 107 1
25 124 1
26 7 1
26 8 1
26 15 1
26 16 1
26 25 1
26 29 1
26 32 1
26 39 1
26 48 1
26 53 1
26 55 1
26 58 1
26 63 1
26 64 1
26 77 1
26 79 1
26 80 1
26 85 1
26 87 1
26 109 1
26 126 1
27 2 1
27 9 1
27 10 1
27 17 1
27 18 1
27 27 1
27 31 1
27 33 1
27 34 1
27 41 1
27 50 1
27 55 1
27 57 1
27 60 1
27 79 1
27 81 1
27 82 1
27 87 1
27 89 1
27 111 1
27 128 1
28 1 1
28 4 1
28 11 1
28 12 1
28 19 1
28 20 1
28 29 1
28 35 1
28 36 1
28 43 1
28 52 1
28 57 1
28 59 1
28 62 1
28 81 1
28 83 1
28 84 1
28 89 1
28 91 1
28 98 1
28 113 1
29 3 1
29 6 1
29 13 1
29 14 1
29 21 1
29 22 1
29 31 1
29 37 1
29 38 1
29 45 1
29 54 1
29 59 1
29 61 1
29 64 1
29 83 1
29 85 1
29 86 1
29 91 1
29 93 1
29 100 1
29 115 1
30 1 1
30 5 1
30 8 1
30 15 1
30 16 1
30 23 1
30 24 1
30 34 1
30 39 1
30 40 1
30 47 1
30 56 1
30 61 1
30 63 1
30 85 1
30 87 1
30 88 1
30 93 1
30 95 1
30 102 1
30 117 1
31 3 1
31 7 1
31 10 1
31 17 1
31 18 1
31 25 1
31 26 1
31 33 1
31 36 1
31 41 1
31 42 1
31 49 1
31 58 1
31 63 1
31 65 1
31 87 1
31 89 1
31 90 1
31 95 1
31 104 1
31 119 1
32 5 1
32 9 1
32 12 1
32 19 1
32 20 1
32 27 1
32 28 1
32 33 1
32 35 1
32 38 1
32 43 1
32 44 1
32 51 1
32 60 1
32 65 1
32 67 1
32 89 1
32 91 1
32 92 1
32 106 1
32 121 1
33 13 1
33 16 1
33 18 1
33 21 1
33 22 1
33 27 1
33 29 1
33 37 1
33 47 1
33 48 1
33 53 1
33 57 1
33 60 1
33 62 1
33 69 1
33 76 1
33 78 1
33 81 1
33 82 1
33 89 1
33 91 1
33 236 1
33 251 1
34 15 1
34 18 1
34 20 1
34 23 1
34 24 1
34 29 1
34 31 1
34 39 1
34 49 1
34 50 1
34 55 1
34 59 1
34 62 1
34 64 1
34 71 1
34 78 1
34 80 1
34 83 1
34 84 1
34 91 1
34 93 1
34 238 1
34 253 1
35 1 1
35 17 1
35 20 1
35 22 1
35 25 1
35 26 1
35 31 1
35 34 1
35 41 1
35 51 1
35 52 1
35 57 1
35 61 1
35 64 1
35 73 1
35 80 1
35 82 1
35 85 1
35 86 1
35 93 1
35 95 1
35 240 1
35 255 1
36 1 1
36 3 1
36 19 1
36 22 1
36 24 1
36 27 1
36 28 1
36 34 1
36 36 1
36 43 1
36 53 1
36 54 1
36 59 1
36 63 1
36 65 1
36 75 1
36 82 1
36 84 1
36 87 1
36 88 1
36 95 1
36 225 1
36 242 1
37 3 1
37 5 1
37 21 1
37 24 1
37 26 1
37 29 1
37 30 1
37 33 1
37 36 1
37 38 1
37 45 1
37 55 1
37 56 1
37 61 1
37 65 1
37 67 1
37 77 1
37 84 1
37 86 1
37 89 1
37 90 1
37 227 1
37 244 1
38 5 1
38 7 1
38 23 1
38 26 1
38 28 1
38 31 1
38 32 1
38 35 1
38 38 1
38 40 1
38 47 1
38 57 1
38 58 1
38 63 1
38 67 1
38 69 1
38 79 1
38 86 1
38 88 1
38 91 1
38 92 1
38 229 1
38 246 1
39 1 1
39 2 1
39 7 1
39 9 1
39 25 1
39 28 1
39 30 1
39 33 1
39 37 1
39 40 1
39 42 1
39 49 1
39 59 1
39 60 1
39 69 1
39 71 1
39 81 1
39 88 1
39 90 1
39 93 1
39 94 1
39 231 1
39 248 1
40 3 1
40 4 1
40 9 1
40 11 1
40 27 1
40 30 1
40 32 1
40 35 1
40 39 1
40 42 1
40 44 1
40 51 1
40 61 1
40 62 1
40 71 1
40 73 1
40 83 1
40 90 1
40 92 1
40 95 1
40 96 1
40 233 1
40 250 1
41 2 1
41 5 1
41 6 1
41 11 1
41 13 1
41 29 1
41 32 1
41 37 1
41 41 1
41 44 1
41 46 1
41 53 1
41 63 1
41 64 1
41 65 1
41 66 1
41 73 1
41 75 1
41 85 1
41 92 1
41 94 1
41 235 1
41 252 1
42 2 1
42 4 1
42 7 1
42 8 1
42 13 1
42 15 1
42 31 1
42 33 1
42 34 1
42 39 1
42 43 1
42 46 1
42 48 1
42 55 1
42 67 1
42 68 1
42 75 1
42 77 1
42 87 1
42 94 1
42 96 1
42 237 1
42 254 1
43 1 1
43 4 1
43 6 1
43 9 1
43 10 1
43 15 1
43 17 1
43 35 1
43 36 1
43 41 1
43 45 1
43 48 1
43 50 1
43 57 1
43 66 1
43 69 1
43 70 1
43 77 1
43 79 1
43 89 1
43 96 1
43 239 1
43 256 1
44 3 1
44 6 1
44 8 1
44 11 1
44 12 1
44 17 1
44 19 1
44 37 1
44 38 1
44 43 1
44 47 1
44 50 1
44 52 1
44 59 1
44 66 1
44 68 1
44 71 1
44 72 1
44 79 1
44 81 1
44 91 1
44 226 1
44 241 1
45 5 1
45 8 1
45 10 1
45 13 1
45 14 1
45 19 1
45 21 1
45 39 1
45 40 1
45 45 1
45 49 1
45 52 1
45 54 1
45 61 1
45 68 1
45 70 1
45 73 1
45 74 1
45 81 1
45 83 1
45 93 1
45 228 1
45 243 1
46 7 1
46 10 1
46 12 1
46 15 1
46 16 1
46 21 1
46 23 1
46 41 1
46 42 1
46 47 1
46 51 1
46 54 1
46 56 1
46 63 1
46 70 1
46 72 1
46 75 1
46 76 1
46 83 1
46 85 1
46 95 1
46 230 1
46 245 1
47 9 1
47 12 1
47 14 1
47 17 1
47 18 1
47 23 1
47 25 1
47 33 1
47 43 1
47 44 1
47 49 1
47 53 1
47 56 1
47 58 1
47 65 1
47 72 1
47 74 1
47 77 1
47 78 1
47 85 1
47 87 1
47 232 1
47 247 1
48 11 1
48 14 1
48 16 1
48 19 1
48 20 1
48 25 1
48 27 1
48 35 1
48 45 1
48 46 1
48 51 1
48 55 1
48 58 1
48 60 1
48 67 1
48 74 1
48 76 1
48 79 1
48 80 1
48 87 1
48 89 1
48 234 1
48 249 1
49 14 1
49 15 1
49 16 1
49 17 1
49 18 1
49 21 1
49 28 1
49 30 1
49 38 1
49 47 1
49 54 1
49 58 1
49 59 1
49 60 1
49 61 1
49 62 1
49 70 1
49 75 1
49 76 1
49 77 1
49 78 1
49 81 1
49 90 1
49 92 1
49 235 1
49 236 1
49 252 1
50 16 1
50 17 1
50 18 1
50 19 1
50 20 1
50 23 1
50 30 1
50 32 1
50 40 1
50 49 1
50 56 1
50 60 1
50 61 1
50 62 1
50 63 1
50 64 1
50 72 1
50 77 1
50 78 1
50 79 1
50 80 1
50 83 1
50 92 1
50 94 1
50 237 1
50 238 1
50 254 1
51 2 1
51 18 1
51 19 1
51 20 1
51 21 1
51 22 1
51 25 1
51 32 1
51 33 1
51 34 1
51 42 1
51 51 1
51 58 1
51 62 1
51 63 1
51 64 1
51 74 1
51 79 1
51 80 1
51 81 1
51 82 1
51 85 1
51 94 1
51 96 1
51 239 1
51 240 1
51 256 1
52 2 1
52 4 1
52 20 1
52 21 1
52 22 1
52 23 1
52 24 1
52 27 1
52 33 1
52 34 1
52 35 1
52 36 1
52 44 1
52 53 1
52 60 1
52 64 1
52 66 1
52 76 1
52 81 1
52 82 1
52 83 1
52 84 1
52 87 1
52 96 1
52 226 1
52 241 1
52 242 1
53 4 1
53 6 1
53 22 1
53 23 1
53 24 1
53 25 1
53 26 1
53 29 1
53 34 1
53 35 1
53 36 1
53 37 1
53 38 1
53 46 1
53 55 1
53 62 1
53 66 1
53 68 1
53 78 1
53 83 1
53 84 1
53 85 1
53 86 1
53 89 1
53 228 1
53 243 1
53 244 1
54 6 1
54 8 1
54 24 1
54 25 1
54 26 1
54 27 1
54 28 1
54 31 1
54 36 1
54 37 1
54 38 1
54 39 1
54 40 1
54 48 1
54 57 1
54 64 1
54 68 1
54 70 1
54 80 1
54 85 1
54 86 1
54 87 1
54 88 1
54 91 1
54 230 1
54 245 1
54 246 1
55 1 1
55 8 1
55 10 1
55 26 1
55 27 1
55 28 1
55 29 1
55 30 1
55 34 1
55 38 1
55 39 1
55 40 1
55 41 1
55 42 1
55 50 1
55 59 1
55 70 1
55 72 1
55 82 1
55 87 1
55 88 1
55 89 1
55 90 1
55 93 1
55 232 1
55 247 1
55 248 1
56 3 1
56 10 1
56 12 1
56 28 1
56 29 1
56 30 1
56 31 1
56 32 1
56 36 1
56 40 1
56 41 1
56 42 1
56 43 1
56 44 1
56 52 1
56 61 1
56 72 1
56 74 1
56 84 1
56 89 1
56 90 1
56 91 1
56 92 1
56 95 1
56 234 1
56 249 1
56 250 1
57 1 1
57 2 1
57 5 1
57 12 1
57 14 1
57 30 1
57 31 1
57 32 1
57 38 1
57 42 1
57 43 1
57 44 1
57 45 1
57 46 1
57 54 1
57 63 1
57 65 1
57 74 1
57 76 1
57 86 1
57 91 1
57 92 1
57 93 1
57 94 1
57 236 1
57 251 1
57 252 1
58 1 1
58 2 1
58 3 1
58 4 1
58 7 1
58 14 1
58 16 1
58 32 1
58 33 1
58 40 1
58 44 1
58 45 1
58 46 1
58 47 1
58 48 1
58 56 1
58 67 1
58 76 1
58 78 1
58 88 1
58 93 1
58 94 1
58 95 1
58 96 1
58 238 1
58 253 1
58 254 1
59 2 1
59 3 1
59 4 1
59 5 1
59 6 1
59 9 1
59 16 1
59 18 1
59 35 1
59 42 1
59 46 1
59 47 1
59 48 1
59 49 1
59 50 1
59 58 1
59 65 1
59 66 1
59 69 1
59 78 1
59 80 1
59 90 1
59 95 1
59 96 1
59 240 1
59 255 1
59 256 1
60 4 1
60 5 1
60 6 1
60 7 1
60 8 1
60 11 1
60 18 1
60 20 1
60 37 1
60 44 1
60 48 1
60 49 1
60 50 1
60 51 1
60 52 1
60 60 1
60 65 1
60 66 1
60 67 1
60 68 1
60 71 1
60 80 1
60 82 1
60 92 1
60 225 1
60 226 1
60 242 1
61 6 1
61 7 1
61 8 1
61 9 1
61 10 1
61 13 1
61 20 1
61 22 1
61 39 1
61 46 1
61 50 1
61 51 1
61 52 1
61 53 1
61 54 1
61 62 1
61 67 1
61 68 1
61 69 1
61 70 1
61 73 1
61 82 1
61 84 1
61 94 1
61 227 1
61 228 1
61 244 1
62 8 1
62 9 1
62 10 1
62 11 1
62 12 1
62 15 1
62 22 1
62 24 1
62 41 1
62 48 1
62 52 1
62 53 1
62 54 1
62 55 1
62 56 1
62 64 1
62 69 1
62 70 1
62 71 1
62 72 1
62 75 1
62 84 1
62 86 1
62 96 1
62 229 1
62 230 1
62 246 1
63 10 1
63 11 1
63 12 1
63 13 1
63 14 1
63 17 1
63 24 1
63 26 1
63 34 1
63 43 1
63 50 1
63 54 1
63 55 1
63 56 1
63 57 1
63 58 1
63 66 1
63 71 1
63 72 1
63 73 1
63 74 1
63 77 1
63 86 1
63 88 1
63 231 1
63 232 1
63 248 1
64 12 1
64 13 1
64 14 1
64 15 1
64 16 1
64 19 1
64 26 1
64 28 1
64 36 1
64 45 1
64 52 1
64 56 1
64 57 1
64 58 1
64 59 1
64 60 1
64 68 1
64 73 1
64 74 1
64 75 1
64 76 1
64 79 1
64 88 1
64 90 1
64 233 1
64 234 1
64 250 1
