%%MatrixMarket matrix coordinate integer general
% GF(4) labels 0,1,2=omega,3=omega+1; arithmetic is NOT integer arithmetic.
% Coordinate indices are 1-based; omitted entries are zero.
32 128 592
1 4 3
1 6 3
1 7 1
1 11 2
1 15 2
1 18 3
1 19 3
1 20 1
1 23 2
1 27 3
1 31 1
1 34 3
1 35 3
1 46 3
1 47 2
1 54 1
1 62 3
2 5 3
2 7 3
2 8 1
2 12 2
2 16 2
2 19 3
2 20 3
2 21 1
2 24 2
2 28 3
2 32 1
2 35 3
2 36 3
2 47 3
2 48 2
2 55 1
2 63 3
3 1 2
3 6 3
3 8 3
3 9 1
3 13 2
3 17 1
3 20 3
3 21 3
3 22 1
3 25 2
3 29 3
3 33 2
3 36 3
3 37 3
3 48 3
3 56 1
3 64 3
4 2 2
4 7 3
4 9 3
4 10 1
4 14 2
4 18 1
4 21 3
4 22 3
4 23 1
4 26 2
4 30 3
4 33 3
4 34 2
4 37 3
4 38 3
4 49 3
4 57 1
5 3 2
5 8 3
5 10 3
5 11 1
5 15 2
5 19 1
5 22 3
5 23 3
5 24 1
5 27 2
5 31 3
5 34 3
5 35 2
5 38 3
5 39 3
5 50 3
5 58 1
6 4 2
6 9 3
6 11 3
6 12 1
6 16 2
6 20 1
6 23 3
6 24 3
6 25 1
6 28 2
6 32 3
6 35 3
6 36 2
6 39 3
6 40 3
6 51 3
6 59 1
7 1 2
7 5 2
7 10 3
7 12 3
7 13 1
7 17 3
7 21 1
7 24 3
7 25 3
7 26 1
7 29 2
7 36 3
7 37 2
7 40 3
7 41 3
7 52 3
7 60 1
8 2 2
8 6 2
8 11 3
8 13 3
8 14 1
8 18 3
8 22 1
8 25 3
8 26 3
8 27 1
8 30 2
8 37 3
8 38 2
8 41 3
8 42 3
8 53 3
8 61 1
9 3 2
9 7 2
9 12 3
9 14 3
9 15 1
9 19 3
9 23 1
9 26 3
9 27 3
9 28 1
9 31 2
9 38 3
9 39 2
9 42 3
9 43 3
9 54 3
9 62 1
10 4 2
10 8 2
10 13 3
10 15 3
10 16 1
10 20 3
10 24 1
10 27 3
10 28 3
10 29 1
10 32 2
10 39 3
10 40 2
10 43 3
10 44 3
10 55 3
10 63 1
11 1 1
11 5 2
11 9 2
11 14 3
11 16 3
11 17 2
11 21 3
11 25 1
11 28 3
11 29 3
11 30 1
11 40 3
11 41 2
11 44 3
11 45 3
11 56 3
11 64 1
12 1 3
12 2 1
12 6 2
12 10 2
12 15 3
12 18 2
12 22 3
12 26 1
12 29 3
12 30 3
12 31 1
12 41 3
12 42 2
12 45 3
12 46 3
12 49 1
12 57 3
13 2 3
13 3 1
13 7 2
13 11 2
13 16 3
13 19 2
13 23 3
13 27 1
13 30 3
13 31 3
13 32 1
13 42 3
13 43 2
13 46 3
13 47 3
13 50 1
13 58 3
14 1 3
14 3 3
14 4 1
14 8 2
14 12 2
14 17 1
14 20 2
14 24 3
14 28 1
14 31 3
14 32 3
14 43 3
14 44 2
14 47 3
14 48 3
14 51 1
14 59 3
15 2 3
15 4 3
15 5 1
15 9 2
15 13 2
15 17 3
15 18 1
15 21 2
15 25 3
15 29 1
15 32 3
15 33 3
15 44 3
15 45 2
15 48 3
15 52 1
15 60 3
16 3 3
16 5 3
16 6 1
16 10 2
16 14 2
16 17 3
16 18 3
16 19 1
16 22 2
16 26 3
16 30 1
16 33 3
16 34 3
16 45 3
16 46 2
16 53 1
16 61 3
17 7 1
17 8 2
17 9 2
17 11 3
17 14 1
17 15 1
17 19 1
17 24 3
17 27 1
17 29 1
17 30 2
17 31 2
17 35 1
17 38 2
17 39 2
17 41 3
17 45 1
17 46 1
17 118 2
17 126 1
18 8 1
18 9 2
18 10 2
18 12 3
18 15 1
18 16 1
18 20 1
18 25 3
18 28 1
18 30 1
18 31 2
18 32 2
18 36 1
18 39 2
18 40 2
18 42 3
18 46 1
18 47 1
18 119 2
18 127 1
19 1 1
19 9 1
19 10 2
19 11 2
19 13 3
19 16 1
19 17 2
19 21 1
19 26 3
19 29 1
19 31 1
19 32 2
19 37 1
19 40 2
19 41 2
19 43 3
19 47 1
19 48 1
19 120 2
19 128 1
20 1 1
20 2 1
20 10 1
20 11 2
20 12 2
20 14 3
20 17 2
20 18 2
20 22 1
20 27 3
20 30 1
20 32 1
20 33 1
20 38 1
20 41 2
20 42 2
20 44 3
20 48 1
20 113 1
20 121 2
21 2 1
21 3 1
21 11 1
21 12 2
21 13 2
21 15 3
21 17 1
21 18 2
21 19 2
21 23 1
21 28 3
21 31 1
21 33 1
21 34 1
21 39 1
21 42 2
21 43 2
21 45 3
21 114 1
21 122 2
22 3 1
22 4 1
22 12 1
22 13 2
22 14 2
22 16 3
22 18 1
22 19 2
22 20 2
22 24 1
22 29 3
22 32 1
22 34 1
22 35 1
22 40 1
22 43 2
22 44 2
22 46 3
22 115 1
22 123 2
23 1 3
23 4 1
23 5 1
23 13 1
23 14 2
23 15 2
23 17 1
23 19 1
23 20 2
23 21 2
23 25 1
23 30 3
23 35 1
23 36 1
23 41 1
23 44 2
23 45 2
23 47 3
23 116 1
23 124 2
24 2 3
24 5 1
24 6 1
24 14 1
24 15 2
24 16 2
24 18 1
24 20 1
24 21 2
24 22 2
24 26 1
24 31 3
24 36 1
24 37 1
24 42 1
24 45 2
24 46 2
24 48 3
24 117 1
24 125 2
25 1 2
25 3 3
25 6 1
25 7 1
25 15 1
25 16 2
25 19 1
25 21 1
25 22 2
25 23 2
25 27 1
25 32 3
25 33 3
25 37 1
25 38 1
25 43 1
25 46 2
25 47 2
25 118 1
25 126 2
26 1 2
26 2 2
26 4 3
26 7 1
26 8 1
26 16 1
26 17 3
26 20 1
26 22 1
26 23 2
26 24 2
26 28 1
26 34 3
26 38 1
26 39 1
26 44 1
26 47 2
26 48 2
26 119 1
26 127 2
27 1 1
27 2 2
27 3 2
27 5 3
27 8 1
27 9 1
27 18 3
27 21 1
27 23 1
27 24 2
27 25 2
27 29 1
27 33 2
27 35 3
27 39 1
27 40 1
27 45 1
27 48 2
27 120 1
27 128 2
28 2 1
28 3 2
28 4 2
28 6 3
28 9 1
28 10 1
28 19 3
28 22 1
28 24 1
28 25 2
28 26 2
28 30 1
28 33 2
28 34 2
28 36 3
28 40 1
28 41 1
28 46 1
28 113 2
28 121 1
29 3 1
29 4 2
29 5 2
29 7 3
29 10 1
29 11 1
29 20 3
29 23 1
29 25 1
29 26 2
29 27 2
29 31 1
29 34 2
29 35 2
29 37 3
29 41 1
29 42 1
29 47 1
29 114 2
29 122 1
30 4 1
30 5 2
30 6 2
30 8 3
30 11 1
30 12 1
30 21 3
30 24 1
30 26 1
30 27 2
30 28 2
30 32 1
30 35 2
30 36 2
30 38 3
30 42 1
30 43 1
30 48 1
30 115 2
30 123 1
31 5 1
31 6 2
31 7 2
31 9 3
31 12 1
31 13 1
31 17 1
31 22 3
31 25 1
31 27 1
31 28 2
31 29 2
31 33 1
31 36 2
31 37 2
31 39 3
31 43 1
31 44 1
31 116 2
31 124 1
32 6 1
32 7 2
32 8 2
32 10 3
32 13 1
32 14 1
32 18 1
32 23 3
32 26 1
32 28 1
32 29 2
32 30 2
32 34 1
32 37 2
32 38 2
32 40 3
32 44 1
32 45 1
32 117 2
32 125 1
