%%MatrixMarket matrix coordinate integer general
% Binary matrix over GF(2).
% Coordinate indices are 1-based; omitted entries are zero.
240 640 2040
1 2 1
1 81 1
1 161 1
1 241 1
1 321 1
1 401 1
1 481 1
1 561 1
2 1 1
2 2 1
2 82 1
2 162 1
2 242 1
2 322 1
2 402 1
2 482 1
2 562 1
3 4 1
3 83 1
3 163 1
3 243 1
3 323 1
3 403 1
3 483 1
3 563 1
4 3 1
4 4 1
4 84 1
4 164 1
4 244 1
4 324 1
4 404 1
4 484 1
4 564 1
5 6 1
5 85 1
5 165 1
5 245 1
5 325 1
5 405 1
5 485 1
5 565 1
6 5 1
6 6 1
6 86 1
6 166 1
6 246 1
6 326 1
6 406 1
6 486 1
6 566 1
7 8 1
7 87 1
7 167 1
7 247 1
7 327 1
7 407 1
7 487 1
7 567 1
8 7 1
8 8 1
8 88 1
8 168 1
8 248 1
8 328 1
8 408 1
8 488 1
8 568 1
9 10 1
9 89 1
9 169 1
9 249 1
9 329 1
9 409 1
9 489 1
9 569 1
10 9 1
10 10 1
10 90 1
10 170 1
10 250 1
10 330 1
10 410 1
10 490 1
10 570 1
11 12 1
11 91 1
11 171 1
11 251 1
11 331 1
11 411 1
11 491 1
11 571 1
12 11 1
12 12 1
12 92 1
12 172 1
12 252 1
12 332 1
12 412 1
12 492 1
12 572 1
13 14 1
13 93 1
13 173 1
13 253 1
13 333 1
13 413 1
13 493 1
13 573 1
14 13 1
14 14 1
14 94 1
14 174 1
14 254 1
14 334 1
14 414 1
14 494 1
14 574 1
15 16 1
15 95 1
15 175 1
15 255 1
15 335 1
15 415 1
15 495 1
15 575 1
16 15 1
16 16 1
16 96 1
16 176 1
16 256 1
16 336 1
16 416 1
16 496 1
16 576 1
17 18 1
17 97 1
17 177 1
17 257 1
17 337 1
17 417 1
17 497 1
17 577 1
18 17 1
18 18 1
18 98 1
18 178 1
18 258 1
18 338 1
18 418 1
18 498 1
18 578 1
19 20 1
19 99 1
19 179 1
19 259 1
19 339 1
19 419 1
19 499 1
19 579 1
20 19 1
20 20 1
20 100 1
20 180 1
20 260 1
20 340 1
20 420 1
20 500 1
20 580 1
21 22 1
21 101 1
21 181 1
21 261 1
21 341 1
21 421 1
21 501 1
21 581 1
22 21 1
22 22 1
22 102 1
22 182 1
22 262 1
22 342 1
22 422 1
22 502 1
22 582 1
23 24 1
23 103 1
23 183 1
23 263 1
23 343 1
23 423 1
23 503 1
23 583 1
24 23 1
24 24 1
24 104 1
24 184 1
24 264 1
24 344 1
24 424 1
24 504 1
24 584 1
25 26 1
25 105 1
25 185 1
25 265 1
25 345 1
25 425 1
25 505 1
25 585 1
26 25 1
26 26 1
26 106 1
26 186 1
26 266 1
26 346 1
26 426 1
26 506 1
26 586 1
27 28 1
27 107 1
27 187 1
27 267 1
27 347 1
27 427 1
27 507 1
27 587 1
28 27 1
28 28 1
28 108 1
28 188 1
28 268 1
28 348 1
28 428 1
28 508 1
28 588 1
29 30 1
29 109 1
29 189 1
29 269 1
29 349 1
29 429 1
29 509 1
29 589 1
30 29 1
30 30 1
30 110 1
30 190 1
30 270 1
30 350 1
30 430 1
30 510 1
30 590 1
31 32 1
31 111 1
31 191 1
31 271 1
31 351 1
31 431 1
31 511 1
31 591 1
32 31 1
32 32 1
32 112 1
32 192 1
32 272 1
32 352 1
32 432 1
32 512 1
32 592 1
33 34 1
33 113 1
33 193 1
33 273 1
33 353 1
33 433 1
33 513 1
33 593 1
34 33 1
34 34 1
34 114 1
34 194 1
34 274 1
34 354 1
34 434 1
34 514 1
34 594 1
35 36 1
35 115 1
35 195 1
35 275 1
35 355 1
35 435 1
35 515 1
35 595 1
36 35 1
36 36 1
36 116 1
36 196 1
36 276 1
36 356 1
36 436 1
36 516 1
36 596 1
37 38 1
37 117 1
37 197 1
37 277 1
37 357 1
37 437 1
37 517 1
37 597 1
38 37 1
38 38 1
38 118 1
38 198 1
38 278 1
38 358 1
38 438 1
38 518 1
38 598 1
39 40 1
39 119 1
39 199 1
39 279 1
39 359 1
39 439 1
39 519 1
39 599 1
40 39 1
40 40 1
40 120 1
40 200 1
40 280 1
40 360 1
40 440 1
40 520 1
40 600 1
41 42 1
41 121 1
41 201 1
41 281 1
41 361 1
41 441 1
41 521 1
41 601 1
42 41 1
42 42 1
42 122 1
42 202 1
42 282 1
42 362 1
42 442 1
42 522 1
42 602 1
43 44 1
43 123 1
43 203 1
43 283 1
43 363 1
43 443 1
43 523 1
43 603 1
44 43 1
44 44 1
44 124 1
44 204 1
44 284 1
44 364 1
44 444 1
44 524 1
44 604 1
45 46 1
45 125 1
45 205 1
45 285 1
45 365 1
45 445 1
45 525 1
45 605 1
46 45 1
46 46 1
46 126 1
46 206 1
46 286 1
46 366 1
46 446 1
46 526 1
46 606 1
47 48 1
47 127 1
47 207 1
47 287 1
47 367 1
47 447 1
47 527 1
47 607 1
48 47 1
48 48 1
48 128 1
48 208 1
48 288 1
48 368 1
48 448 1
48 528 1
48 608 1
49 50 1
49 129 1
49 209 1
49 289 1
49 369 1
49 449 1
49 529 1
49 609 1
50 49 1
50 50 1
50 130 1
50 210 1
50 290 1
50 370 1
50 450 1
50 530 1
50 610 1
51 52 1
51 131 1
51 211 1
51 291 1
51 371 1
51 451 1
51 531 1
51 611 1
52 51 1
52 52 1
52 132 1
52 212 1
52 292 1
52 372 1
52 452 1
52 532 1
52 612 1
53 54 1
53 133 1
53 213 1
53 293 1
53 373 1
53 453 1
53 533 1
53 613 1
54 53 1
54 54 1
54 134 1
54 214 1
54 294 1
54 374 1
54 454 1
54 534 1
54 614 1
55 56 1
55 135 1
55 215 1
55 295 1
55 375 1
55 455 1
55 535 1
55 615 1
56 55 1
56 56 1
56 136 1
56 216 1
56 296 1
56 376 1
56 456 1
56 536 1
56 616 1
57 58 1
57 137 1
57 217 1
57 297 1
57 377 1
57 457 1
57 537 1
57 617 1
58 57 1
58 58 1
58 138 1
58 218 1
58 298 1
58 378 1
58 458 1
58 538 1
58 618 1
59 60 1
59 139 1
59 219 1
59 299 1
59 379 1
59 459 1
59 539 1
59 619 1
60 59 1
60 60 1
60 140 1
60 220 1
60 300 1
60 380 1
60 460 1
60 540 1
60 620 1
61 62 1
61 141 1
61 221 1
61 301 1
61 381 1
61 461 1
61 541 1
61 621 1
62 61 1
62 62 1
62 142 1
62 222 1
62 302 1
62 382 1
62 462 1
62 542 1
62 622 1
63 64 1
63 143 1
63 223 1
63 303 1
63 383 1
63 463 1
63 543 1
63 623 1
64 63 1
64 64 1
64 144 1
64 224 1
64 304 1
64 384 1
64 464 1
64 544 1
64 624 1
65 66 1
65 145 1
65 225 1
65 305 1
65 385 1
65 465 1
65 545 1
65 625 1
66 65 1
66 66 1
66 146 1
66 226 1
66 306 1
66 386 1
66 466 1
66 546 1
66 626 1
67 68 1
67 147 1
67 227 1
67 307 1
67 387 1
67 467 1
67 547 1
67 627 1
68 67 1
68 68 1
68 148 1
68 228 1
68 308 1
68 388 1
68 468 1
68 548 1
68 628 1
69 70 1
69 149 1
69 229 1
69 309 1
69 389 1
69 469 1
69 549 1
69 629 1
70 69 1
70 70 1
70 150 1
70 230 1
70 310 1
70 390 1
70 470 1
70 550 1
70 630 1
71 72 1
71 151 1
71 231 1
71 311 1
71 391 1
71 471 1
71 551 1
71 631 1
72 71 1
72 72 1
72 152 1
72 232 1
72 312 1
72 392 1
72 472 1
72 552 1
72 632 1
73 74 1
73 153 1
73 233 1
73 313 1
73 393 1
73 473 1
73 553 1
73 633 1
74 73 1
74 74 1
74 154 1
74 234 1
74 314 1
74 394 1
74 474 1
74 554 1
74 634 1
75 76 1
75 155 1
75 235 1
75 315 1
75 395 1
75 475 1
75 555 1
75 635 1
76 75 1
76 76 1
76 156 1
76 236 1
76 316 1
76 396 1
76 476 1
76 556 1
76 636 1
77 78 1
77 157 1
77 237 1
77 317 1
77 397 1
77 477 1
77 557 1
77 637 1
78 77 1
78 78 1
78 158 1
78 238 1
78 318 1
78 398 1
78 478 1
78 558 1
78 638 1
79 80 1
79 159 1
79 239 1
79 319 1
79 399 1
79 479 1
79 559 1
79 639 1
80 79 1
80 80 1
80 160 1
80 240 1
80 320 1
80 400 1
80 480 1
80 560 1
80 640 1
81 1 1
81 122 1
81 221 1
81 261 1
81 399 1
81 437 1
81 493 1
81 607 1
82 2 1
82 121 1
82 122 1
82 222 1
82 262 1
82 400 1
82 438 1
82 494 1
82 608 1
83 3 1
83 124 1
83 223 1
83 263 1
83 321 1
83 439 1
83 495 1
83 609 1
84 4 1
84 123 1
84 124 1
84 224 1
84 264 1
84 322 1
84 440 1
84 496 1
84 610 1
85 5 1
85 126 1
85 225 1
85 265 1
85 323 1
85 441 1
85 497 1
85 611 1
86 6 1
86 125 1
86 126 1
86 226 1
86 266 1
86 324 1
86 442 1
86 498 1
86 612 1
87 7 1
87 128 1
87 227 1
87 267 1
87 325 1
87 443 1
87 499 1
87 613 1
88 8 1
88 127 1
88 128 1
88 228 1
88 268 1
88 326 1
88 444 1
88 500 1
88 614 1
89 9 1
89 130 1
89 229 1
89 269 1
89 327 1
89 445 1
89 501 1
89 615 1
90 10 1
90 129 1
90 130 1
90 230 1
90 270 1
90 328 1
90 446 1
90 502 1
90 616 1
91 11 1
91 132 1
91 231 1
91 271 1
91 329 1
91 447 1
91 503 1
91 617 1
92 12 1
92 131 1
92 132 1
92 232 1
92 272 1
92 330 1
92 448 1
92 504 1
92 618 1
93 13 1
93 134 1
93 233 1
93 273 1
93 331 1
93 449 1
93 505 1
93 619 1
94 14 1
94 133 1
94 134 1
94 234 1
94 274 1
94 332 1
94 450 1
94 506 1
94 620 1
95 15 1
95 136 1
95 235 1
95 275 1
95 333 1
95 451 1
95 507 1
95 621 1
96 16 1
96 135 1
96 136 1
96 236 1
96 276 1
96 334 1
96 452 1
96 508 1
96 622 1
97 17 1
97 138 1
97 237 1
97 277 1
97 335 1
97 453 1
97 509 1
97 623 1
98 18 1
98 137 1
98 138 1
98 238 1
98 278 1
98 336 1
98 454 1
98 510 1
98 624 1
99 19 1
99 140 1
99 239 1
99 279 1
99 337 1
99 455 1
99 511 1
99 625 1
100 20 1
100 139 1
100 140 1
100 240 1
100 280 1
100 338 1
100 456 1
100 512 1
100 626 1
101 21 1
101 142 1
101 161 1
101 281 1
101 339 1
101 457 1
101 513 1
101 627 1
102 22 1
102 141 1
102 142 1
102 162 1
102 282 1
102 340 1
102 458 1
102 514 1
102 628 1
103 23 1
103 144 1
103 163 1
103 283 1
103 341 1
103 459 1
103 515 1
103 629 1
104 24 1
104 143 1
104 144 1
104 164 1
104 284 1
104 342 1
104 460 1
104 516 1
104 630 1
105 25 1
105 146 1
105 165 1
105 285 1
105 343 1
105 461 1
105 517 1
105 631 1
106 26 1
106 145 1
106 146 1
106 166 1
106 286 1
106 344 1
106 462 1
106 518 1
106 632 1
107 27 1
107 148 1
107 167 1
107 287 1
107 345 1
107 463 1
107 519 1
107 633 1
108 28 1
108 147 1
108 148 1
108 168 1
108 288 1
108 346 1
108 464 1
108 520 1
108 634 1
109 29 1
109 150 1
109 169 1
109 289 1
109 347 1
109 465 1
109 521 1
109 635 1
110 30 1
110 149 1
110 150 1
110 170 1
110 290 1
110 348 1
110 466 1
110 522 1
110 636 1
111 31 1
111 152 1
111 171 1
111 291 1
111 349 1
111 467 1
111 523 1
111 637 1
112 32 1
112 151 1
112 152 1
112 172 1
112 292 1
112 350 1
112 468 1
112 524 1
112 638 1
113 33 1
113 154 1
113 173 1
113 293 1
113 351 1
113 469 1
113 525 1
113 639 1
114 34 1
114 153 1
114 154 1
114 174 1
114 294 1
114 352 1
114 470 1
114 526 1
114 640 1
115 35 1
115 156 1
115 175 1
115 295 1
115 353 1
115 471 1
115 527 1
115 561 1
116 36 1
116 155 1
116 156 1
116 176 1
116 296 1
116 354 1
116 472 1
116 528 1
116 562 1
117 37 1
117 158 1
117 177 1
117 297 1
117 355 1
117 473 1
117 529 1
117 563 1
118 38 1
118 157 1
118 158 1
118 178 1
118 298 1
118 356 1
118 474 1
118 530 1
118 564 1
119 39 1
119 160 1
119 179 1
119 299 1
119 357 1
119 475 1
119 531 1
119 565 1
120 40 1
120 159 1
120 160 1
120 180 1
120 300 1
120 358 1
120 476 1
120 532 1
120 566 1
121 41 1
121 82 1
121 181 1
121 301 1
121 359 1
121 477 1
121 533 1
121 567 1
122 42 1
122 81 1
122 82 1
122 182 1
122 302 1
122 360 1
122 478 1
122 534 1
122 568 1
123 43 1
123 84 1
123 183 1
123 303 1
123 361 1
123 479 1
123 535 1
123 569 1
124 44 1
124 83 1
124 84 1
124 184 1
124 304 1
124 362 1
124 480 1
124 536 1
124 570 1
125 45 1
125 86 1
125 185 1
125 305 1
125 363 1
125 401 1
125 537 1
125 571 1
126 46 1
126 85 1
126 86 1
126 186 1
126 306 1
126 364 1
126 402 1
126 538 1
126 572 1
127 47 1
127 88 1
127 187 1
127 307 1
127 365 1
127 403 1
127 539 1
127 573 1
128 48 1
128 87 1
128 88 1
128 188 1
128 308 1
128 366 1
128 404 1
128 540 1
128 574 1
129 49 1
129 90 1
129 189 1
129 309 1
129 367 1
129 405 1
129 541 1
129 575 1
130 50 1
130 89 1
130 90 1
130 190 1
130 310 1
130 368 1
130 406 1
130 542 1
130 576 1
131 51 1
131 92 1
131 191 1
131 311 1
131 369 1
131 407 1
131 543 1
131 577 1
132 52 1
132 91 1
132 92 1
132 192 1
132 312 1
132 370 1
132 408 1
132 544 1
132 578 1
133 53 1
133 94 1
133 193 1
133 313 1
133 371 1
133 409 1
133 545 1
133 579 1
134 54 1
134 93 1
134 94 1
134 194 1
134 314 1
134 372 1
134 410 1
134 546 1
134 580 1
135 55 1
135 96 1
135 195 1
135 315 1
135 373 1
135 411 1
135 547 1
135 581 1
136 56 1
136 95 1
136 96 1
136 196 1
136 316 1
136 374 1
136 412 1
136 548 1
136 582 1
137 57 1
137 98 1
137 197 1
137 317 1
137 375 1
137 413 1
137 549 1
137 583 1
138 58 1
138 97 1
138 98 1
138 198 1
138 318 1
138 376 1
138 414 1
138 550 1
138 584 1
139 59 1
139 100 1
139 199 1
139 319 1
139 377 1
139 415 1
139 551 1
139 585 1
140 60 1
140 99 1
140 100 1
140 200 1
140 320 1
140 378 1
140 416 1
140 552 1
140 586 1
141 61 1
141 102 1
141 201 1
141 241 1
141 379 1
141 417 1
141 553 1
141 587 1
142 62 1
142 101 1
142 102 1
142 202 1
142 242 1
142 380 1
142 418 1
142 554 1
142 588 1
143 63 1
143 104 1
143 203 1
143 243 1
143 381 1
143 419 1
143 555 1
143 589 1
144 64 1
144 103 1
144 104 1
144 204 1
144 244 1
144 382 1
144 420 1
144 556 1
144 590 1
145 65 1
145 106 1
145 205 1
145 245 1
145 383 1
145 421 1
145 557 1
145 591 1
146 66 1
146 105 1
146 106 1
146 206 1
146 246 1
146 384 1
146 422 1
146 558 1
146 592 1
147 67 1
147 108 1
147 207 1
147 247 1
147 385 1
147 423 1
147 559 1
147 593 1
148 68 1
148 107 1
148 108 1
148 208 1
148 248 1
148 386 1
148 424 1
148 560 1
148 594 1
149 69 1
149 110 1
149 209 1
149 249 1
149 387 1
149 425 1
149 481 1
149 595 1
150 70 1
150 109 1
150 110 1
150 210 1
150 250 1
150 388 1
150 426 1
150 482 1
150 596 1
151 71 1
151 112 1
151 211 1
151 251 1
151 389 1
151 427 1
151 483 1
151 597 1
152 72 1
152 111 1
152 112 1
152 212 1
152 252 1
152 390 1
152 428 1
152 484 1
152 598 1
153 73 1
153 114 1
153 213 1
153 253 1
153 391 1
153 429 1
153 485 1
153 599 1
154 74 1
154 113 1
154 114 1
154 214 1
154 254 1
154 392 1
154 430 1
154 486 1
154 600 1
155 75 1
155 116 1
155 215 1
155 255 1
155 393 1
155 431 1
155 487 1
155 601 1
156 76 1
156 115 1
156 116 1
156 216 1
156 256 1
156 394 1
156 432 1
156 488 1
156 602 1
157 77 1
157 118 1
157 217 1
157 257 1
157 395 1
157 433 1
157 489 1
157 603 1
158 78 1
158 117 1
158 118 1
158 218 1
158 258 1
158 396 1
158 434 1
158 490 1
158 604 1
159 79 1
159 120 1
159 219 1
159 259 1
159 397 1
159 435 1
159 491 1
159 605 1
160 80 1
160 119 1
160 120 1
160 220 1
160 260 1
160 398 1
160 436 1
160 492 1
160 606 1
161 1 1
161 101 1
161 188 1
161 279 1
161 385 1
161 415 1
161 509 1
161 591 1
162 2 1
162 102 1
162 187 1
162 188 1
162 280 1
162 386 1
162 416 1
162 510 1
162 592 1
163 3 1
163 103 1
163 190 1
163 281 1
163 387 1
163 417 1
163 511 1
163 593 1
164 4 1
164 104 1
164 189 1
164 190 1
164 282 1
164 388 1
164 418 1
164 512 1
164 594 1
165 5 1
165 105 1
165 192 1
165 283 1
165 389 1
165 419 1
165 513 1
165 595 1
166 6 1
166 106 1
166 191 1
166 192 1
166 284 1
166 390 1
166 420 1
166 514 1
166 596 1
167 7 1
167 107 1
167 194 1
167 285 1
167 391 1
167 421 1
167 515 1
167 597 1
168 8 1
168 108 1
168 193 1
168 194 1
168 286 1
168 392 1
168 422 1
168 516 1
168 598 1
169 9 1
169 109 1
169 196 1
169 287 1
169 393 1
169 423 1
169 517 1
169 599 1
170 10 1
170 110 1
170 195 1
170 196 1
170 288 1
170 394 1
170 424 1
170 518 1
170 600 1
171 11 1
171 111 1
171 198 1
171 289 1
171 395 1
171 425 1
171 519 1
171 601 1
172 12 1
172 112 1
172 197 1
172 198 1
172 290 1
172 396 1
172 426 1
172 520 1
172 602 1
173 13 1
173 113 1
173 200 1
173 291 1
173 397 1
173 427 1
173 521 1
173 603 1
174 14 1
174 114 1
174 199 1
174 200 1
174 292 1
174 398 1
174 428 1
174 522 1
174 604 1
175 15 1
175 115 1
175 202 1
175 293 1
175 399 1
175 429 1
175 523 1
175 605 1
176 16 1
176 116 1
176 201 1
176 202 1
176 294 1
176 400 1
176 430 1
176 524 1
176 606 1
177 17 1
177 117 1
177 204 1
177 295 1
177 321 1
177 431 1
177 525 1
177 607 1
178 18 1
178 118 1
178 203 1
178 204 1
178 296 1
178 322 1
178 432 1
178 526 1
178 608 1
179 19 1
179 119 1
179 206 1
179 297 1
179 323 1
179 433 1
179 527 1
179 609 1
180 20 1
180 120 1
180 205 1
180 206 1
180 298 1
180 324 1
180 434 1
180 528 1
180 610 1
181 21 1
181 121 1
181 208 1
181 299 1
181 325 1
181 435 1
181 529 1
181 611 1
182 22 1
182 122 1
182 207 1
182 208 1
182 300 1
182 326 1
182 436 1
182 530 1
182 612 1
183 23 1
183 123 1
183 210 1
183 301 1
183 327 1
183 437 1
183 531 1
183 613 1
184 24 1
184 124 1
184 209 1
184 210 1
184 302 1
184 328 1
184 438 1
184 532 1
184 614 1
185 25 1
185 125 1
185 212 1
185 303 1
185 329 1
185 439 1
185 533 1
185 615 1
186 26 1
186 126 1
186 211 1
186 212 1
186 304 1
186 330 1
186 440 1
186 534 1
186 616 1
187 27 1
187 127 1
187 214 1
187 305 1
187 331 1
187 441 1
187 535 1
187 617 1
188 28 1
188 128 1
188 213 1
188 214 1
188 306 1
188 332 1
188 442 1
188 536 1
188 618 1
189 29 1
189 129 1
189 216 1
189 307 1
189 333 1
189 443 1
189 537 1
189 619 1
190 30 1
190 130 1
190 215 1
190 216 1
190 308 1
190 334 1
190 444 1
190 538 1
190 620 1
191 31 1
191 131 1
191 218 1
191 309 1
191 335 1
191 445 1
191 539 1
191 621 1
192 32 1
192 132 1
192 217 1
192 218 1
192 310 1
192 336 1
192 446 1
192 540 1
192 622 1
193 33 1
193 133 1
193 220 1
193 311 1
193 337 1
193 447 1
193 541 1
193 623 1
194 34 1
194 134 1
194 219 1
194 220 1
194 312 1
194 338 1
194 448 1
194 542 1
194 624 1
195 35 1
195 135 1
195 222 1
195 313 1
195 339 1
195 449 1
195 543 1
195 625 1
196 36 1
196 136 1
196 221 1
196 222 1
196 314 1
196 340 1
196 450 1
196 544 1
196 626 1
197 37 1
197 137 1
197 224 1
197 315 1
197 341 1
197 451 1
197 545 1
197 627 1
198 38 1
198 138 1
198 223 1
198 224 1
198 316 1
198 342 1
198 452 1
198 546 1
198 628 1
199 39 1
199 139 1
199 226 1
199 317 1
199 343 1
199 453 1
199 547 1
199 629 1
200 40 1
200 140 1
200 225 1
200 226 1
200 318 1
200 344 1
200 454 1
200 548 1
200 630 1
201 41 1
201 141 1
201 228 1
201 319 1
201 345 1
201 455 1
201 549 1
201 631 1
202 42 1
202 142 1
202 227 1
202 228 1
202 320 1
202 346 1
202 456 1
202 550 1
202 632 1
203 43 1
203 143 1
203 230 1
203 241 1
203 347 1
203 457 1
203 551 1
203 633 1
204 44 1
204 144 1
204 229 1
204 230 1
204 242 1
204 348 1
204 458 1
204 552 1
204 634 1
205 45 1
205 145 1
205 232 1
205 243 1
205 349 1
205 459 1
205 553 1
205 635 1
206 46 1
206 146 1
206 231 1
206 232 1
206 244 1
206 350 1
206 460 1
206 554 1
206 636 1
207 47 1
207 147 1
207 234 1
207 245 1
207 351 1
207 461 1
207 555 1
207 637 1
208 48 1
208 148 1
208 233 1
208 234 1
208 246 1
208 352 1
208 462 1
208 556 1
208 638 1
209 49 1
209 149 1
209 236 1
209 247 1
209 353 1
209 463 1
209 557 1
209 639 1
210 50 1
210 150 1
210 235 1
210 236 1
210 248 1
210 354 1
210 464 1
210 558 1
210 640 1
211 51 1
211 151 1
211 238 1
211 249 1
211 355 1
211 465 1
211 559 1
211 561 1
212 52 1
212 152 1
212 237 1
212 238 1
212 250 1
212 356 1
212 466 1
212 560 1
212 562 1
213 53 1
213 153 1
213 240 1
213 251 1
213 357 1
213 467 1
213 481 1
213 563 1
214 54 1
214 154 1
214 239 1
214 240 1
214 252 1
214 358 1
214 468 1
214 482 1
214 564 1
215 55 1
215 155 1
215 162 1
215 253 1
215 359 1
215 469 1
215 483 1
215 565 1
216 56 1
216 156 1
216 161 1
216 162 1
216 254 1
216 360 1
216 470 1
216 484 1
216 566 1
217 57 1
217 157 1
217 164 1
217 255 1
217 361 1
217 471 1
217 485 1
217 567 1
218 58 1
218 158 1
218 163 1
218 164 1
218 256 1
218 362 1
218 472 1
218 486 1
218 568 1
219 59 1
219 159 1
219 166 1
219 257 1
219 363 1
219 473 1
219 487 1
219 569 1
220 60 1
220 160 1
220 165 1
220 166 1
220 258 1
220 364 1
220 474 1
220 488 1
220 570 1
221 61 1
221 81 1
221 168 1
221 259 1
221 365 1
221 475 1
221 489 1
221 571 1
222 62 1
222 82 1
222 167 1
222 168 1
222 260 1
222 366 1
222 476 1
222 490 1
222 572 1
223 63 1
223 83 1
223 170 1
223 261 1
223 367 1
223 477 1
223 491 1
223 573 1
224 64 1
224 84 1
224 169 1
224 170 1
224 262 1
224 368 1
224 478 1
224 492 1
224 574 1
225 65 1
225 85 1
225 172 1
225 263 1
225 369 1
225 479 1
225 493 1
225 575 1
226 66 1
226 86 1
226 171 1
226 172 1
226 264 1
226 370 1
226 480 1
226 494 1
226 576 1
227 67 1
227 87 1
227 174 1
227 265 1
227 371 1
227 401 1
227 495 1
227 577 1
228 68 1
228 88 1
228 173 1
228 174 1
228 266 1
228 372 1
228 402 1
228 496 1
228 578 1
229 69 1
229 89 1
229 176 1
229 267 1
229 373 1
229 403 1
229 497 1
229 579 1
230 70 1
230 90 1
230 175 1
230 176 1
230 268 1
230 374 1
230 404 1
230 498 1
230 580 1
231 71 1
231 91 1
231 178 1
231 269 1
231 375 1
231 405 1
231 499 1
231 581 1
232 72 1
232 92 1
232 177 1
232 178 1
232 270 1
232 376 1
232 406 1
232 500 1
232 582 1
233 73 1
233 93 1
233 180 1
233 271 1
233 377 1
233 407 1
233 501 1
233 583 1
234 74 1
234 94 1
234 179 1
234 180 1
234 272 1
234 378 1
234 408 1
234 502 1
234 584 1
235 75 1
235 95 1
235 182 1
235 273 1
235 379 1
235 409 1
235 503 1
235 585 1
236 76 1
236 96 1
236 181 1
236 182 1
236 274 1
236 380 1
236 410 1
236 504 1
236 586 1
237 77 1
237 97 1
237 184 1
237 275 1
237 381 1
237 411 1
237 505 1
237 587 1
238 78 1
238 98 1
238 183 1
238 184 1
238 276 1
238 382 1
238 412 1
238 506 1
238 588 1
239 79 1
239 99 1
239 186 1
239 277 1
239 383 1
239 413 1
239 507 1
239 589 1
240 80 1
240 100 1
240 185 1
240 186 1
240 278 1
240 384 1
240 414 1
240 508 1
240 590 1
