%%MatrixMarket matrix coordinate integer general
% GF(4) labels 0,1,2=omega,3=omega+1; arithmetic is NOT integer arithmetic.
% Coordinate indices are 1-based; omitted entries are zero.
120 320 960
1 1 2
1 41 1
1 81 1
1 121 1
1 161 1
1 201 1
1 241 1
1 281 1
2 2 2
2 42 1
2 82 1
2 122 1
2 162 1
2 202 1
2 242 1
2 282 1
3 3 2
3 43 1
3 83 1
3 123 1
3 163 1
3 203 1
3 243 1
3 283 1
4 4 2
4 44 1
4 84 1
4 124 1
4 164 1
4 204 1
4 244 1
4 284 1
5 5 2
5 45 1
5 85 1
5 125 1
5 165 1
5 205 1
5 245 1
5 285 1
6 6 2
6 46 1
6 86 1
6 126 1
6 166 1
6 206 1
6 246 1
6 286 1
7 7 2
7 47 1
7 87 1
7 127 1
7 167 1
7 207 1
7 247 1
7 287 1
8 8 2
8 48 1
8 88 1
8 128 1
8 168 1
8 208 1
8 248 1
8 288 1
9 9 2
9 49 1
9 89 1
9 129 1
9 169 1
9 209 1
9 249 1
9 289 1
10 10 2
10 50 1
10 90 1
10 130 1
10 170 1
10 210 1
10 250 1
10 290 1
11 11 2
11 51 1
11 91 1
11 131 1
11 171 1
11 211 1
11 251 1
11 291 1
12 12 2
12 52 1
12 92 1
12 132 1
12 172 1
12 212 1
12 252 1
12 292 1
13 13 2
13 53 1
13 93 1
13 133 1
13 173 1
13 213 1
13 253 1
13 293 1
14 14 2
14 54 1
14 94 1
14 134 1
14 174 1
14 214 1
14 254 1
14 294 1
15 15 2
15 55 1
15 95 1
15 135 1
15 175 1
15 215 1
15 255 1
15 295 1
16 16 2
16 56 1
16 96 1
16 136 1
16 176 1
16 216 1
16 256 1
16 296 1
17 17 2
17 57 1
17 97 1
17 137 1
17 177 1
17 217 1
17 257 1
17 297 1
18 18 2
18 58 1
18 98 1
18 138 1
18 178 1
18 218 1
18 258 1
18 298 1
19 19 2
19 59 1
19 99 1
19 139 1
19 179 1
19 219 1
19 259 1
19 299 1
20 20 2
20 60 1
20 100 1
20 140 1
20 180 1
20 220 1
20 260 1
20 300 1
21 21 2
21 61 1
21 101 1
21 141 1
21 181 1
21 221 1
21 261 1
21 301 1
22 22 2
22 62 1
22 102 1
22 142 1
22 182 1
22 222 1
22 262 1
22 302 1
23 23 2
23 63 1
23 103 1
23 143 1
23 183 1
23 223 1
23 263 1
23 303 1
24 24 2
24 64 1
24 104 1
24 144 1
24 184 1
24 224 1
24 264 1
24 304 1
25 25 2
25 65 1
25 105 1
25 145 1
25 185 1
25 225 1
25 265 1
25 305 1
26 26 2
26 66 1
26 106 1
26 146 1
26 186 1
26 226 1
26 266 1
26 306 1
27 27 2
27 67 1
27 107 1
27 147 1
27 187 1
27 227 1
27 267 1
27 307 1
28 28 2
28 68 1
28 108 1
28 148 1
28 188 1
28 228 1
28 268 1
28 308 1
29 29 2
29 69 1
29 109 1
29 149 1
29 189 1
29 229 1
29 269 1
29 309 1
30 30 2
30 70 1
30 110 1
30 150 1
30 190 1
30 230 1
30 270 1
30 310 1
31 31 2
31 71 1
31 111 1
31 151 1
31 191 1
31 231 1
31 271 1
31 311 1
32 32 2
32 72 1
32 112 1
32 152 1
32 192 1
32 232 1
32 272 1
32 312 1
33 33 2
33 73 1
33 113 1
33 153 1
33 193 1
33 233 1
33 273 1
33 313 1
34 34 2
34 74 1
34 114 1
34 154 1
34 194 1
34 234 1
34 274 1
34 314 1
35 35 2
35 75 1
35 115 1
35 155 1
35 195 1
35 235 1
35 275 1
35 315 1
36 36 2
36 76 1
36 116 1
36 156 1
36 196 1
36 236 1
36 276 1
36 316 1
37 37 2
37 77 1
37 117 1
37 157 1
37 197 1
37 237 1
37 277 1
37 317 1
38 38 2
38 78 1
38 118 1
38 158 1
38 198 1
38 238 1
38 278 1
38 318 1
39 39 2
39 79 1
39 119 1
39 159 1
39 199 1
39 239 1
39 279 1
39 319 1
40 40 2
40 80 1
40 120 1
40 160 1
40 200 1
40 240 1
40 280 1
40 320 1
41 1 1
41 61 2
41 111 1
41 131 1
41 200 1
41 219 1
41 247 1
41 304 1
42 2 1
42 62 2
42 112 1
42 132 1
42 161 1
42 220 1
42 248 1
42 305 1
43 3 1
43 63 2
43 113 1
43 133 1
43 162 1
43 221 1
43 249 1
43 306 1
44 4 1
44 64 2
44 114 1
44 134 1
44 163 1
44 222 1
44 250 1
44 307 1
45 5 1
45 65 2
45 115 1
45 135 1
45 164 1
45 223 1
45 251 1
45 308 1
46 6 1
46 66 2
46 116 1
46 136 1
46 165 1
46 224 1
46 252 1
46 309 1
47 7 1
47 67 2
47 117 1
47 137 1
47 166 1
47 225 1
47 253 1
47 310 1
48 8 1
48 68 2
48 118 1
48 138 1
48 167 1
48 226 1
48 254 1
48 311 1
49 9 1
49 69 2
49 119 1
49 139 1
49 168 1
49 227 1
49 255 1
49 312 1
50 10 1
50 70 2
50 120 1
50 140 1
50 169 1
50 228 1
50 256 1
50 313 1
51 11 1
51 71 2
51 81 1
51 141 1
51 170 1
51 229 1
51 257 1
51 314 1
52 12 1
52 72 2
52 82 1
52 142 1
52 171 1
52 230 1
52 258 1
52 315 1
53 13 1
53 73 2
53 83 1
53 143 1
53 172 1
53 231 1
53 259 1
53 316 1
54 14 1
54 74 2
54 84 1
54 144 1
54 173 1
54 232 1
54 260 1
54 317 1
55 15 1
55 75 2
55 85 1
55 145 1
55 174 1
55 233 1
55 261 1
55 318 1
56 16 1
56 76 2
56 86 1
56 146 1
56 175 1
56 234 1
56 262 1
56 319 1
57 17 1
57 77 2
57 87 1
57 147 1
57 176 1
57 235 1
57 263 1
57 320 1
58 18 1
58 78 2
58 88 1
58 148 1
58 177 1
58 236 1
58 264 1
58 281 1
59 19 1
59 79 2
59 89 1
59 149 1
59 178 1
59 237 1
59 265 1
59 282 1
60 20 1
60 80 2
60 90 1
60 150 1
60 179 1
60 238 1
60 266 1
60 283 1
61 21 1
61 41 2
61 91 1
61 151 1
61 180 1
61 239 1
61 267 1
61 284 1
62 22 1
62 42 2
62 92 1
62 152 1
62 181 1
62 240 1
62 268 1
62 285 1
63 23 1
63 43 2
63 93 1
63 153 1
63 182 1
63 201 1
63 269 1
63 286 1
64 24 1
64 44 2
64 94 1
64 154 1
64 183 1
64 202 1
64 270 1
64 287 1
65 25 1
65 45 2
65 95 1
65 155 1
65 184 1
65 203 1
65 271 1
65 288 1
66 26 1
66 46 2
66 96 1
66 156 1
66 185 1
66 204 1
66 272 1
66 289 1
67 27 1
67 47 2
67 97 1
67 157 1
67 186 1
67 205 1
67 273 1
67 290 1
68 28 1
68 48 2
68 98 1
68 158 1
68 187 1
68 206 1
68 274 1
68 291 1
69 29 1
69 49 2
69 99 1
69 159 1
69 188 1
69 207 1
69 275 1
69 292 1
70 30 1
70 50 2
70 100 1
70 160 1
70 189 1
70 208 1
70 276 1
70 293 1
71 31 1
71 51 2
71 101 1
71 121 1
71 190 1
71 209 1
71 277 1
71 294 1
72 32 1
72 52 2
72 102 1
72 122 1
72 191 1
72 210 1
72 278 1
72 295 1
73 33 1
73 53 2
73 103 1
73 123 1
73 192 1
73 211 1
73 279 1
73 296 1
74 34 1
74 54 2
74 104 1
74 124 1
74 193 1
74 212 1
74 280 1
74 297 1
75 35 1
75 55 2
75 105 1
75 125 1
75 194 1
75 213 1
75 241 1
75 298 1
76 36 1
76 56 2
76 106 1
76 126 1
76 195 1
76 214 1
76 242 1
76 299 1
77 37 1
77 57 2
77 107 1
77 127 1
77 196 1
77 215 1
77 243 1
77 300 1
78 38 1
78 58 2
78 108 1
78 128 1
78 197 1
78 216 1
78 244 1
78 301 1
79 39 1
79 59 2
79 109 1
79 129 1
79 198 1
79 217 1
79 245 1
79 302 1
80 40 1
80 60 2
80 110 1
80 130 1
80 199 1
80 218 1
80 246 1
80 303 1
81 1 1
81 51 1
81 94 2
81 140 1
81 193 1
81 208 1
81 255 1
81 296 1
82 2 1
82 52 1
82 95 2
82 141 1
82 194 1
82 209 1
82 256 1
82 297 1
83 3 1
83 53 1
83 96 2
83 142 1
83 195 1
83 210 1
83 257 1
83 298 1
84 4 1
84 54 1
84 97 2
84 143 1
84 196 1
84 211 1
84 258 1
84 299 1
85 5 1
85 55 1
85 98 2
85 144 1
85 197 1
85 212 1
85 259 1
85 300 1
86 6 1
86 56 1
86 99 2
86 145 1
86 198 1
86 213 1
86 260 1
86 301 1
87 7 1
87 57 1
87 100 2
87 146 1
87 199 1
87 214 1
87 261 1
87 302 1
88 8 1
88 58 1
88 101 2
88 147 1
88 200 1
88 215 1
88 262 1
88 303 1
89 9 1
89 59 1
89 102 2
89 148 1
89 161 1
89 216 1
89 263 1
89 304 1
90 10 1
90 60 1
90 103 2
90 149 1
90 162 1
90 217 1
90 264 1
90 305 1
91 11 1
91 61 1
91 104 2
91 150 1
91 163 1
91 218 1
91 265 1
91 306 1
92 12 1
92 62 1
92 105 2
92 151 1
92 164 1
92 219 1
92 266 1
92 307 1
93 13 1
93 63 1
93 106 2
93 152 1
93 165 1
93 220 1
93 267 1
93 308 1
94 14 1
94 64 1
94 107 2
94 153 1
94 166 1
94 221 1
94 268 1
94 309 1
95 15 1
95 65 1
95 108 2
95 154 1
95 167 1
95 222 1
95 269 1
95 310 1
96 16 1
96 66 1
96 109 2
96 155 1
96 168 1
96 223 1
96 270 1
96 311 1
97 17 1
97 67 1
97 110 2
97 156 1
97 169 1
97 224 1
97 271 1
97 312 1
98 18 1
98 68 1
98 111 2
98 157 1
98 170 1
98 225 1
98 272 1
98 313 1
99 19 1
99 69 1
99 112 2
99 158 1
99 171 1
99 226 1
99 273 1
99 314 1
100 20 1
100 70 1
100 113 2
100 159 1
100 172 1
100 227 1
100 274 1
100 315 1
101 21 1
101 71 1
101 114 2
101 160 1
101 173 1
101 228 1
101 275 1
101 316 1
102 22 1
102 72 1
102 115 2
102 121 1
102 174 1
102 229 1
102 276 1
102 317 1
103 23 1
103 73 1
103 116 2
103 122 1
103 175 1
103 230 1
103 277 1
103 318 1
104 24 1
104 74 1
104 117 2
104 123 1
104 176 1
104 231 1
104 278 1
104 319 1
105 25 1
105 75 1
105 118 2
105 124 1
105 177 1
105 232 1
105 279 1
105 320 1
106 26 1
106 76 1
106 119 2
106 125 1
106 178 1
106 233 1
106 280 1
106 281 1
107 27 1
107 77 1
107 120 2
107 126 1
107 179 1
107 234 1
107 241 1
107 282 1
108 28 1
108 78 1
108 81 2
108 127 1
108 180 1
108 235 1
108 242 1
108 283 1
109 29 1
109 79 1
109 82 2
109 128 1
109 181 1
109 236 1
109 243 1
109 284 1
110 30 1
110 80 1
110 83 2
110 129 1
110 182 1
110 237 1
110 244 1
110 285 1
111 31 1
111 41 1
111 84 2
111 130 1
111 183 1
111 238 1
111 245 1
111 286 1
112 32 1
112 42 1
112 85 2
112 131 1
112 184 1
112 239 1
112 246 1
112 287 1
113 33 1
113 43 1
113 86 2
113 132 1
113 185 1
113 240 1
113 247 1
113 288 1
114 34 1
114 44 1
114 87 2
114 133 1
114 186 1
114 201 1
114 248 1
114 289 1
115 35 1
115 45 1
115 88 2
115 134 1
115 187 1
115 202 1
115 249 1
115 290 1
116 36 1
116 46 1
116 89 2
116 135 1
116 188 1
116 203 1
116 250 1
116 291 1
117 37 1
117 47 1
117 90 2
117 136 1
117 189 1
117 204 1
117 251 1
117 292 1
118 38 1
118 48 1
118 91 2
118 137 1
118 190 1
118 205 1
118 252 1
118 293 1
119 39 1
119 49 1
119 92 2
119 138 1
119 191 1
119 206 1
119 253 1
119 294 1
120 40 1
120 50 1
120 93 2
120 139 1
120 192 1
120 207 1
120 254 1
120 295 1
