%%MatrixMarket matrix coordinate integer general
% Binary matrix over GF(2).
% Coordinate indices are 1-based; omitted entries are zero.
240 640 2040
1 1 1
1 123 1
1 203 1
1 277 1
1 322 1
1 437 1
1 509 1
1 589 1
2 2 1
2 124 1
2 204 1
2 278 1
2 321 1
2 322 1
2 438 1
2 510 1
2 590 1
3 3 1
3 125 1
3 205 1
3 279 1
3 324 1
3 439 1
3 511 1
3 591 1
4 4 1
4 126 1
4 206 1
4 280 1
4 323 1
4 324 1
4 440 1
4 512 1
4 592 1
5 5 1
5 127 1
5 207 1
5 281 1
5 326 1
5 441 1
5 513 1
5 593 1
6 6 1
6 128 1
6 208 1
6 282 1
6 325 1
6 326 1
6 442 1
6 514 1
6 594 1
7 7 1
7 129 1
7 209 1
7 283 1
7 328 1
7 443 1
7 515 1
7 595 1
8 8 1
8 130 1
8 210 1
8 284 1
8 327 1
8 328 1
8 444 1
8 516 1
8 596 1
9 9 1
9 131 1
9 211 1
9 285 1
9 330 1
9 445 1
9 517 1
9 597 1
10 10 1
10 132 1
10 212 1
10 286 1
10 329 1
10 330 1
10 446 1
10 518 1
10 598 1
11 11 1
11 133 1
11 213 1
11 287 1
11 332 1
11 447 1
11 519 1
11 599 1
12 12 1
12 134 1
12 214 1
12 288 1
12 331 1
12 332 1
12 448 1
12 520 1
12 600 1
13 13 1
13 135 1
13 215 1
13 289 1
13 334 1
13 449 1
13 521 1
13 601 1
14 14 1
14 136 1
14 216 1
14 290 1
14 333 1
14 334 1
14 450 1
14 522 1
14 602 1
15 15 1
15 137 1
15 217 1
15 291 1
15 336 1
15 451 1
15 523 1
15 603 1
16 16 1
16 138 1
16 218 1
16 292 1
16 335 1
16 336 1
16 452 1
16 524 1
16 604 1
17 17 1
17 139 1
17 219 1
17 293 1
17 338 1
17 453 1
17 525 1
17 605 1
18 18 1
18 140 1
18 220 1
18 294 1
18 337 1
18 338 1
18 454 1
18 526 1
18 606 1
19 19 1
19 141 1
19 221 1
19 295 1
19 340 1
19 455 1
19 527 1
19 607 1
20 20 1
20 142 1
20 222 1
20 296 1
20 339 1
20 340 1
20 456 1
20 528 1
20 608 1
21 21 1
21 143 1
21 223 1
21 297 1
21 342 1
21 457 1
21 529 1
21 609 1
22 22 1
22 144 1
22 224 1
22 298 1
22 341 1
22 342 1
22 458 1
22 530 1
22 610 1
23 23 1
23 145 1
23 225 1
23 299 1
23 344 1
23 459 1
23 531 1
23 611 1
24 24 1
24 146 1
24 226 1
24 300 1
24 343 1
24 344 1
24 460 1
24 532 1
24 612 1
25 25 1
25 147 1
25 227 1
25 301 1
25 346 1
25 461 1
25 533 1
25 613 1
26 26 1
26 148 1
26 228 1
26 302 1
26 345 1
26 346 1
26 462 1
26 534 1
26 614 1
27 27 1
27 149 1
27 229 1
27 303 1
27 348 1
27 463 1
27 535 1
27 615 1
28 28 1
28 150 1
28 230 1
28 304 1
28 347 1
28 348 1
28 464 1
28 536 1
28 616 1
29 29 1
29 151 1
29 231 1
29 305 1
29 350 1
29 465 1
29 537 1
29 617 1
30 30 1
30 152 1
30 232 1
30 306 1
30 349 1
30 350 1
30 466 1
30 538 1
30 618 1
31 31 1
31 153 1
31 233 1
31 307 1
31 352 1
31 467 1
31 539 1
31 619 1
32 32 1
32 154 1
32 234 1
32 308 1
32 351 1
32 352 1
32 468 1
32 540 1
32 620 1
33 33 1
33 155 1
33 235 1
33 309 1
33 354 1
33 469 1
33 541 1
33 621 1
34 34 1
34 156 1
34 236 1
34 310 1
34 353 1
34 354 1
34 470 1
34 542 1
34 622 1
35 35 1
35 157 1
35 237 1
35 311 1
35 356 1
35 471 1
35 543 1
35 623 1
36 36 1
36 158 1
36 238 1
36 312 1
36 355 1
36 356 1
36 472 1
36 544 1
36 624 1
37 37 1
37 159 1
37 239 1
37 313 1
37 358 1
37 473 1
37 545 1
37 625 1
38 38 1
38 160 1
38 240 1
38 314 1
38 357 1
38 358 1
38 474 1
38 546 1
38 626 1
39 39 1
39 81 1
39 161 1
39 315 1
39 360 1
39 475 1
39 547 1
39 627 1
40 40 1
40 82 1
40 162 1
40 316 1
40 359 1
40 360 1
40 476 1
40 548 1
40 628 1
41 41 1
41 83 1
41 163 1
41 317 1
41 362 1
41 477 1
41 549 1
41 629 1
42 42 1
42 84 1
42 164 1
42 318 1
42 361 1
42 362 1
42 478 1
42 550 1
42 630 1
43 43 1
43 85 1
43 165 1
43 319 1
43 364 1
43 479 1
43 551 1
43 631 1
44 44 1
44 86 1
44 166 1
44 320 1
44 363 1
44 364 1
44 480 1
44 552 1
44 632 1
45 45 1
45 87 1
45 167 1
45 241 1
45 366 1
45 401 1
45 553 1
45 633 1
46 46 1
46 88 1
46 168 1
46 242 1
46 365 1
46 366 1
46 402 1
46 554 1
46 634 1
47 47 1
47 89 1
47 169 1
47 243 1
47 368 1
47 403 1
47 555 1
47 635 1
48 48 1
48 90 1
48 170 1
48 244 1
48 367 1
48 368 1
48 404 1
48 556 1
48 636 1
49 49 1
49 91 1
49 171 1
49 245 1
49 370 1
49 405 1
49 557 1
49 637 1
50 50 1
50 92 1
50 172 1
50 246 1
50 369 1
50 370 1
50 406 1
50 558 1
50 638 1
51 51 1
51 93 1
51 173 1
51 247 1
51 372 1
51 407 1
51 559 1
51 639 1
52 52 1
52 94 1
52 174 1
52 248 1
52 371 1
52 372 1
52 408 1
52 560 1
52 640 1
53 53 1
53 95 1
53 175 1
53 249 1
53 374 1
53 409 1
53 481 1
53 561 1
54 54 1
54 96 1
54 176 1
54 250 1
54 373 1
54 374 1
54 410 1
54 482 1
54 562 1
55 55 1
55 97 1
55 177 1
55 251 1
55 376 1
55 411 1
55 483 1
55 563 1
56 56 1
56 98 1
56 178 1
56 252 1
56 375 1
56 376 1
56 412 1
56 484 1
56 564 1
57 57 1
57 99 1
57 179 1
57 253 1
57 378 1
57 413 1
57 485 1
57 565 1
58 58 1
58 100 1
58 180 1
58 254 1
58 377 1
58 378 1
58 414 1
58 486 1
58 566 1
59 59 1
59 101 1
59 181 1
59 255 1
59 380 1
59 415 1
59 487 1
59 567 1
60 60 1
60 102 1
60 182 1
60 256 1
60 379 1
60 380 1
60 416 1
60 488 1
60 568 1
61 61 1
61 103 1
61 183 1
61 257 1
61 382 1
61 417 1
61 489 1
61 569 1
62 62 1
62 104 1
62 184 1
62 258 1
62 381 1
62 382 1
62 418 1
62 490 1
62 570 1
63 63 1
63 105 1
63 185 1
63 259 1
63 384 1
63 419 1
63 491 1
63 571 1
64 64 1
64 106 1
64 186 1
64 260 1
64 383 1
64 384 1
64 420 1
64 492 1
64 572 1
65 65 1
65 107 1
65 187 1
65 261 1
65 386 1
65 421 1
65 493 1
65 573 1
66 66 1
66 108 1
66 188 1
66 262 1
66 385 1
66 386 1
66 422 1
66 494 1
66 574 1
67 67 1
67 109 1
67 189 1
67 263 1
67 388 1
67 423 1
67 495 1
67 575 1
68 68 1
68 110 1
68 190 1
68 264 1
68 387 1
68 388 1
68 424 1
68 496 1
68 576 1
69 69 1
69 111 1
69 191 1
69 265 1
69 390 1
69 425 1
69 497 1
69 577 1
70 70 1
70 112 1
70 192 1
70 266 1
70 389 1
70 390 1
70 426 1
70 498 1
70 578 1
71 71 1
71 113 1
71 193 1
71 267 1
71 392 1
71 427 1
71 499 1
71 579 1
72 72 1
72 114 1
72 194 1
72 268 1
72 391 1
72 392 1
72 428 1
72 500 1
72 580 1
73 73 1
73 115 1
73 195 1
73 269 1
73 394 1
73 429 1
73 501 1
73 581 1
74 74 1
74 116 1
74 196 1
74 270 1
74 393 1
74 394 1
74 430 1
74 502 1
74 582 1
75 75 1
75 117 1
75 197 1
75 271 1
75 396 1
75 431 1
75 503 1
75 583 1
76 76 1
76 118 1
76 198 1
76 272 1
76 395 1
76 396 1
76 432 1
76 504 1
76 584 1
77 77 1
77 119 1
77 199 1
77 273 1
77 398 1
77 433 1
77 505 1
77 585 1
78 78 1
78 120 1
78 200 1
78 274 1
78 397 1
78 398 1
78 434 1
78 506 1
78 586 1
79 79 1
79 121 1
79 201 1
79 275 1
79 400 1
79 435 1
79 507 1
79 587 1
80 80 1
80 122 1
80 202 1
80 276 1
80 399 1
80 400 1
80 436 1
80 508 1
80 588 1
81 1 1
81 85 1
81 173 1
81 245 1
81 351 1
81 402 1
81 493 1
81 591 1
82 2 1
82 86 1
82 174 1
82 246 1
82 352 1
82 401 1
82 402 1
82 494 1
82 592 1
83 3 1
83 87 1
83 175 1
83 247 1
83 353 1
83 404 1
83 495 1
83 593 1
84 4 1
84 88 1
84 176 1
84 248 1
84 354 1
84 403 1
84 404 1
84 496 1
84 594 1
85 5 1
85 89 1
85 177 1
85 249 1
85 355 1
85 406 1
85 497 1
85 595 1
86 6 1
86 90 1
86 178 1
86 250 1
86 356 1
86 405 1
86 406 1
86 498 1
86 596 1
87 7 1
87 91 1
87 179 1
87 251 1
87 357 1
87 408 1
87 499 1
87 597 1
88 8 1
88 92 1
88 180 1
88 252 1
88 358 1
88 407 1
88 408 1
88 500 1
88 598 1
89 9 1
89 93 1
89 181 1
89 253 1
89 359 1
89 410 1
89 501 1
89 599 1
90 10 1
90 94 1
90 182 1
90 254 1
90 360 1
90 409 1
90 410 1
90 502 1
90 600 1
91 11 1
91 95 1
91 183 1
91 255 1
91 361 1
91 412 1
91 503 1
91 601 1
92 12 1
92 96 1
92 184 1
92 256 1
92 362 1
92 411 1
92 412 1
92 504 1
92 602 1
93 13 1
93 97 1
93 185 1
93 257 1
93 363 1
93 414 1
93 505 1
93 603 1
94 14 1
94 98 1
94 186 1
94 258 1
94 364 1
94 413 1
94 414 1
94 506 1
94 604 1
95 15 1
95 99 1
95 187 1
95 259 1
95 365 1
95 416 1
95 507 1
95 605 1
96 16 1
96 100 1
96 188 1
96 260 1
96 366 1
96 415 1
96 416 1
96 508 1
96 606 1
97 17 1
97 101 1
97 189 1
97 261 1
97 367 1
97 418 1
97 509 1
97 607 1
98 18 1
98 102 1
98 190 1
98 262 1
98 368 1
98 417 1
98 418 1
98 510 1
98 608 1
99 19 1
99 103 1
99 191 1
99 263 1
99 369 1
99 420 1
99 511 1
99 609 1
100 20 1
100 104 1
100 192 1
100 264 1
100 370 1
100 419 1
100 420 1
100 512 1
100 610 1
101 21 1
101 105 1
101 193 1
101 265 1
101 371 1
101 422 1
101 513 1
101 611 1
102 22 1
102 106 1
102 194 1
102 266 1
102 372 1
102 421 1
102 422 1
102 514 1
102 612 1
103 23 1
103 107 1
103 195 1
103 267 1
103 373 1
103 424 1
103 515 1
103 613 1
104 24 1
104 108 1
104 196 1
104 268 1
104 374 1
104 423 1
104 424 1
104 516 1
104 614 1
105 25 1
105 109 1
105 197 1
105 269 1
105 375 1
105 426 1
105 517 1
105 615 1
106 26 1
106 110 1
106 198 1
106 270 1
106 376 1
106 425 1
106 426 1
106 518 1
106 616 1
107 27 1
107 111 1
107 199 1
107 271 1
107 377 1
107 428 1
107 519 1
107 617 1
108 28 1
108 112 1
108 200 1
108 272 1
108 378 1
108 427 1
108 428 1
108 520 1
108 618 1
109 29 1
109 113 1
109 201 1
109 273 1
109 379 1
109 430 1
109 521 1
109 619 1
110 30 1
110 114 1
110 202 1
110 274 1
110 380 1
110 429 1
110 430 1
110 522 1
110 620 1
111 31 1
111 115 1
111 203 1
111 275 1
111 381 1
111 432 1
111 523 1
111 621 1
112 32 1
112 116 1
112 204 1
112 276 1
112 382 1
112 431 1
112 432 1
112 524 1
112 622 1
113 33 1
113 117 1
113 205 1
113 277 1
113 383 1
113 434 1
113 525 1
113 623 1
114 34 1
114 118 1
114 206 1
114 278 1
114 384 1
114 433 1
114 434 1
114 526 1
114 624 1
115 35 1
115 119 1
115 207 1
115 279 1
115 385 1
115 436 1
115 527 1
115 625 1
116 36 1
116 120 1
116 208 1
116 280 1
116 386 1
116 435 1
116 436 1
116 528 1
116 626 1
117 37 1
117 121 1
117 209 1
117 281 1
117 387 1
117 438 1
117 529 1
117 627 1
118 38 1
118 122 1
118 210 1
118 282 1
118 388 1
118 437 1
118 438 1
118 530 1
118 628 1
119 39 1
119 123 1
119 211 1
119 283 1
119 389 1
119 440 1
119 531 1
119 629 1
120 40 1
120 124 1
120 212 1
120 284 1
120 390 1
120 439 1
120 440 1
120 532 1
120 630 1
121 41 1
121 125 1
121 213 1
121 285 1
121 391 1
121 442 1
121 533 1
121 631 1
122 42 1
122 126 1
122 214 1
122 286 1
122 392 1
122 441 1
122 442 1
122 534 1
122 632 1
123 43 1
123 127 1
123 215 1
123 287 1
123 393 1
123 444 1
123 535 1
123 633 1
124 44 1
124 128 1
124 216 1
124 288 1
124 394 1
124 443 1
124 444 1
124 536 1
124 634 1
125 45 1
125 129 1
125 217 1
125 289 1
125 395 1
125 446 1
125 537 1
125 635 1
126 46 1
126 130 1
126 218 1
126 290 1
126 396 1
126 445 1
126 446 1
126 538 1
126 636 1
127 47 1
127 131 1
127 219 1
127 291 1
127 397 1
127 448 1
127 539 1
127 637 1
128 48 1
128 132 1
128 220 1
128 292 1
128 398 1
128 447 1
128 448 1
128 540 1
128 638 1
129 49 1
129 133 1
129 221 1
129 293 1
129 399 1
129 450 1
129 541 1
129 639 1
130 50 1
130 134 1
130 222 1
130 294 1
130 400 1
130 449 1
130 450 1
130 542 1
130 640 1
131 51 1
131 135 1
131 223 1
131 295 1
131 321 1
131 452 1
131 543 1
131 561 1
132 52 1
132 136 1
132 224 1
132 296 1
132 322 1
132 451 1
132 452 1
132 544 1
132 562 1
133 53 1
133 137 1
133 225 1
133 297 1
133 323 1
133 454 1
133 545 1
133 563 1
134 54 1
134 138 1
134 226 1
134 298 1
134 324 1
134 453 1
134 454 1
134 546 1
134 564 1
135 55 1
135 139 1
135 227 1
135 299 1
135 325 1
135 456 1
135 547 1
135 565 1
136 56 1
136 140 1
136 228 1
136 300 1
136 326 1
136 455 1
136 456 1
136 548 1
136 566 1
137 57 1
137 141 1
137 229 1
137 301 1
137 327 1
137 458 1
137 549 1
137 567 1
138 58 1
138 142 1
138 230 1
138 302 1
138 328 1
138 457 1
138 458 1
138 550 1
138 568 1
139 59 1
139 143 1
139 231 1
139 303 1
139 329 1
139 460 1
139 551 1
139 569 1
140 60 1
140 144 1
140 232 1
140 304 1
140 330 1
140 459 1
140 460 1
140 552 1
140 570 1
141 61 1
141 145 1
141 233 1
141 305 1
141 331 1
141 462 1
141 553 1
141 571 1
142 62 1
142 146 1
142 234 1
142 306 1
142 332 1
142 461 1
142 462 1
142 554 1
142 572 1
143 63 1
143 147 1
143 235 1
143 307 1
143 333 1
143 464 1
143 555 1
143 573 1
144 64 1
144 148 1
144 236 1
144 308 1
144 334 1
144 463 1
144 464 1
144 556 1
144 574 1
145 65 1
145 149 1
145 237 1
145 309 1
145 335 1
145 466 1
145 557 1
145 575 1
146 66 1
146 150 1
146 238 1
146 310 1
146 336 1
146 465 1
146 466 1
146 558 1
146 576 1
147 67 1
147 151 1
147 239 1
147 311 1
147 337 1
147 468 1
147 559 1
147 577 1
148 68 1
148 152 1
148 240 1
148 312 1
148 338 1
148 467 1
148 468 1
148 560 1
148 578 1
149 69 1
149 153 1
149 161 1
149 313 1
149 339 1
149 470 1
149 481 1
149 579 1
150 70 1
150 154 1
150 162 1
150 314 1
150 340 1
150 469 1
150 470 1
150 482 1
150 580 1
151 71 1
151 155 1
151 163 1
151 315 1
151 341 1
151 472 1
151 483 1
151 581 1
152 72 1
152 156 1
152 164 1
152 316 1
152 342 1
152 471 1
152 472 1
152 484 1
152 582 1
153 73 1
153 157 1
153 165 1
153 317 1
153 343 1
153 474 1
153 485 1
153 583 1
154 74 1
154 158 1
154 166 1
154 318 1
154 344 1
154 473 1
154 474 1
154 486 1
154 584 1
155 75 1
155 159 1
155 167 1
155 319 1
155 345 1
155 476 1
155 487 1
155 585 1
156 76 1
156 160 1
156 168 1
156 320 1
156 346 1
156 475 1
156 476 1
156 488 1
156 586 1
157 77 1
157 81 1
157 169 1
157 241 1
157 347 1
157 478 1
157 489 1
157 587 1
158 78 1
158 82 1
158 170 1
158 242 1
158 348 1
158 477 1
158 478 1
158 490 1
158 588 1
159 79 1
159 83 1
159 171 1
159 243 1
159 349 1
159 480 1
159 491 1
159 589 1
160 80 1
160 84 1
160 172 1
160 244 1
160 350 1
160 479 1
160 480 1
160 492 1
160 590 1
161 1 1
161 109 1
161 239 1
161 279 1
161 399 1
161 429 1
161 482 1
161 599 1
162 2 1
162 110 1
162 240 1
162 280 1
162 400 1
162 430 1
162 481 1
162 482 1
162 600 1
163 3 1
163 111 1
163 161 1
163 281 1
163 321 1
163 431 1
163 484 1
163 601 1
164 4 1
164 112 1
164 162 1
164 282 1
164 322 1
164 432 1
164 483 1
164 484 1
164 602 1
165 5 1
165 113 1
165 163 1
165 283 1
165 323 1
165 433 1
165 486 1
165 603 1
166 6 1
166 114 1
166 164 1
166 284 1
166 324 1
166 434 1
166 485 1
166 486 1
166 604 1
167 7 1
167 115 1
167 165 1
167 285 1
167 325 1
167 435 1
167 488 1
167 605 1
168 8 1
168 116 1
168 166 1
168 286 1
168 326 1
168 436 1
168 487 1
168 488 1
168 606 1
169 9 1
169 117 1
169 167 1
169 287 1
169 327 1
169 437 1
169 490 1
169 607 1
170 10 1
170 118 1
170 168 1
170 288 1
170 328 1
170 438 1
170 489 1
170 490 1
170 608 1
171 11 1
171 119 1
171 169 1
171 289 1
171 329 1
171 439 1
171 492 1
171 609 1
172 12 1
172 120 1
172 170 1
172 290 1
172 330 1
172 440 1
172 491 1
172 492 1
172 610 1
173 13 1
173 121 1
173 171 1
173 291 1
173 331 1
173 441 1
173 494 1
173 611 1
174 14 1
174 122 1
174 172 1
174 292 1
174 332 1
174 442 1
174 493 1
174 494 1
174 612 1
175 15 1
175 123 1
175 173 1
175 293 1
175 333 1
175 443 1
175 496 1
175 613 1
176 16 1
176 124 1
176 174 1
176 294 1
176 334 1
176 444 1
176 495 1
176 496 1
176 614 1
177 17 1
177 125 1
177 175 1
177 295 1
177 335 1
177 445 1
177 498 1
177 615 1
178 18 1
178 126 1
178 176 1
178 296 1
178 336 1
178 446 1
178 497 1
178 498 1
178 616 1
179 19 1
179 127 1
179 177 1
179 297 1
179 337 1
179 447 1
179 500 1
179 617 1
180 20 1
180 128 1
180 178 1
180 298 1
180 338 1
180 448 1
180 499 1
180 500 1
180 618 1
181 21 1
181 129 1
181 179 1
181 299 1
181 339 1
181 449 1
181 502 1
181 619 1
182 22 1
182 130 1
182 180 1
182 300 1
182 340 1
182 450 1
182 501 1
182 502 1
182 620 1
183 23 1
183 131 1
183 181 1
183 301 1
183 341 1
183 451 1
183 504 1
183 621 1
184 24 1
184 132 1
184 182 1
184 302 1
184 342 1
184 452 1
184 503 1
184 504 1
184 622 1
185 25 1
185 133 1
185 183 1
185 303 1
185 343 1
185 453 1
185 506 1
185 623 1
186 26 1
186 134 1
186 184 1
186 304 1
186 344 1
186 454 1
186 505 1
186 506 1
186 624 1
187 27 1
187 135 1
187 185 1
187 305 1
187 345 1
187 455 1
187 508 1
187 625 1
188 28 1
188 136 1
188 186 1
188 306 1
188 346 1
188 456 1
188 507 1
188 508 1
188 626 1
189 29 1
189 137 1
189 187 1
189 307 1
189 347 1
189 457 1
189 510 1
189 627 1
190 30 1
190 138 1
190 188 1
190 308 1
190 348 1
190 458 1
190 509 1
190 510 1
190 628 1
191 31 1
191 139 1
191 189 1
191 309 1
191 349 1
191 459 1
191 512 1
191 629 1
192 32 1
192 140 1
192 190 1
192 310 1
192 350 1
192 460 1
192 511 1
192 512 1
192 630 1
193 33 1
193 141 1
193 191 1
193 311 1
193 351 1
193 461 1
193 514 1
193 631 1
194 34 1
194 142 1
194 192 1
194 312 1
194 352 1
194 462 1
194 513 1
194 514 1
194 632 1
195 35 1
195 143 1
195 193 1
195 313 1
195 353 1
195 463 1
195 516 1
195 633 1
196 36 1
196 144 1
196 194 1
196 314 1
196 354 1
196 464 1
196 515 1
196 516 1
196 634 1
197 37 1
197 145 1
197 195 1
197 315 1
197 355 1
197 465 1
197 518 1
197 635 1
198 38 1
198 146 1
198 196 1
198 316 1
198 356 1
198 466 1
198 517 1
198 518 1
198 636 1
199 39 1
199 147 1
199 197 1
199 317 1
199 357 1
199 467 1
199 520 1
199 637 1
200 40 1
200 148 1
200 198 1
200 318 1
200 358 1
200 468 1
200 519 1
200 520 1
200 638 1
201 41 1
201 149 1
201 199 1
201 319 1
201 359 1
201 469 1
201 522 1
201 639 1
202 42 1
202 150 1
202 200 1
202 320 1
202 360 1
202 470 1
202 521 1
202 522 1
202 640 1
203 43 1
203 151 1
203 201 1
203 241 1
203 361 1
203 471 1
203 524 1
203 561 1
204 44 1
204 152 1
204 202 1
204 242 1
204 362 1
204 472 1
204 523 1
204 524 1
204 562 1
205 45 1
205 153 1
205 203 1
205 243 1
205 363 1
205 473 1
205 526 1
205 563 1
206 46 1
206 154 1
206 204 1
206 244 1
206 364 1
206 474 1
206 525 1
206 526 1
206 564 1
207 47 1
207 155 1
207 205 1
207 245 1
207 365 1
207 475 1
207 528 1
207 565 1
208 48 1
208 156 1
208 206 1
208 246 1
208 366 1
208 476 1
208 527 1
208 528 1
208 566 1
209 49 1
209 157 1
209 207 1
209 247 1
209 367 1
209 477 1
209 530 1
209 567 1
210 50 1
210 158 1
210 208 1
210 248 1
210 368 1
210 478 1
210 529 1
210 530 1
210 568 1
211 51 1
211 159 1
211 209 1
211 249 1
211 369 1
211 479 1
211 532 1
211 569 1
212 52 1
212 160 1
212 210 1
212 250 1
212 370 1
212 480 1
212 531 1
212 532 1
212 570 1
213 53 1
213 81 1
213 211 1
213 251 1
213 371 1
213 401 1
213 534 1
213 571 1
214 54 1
214 82 1
214 212 1
214 252 1
214 372 1
214 402 1
214 533 1
214 534 1
214 572 1
215 55 1
215 83 1
215 213 1
215 253 1
215 373 1
215 403 1
215 536 1
215 573 1
216 56 1
216 84 1
216 214 1
216 254 1
216 374 1
216 404 1
216 535 1
216 536 1
216 574 1
217 57 1
217 85 1
217 215 1
217 255 1
217 375 1
217 405 1
217 538 1
217 575 1
218 58 1
218 86 1
218 216 1
218 256 1
218 376 1
218 406 1
218 537 1
218 538 1
218 576 1
219 59 1
219 87 1
219 217 1
219 257 1
219 377 1
219 407 1
219 540 1
219 577 1
220 60 1
220 88 1
220 218 1
220 258 1
220 378 1
220 408 1
220 539 1
220 540 1
220 578 1
221 61 1
221 89 1
221 219 1
221 259 1
221 379 1
221 409 1
221 542 1
221 579 1
222 62 1
222 90 1
222 220 1
222 260 1
222 380 1
222 410 1
222 541 1
222 542 1
222 580 1
223 63 1
223 91 1
223 221 1
223 261 1
223 381 1
223 411 1
223 544 1
223 581 1
224 64 1
224 92 1
224 222 1
224 262 1
224 382 1
224 412 1
224 543 1
224 544 1
224 582 1
225 65 1
225 93 1
225 223 1
225 263 1
225 383 1
225 413 1
225 546 1
225 583 1
226 66 1
226 94 1
226 224 1
226 264 1
226 384 1
226 414 1
226 545 1
226 546 1
226 584 1
227 67 1
227 95 1
227 225 1
227 265 1
227 385 1
227 415 1
227 548 1
227 585 1
228 68 1
228 96 1
228 226 1
228 266 1
228 386 1
228 416 1
228 547 1
228 548 1
228 586 1
229 69 1
229 97 1
229 227 1
229 267 1
229 387 1
229 417 1
229 550 1
229 587 1
230 70 1
230 98 1
230 228 1
230 268 1
230 388 1
230 418 1
230 549 1
230 550 1
230 588 1
231 71 1
231 99 1
231 229 1
231 269 1
231 389 1
231 419 1
231 552 1
231 589 1
232 72 1
232 100 1
232 230 1
232 270 1
232 390 1
232 420 1
232 551 1
232 552 1
232 590 1
233 73 1
233 101 1
233 231 1
233 271 1
233 391 1
233 421 1
233 554 1
233 591 1
234 74 1
234 102 1
234 232 1
234 272 1
234 392 1
234 422 1
234 553 1
234 554 1
234 592 1
235 75 1
235 103 1
235 233 1
235 273 1
235 393 1
235 423 1
235 556 1
235 593 1
236 76 1
236 104 1
236 234 1
236 274 1
236 394 1
236 424 1
236 555 1
236 556 1
236 594 1
237 77 1
237 105 1
237 235 1
237 275 1
237 395 1
237 425 1
237 558 1
237 595 1
238 78 1
238 106 1
238 236 1
238 276 1
238 396 1
238 426 1
238 557 1
238 558 1
238 596 1
239 79 1
239 107 1
239 237 1
239 277 1
239 397 1
239 427 1
239 560 1
239 597 1
240 80 1
240 108 1
240 238 1
240 278 1
240 398 1
240 428 1
240 559 1
240 560 1
240 598 1
