%%MatrixMarket matrix coordinate integer general
% GF(4) labels 0,1,2=omega,3=omega+1; arithmetic is NOT integer arithmetic.
% Coordinate indices are 1-based; omitted entries are zero.
120 320 960
1 1 1
1 62 1
1 102 1
1 139 1
1 161 2
1 219 1
1 255 1
1 295 1
2 2 1
2 63 1
2 103 1
2 140 1
2 162 2
2 220 1
2 256 1
2 296 1
3 3 1
3 64 1
3 104 1
3 141 1
3 163 2
3 221 1
3 257 1
3 297 1
4 4 1
4 65 1
4 105 1
4 142 1
4 164 2
4 222 1
4 258 1
4 298 1
5 5 1
5 66 1
5 106 1
5 143 1
5 165 2
5 223 1
5 259 1
5 299 1
6 6 1
6 67 1
6 107 1
6 144 1
6 166 2
6 224 1
6 260 1
6 300 1
7 7 1
7 68 1
7 108 1
7 145 1
7 167 2
7 225 1
7 261 1
7 301 1
8 8 1
8 69 1
8 109 1
8 146 1
8 168 2
8 226 1
8 262 1
8 302 1
9 9 1
9 70 1
9 110 1
9 147 1
9 169 2
9 227 1
9 263 1
9 303 1
10 10 1
10 71 1
10 111 1
10 148 1
10 170 2
10 228 1
10 264 1
10 304 1
11 11 1
11 72 1
11 112 1
11 149 1
11 171 2
11 229 1
11 265 1
11 305 1
12 12 1
12 73 1
12 113 1
12 150 1
12 172 2
12 230 1
12 266 1
12 306 1
13 13 1
13 74 1
13 114 1
13 151 1
13 173 2
13 231 1
13 267 1
13 307 1
14 14 1
14 75 1
14 115 1
14 152 1
14 174 2
14 232 1
14 268 1
14 308 1
15 15 1
15 76 1
15 116 1
15 153 1
15 175 2
15 233 1
15 269 1
15 309 1
16 16 1
16 77 1
16 117 1
16 154 1
16 176 2
16 234 1
16 270 1
16 310 1
17 17 1
17 78 1
17 118 1
17 155 1
17 177 2
17 235 1
17 271 1
17 311 1
18 18 1
18 79 1
18 119 1
18 156 1
18 178 2
18 236 1
18 272 1
18 312 1
19 19 1
19 80 1
19 120 1
19 157 1
19 179 2
19 237 1
19 273 1
19 313 1
20 20 1
20 41 1
20 81 1
20 158 1
20 180 2
20 238 1
20 274 1
20 314 1
21 21 1
21 42 1
21 82 1
21 159 1
21 181 2
21 239 1
21 275 1
21 315 1
22 22 1
22 43 1
22 83 1
22 160 1
22 182 2
22 240 1
22 276 1
22 316 1
23 23 1
23 44 1
23 84 1
23 121 1
23 183 2
23 201 1
23 277 1
23 317 1
24 24 1
24 45 1
24 85 1
24 122 1
24 184 2
24 202 1
24 278 1
24 318 1
25 25 1
25 46 1
25 86 1
25 123 1
25 185 2
25 203 1
25 279 1
25 319 1
26 26 1
26 47 1
26 87 1
26 124 1
26 186 2
26 204 1
26 280 1
26 320 1
27 27 1
27 48 1
27 88 1
27 125 1
27 187 2
27 205 1
27 241 1
27 281 1
28 28 1
28 49 1
28 89 1
28 126 1
28 188 2
28 206 1
28 242 1
28 282 1
29 29 1
29 50 1
29 90 1
29 127 1
29 189 2
29 207 1
29 243 1
29 283 1
30 30 1
30 51 1
30 91 1
30 128 1
30 190 2
30 208 1
30 244 1
30 284 1
31 31 1
31 52 1
31 92 1
31 129 1
31 191 2
31 209 1
31 245 1
31 285 1
32 32 1
32 53 1
32 93 1
32 130 1
32 192 2
32 210 1
32 246 1
32 286 1
33 33 1
33 54 1
33 94 1
33 131 1
33 193 2
33 211 1
33 247 1
33 287 1
34 34 1
34 55 1
34 95 1
34 132 1
34 194 2
34 212 1
34 248 1
34 288 1
35 35 1
35 56 1
35 96 1
35 133 1
35 195 2
35 213 1
35 249 1
35 289 1
36 36 1
36 57 1
36 97 1
36 134 1
36 196 2
36 214 1
36 250 1
36 290 1
37 37 1
37 58 1
37 98 1
37 135 1
37 197 2
37 215 1
37 251 1
37 291 1
38 38 1
38 59 1
38 99 1
38 136 1
38 198 2
38 216 1
38 252 1
38 292 1
39 39 1
39 60 1
39 100 1
39 137 1
39 199 2
39 217 1
39 253 1
39 293 1
40 40 1
40 61 1
40 101 1
40 138 1
40 200 2
40 218 1
40 254 1
40 294 1
41 1 1
41 43 1
41 87 1
41 123 1
41 176 1
41 201 2
41 247 1
41 296 1
42 2 1
42 44 1
42 88 1
42 124 1
42 177 1
42 202 2
42 248 1
42 297 1
43 3 1
43 45 1
43 89 1
43 125 1
43 178 1
43 203 2
43 249 1
43 298 1
44 4 1
44 46 1
44 90 1
44 126 1
44 179 1
44 204 2
44 250 1
44 299 1
45 5 1
45 47 1
45 91 1
45 127 1
45 180 1
45 205 2
45 251 1
45 300 1
46 6 1
46 48 1
46 92 1
46 128 1
46 181 1
46 206 2
46 252 1
46 301 1
47 7 1
47 49 1
47 93 1
47 129 1
47 182 1
47 207 2
47 253 1
47 302 1
48 8 1
48 50 1
48 94 1
48 130 1
48 183 1
48 208 2
48 254 1
48 303 1
49 9 1
49 51 1
49 95 1
49 131 1
49 184 1
49 209 2
49 255 1
49 304 1
50 10 1
50 52 1
50 96 1
50 132 1
50 185 1
50 210 2
50 256 1
50 305 1
51 11 1
51 53 1
51 97 1
51 133 1
51 186 1
51 211 2
51 257 1
51 306 1
52 12 1
52 54 1
52 98 1
52 134 1
52 187 1
52 212 2
52 258 1
52 307 1
53 13 1
53 55 1
53 99 1
53 135 1
53 188 1
53 213 2
53 259 1
53 308 1
54 14 1
54 56 1
54 100 1
54 136 1
54 189 1
54 214 2
54 260 1
54 309 1
55 15 1
55 57 1
55 101 1
55 137 1
55 190 1
55 215 2
55 261 1
55 310 1
56 16 1
56 58 1
56 102 1
56 138 1
56 191 1
56 216 2
56 262 1
56 311 1
57 17 1
57 59 1
57 103 1
57 139 1
57 192 1
57 217 2
57 263 1
57 312 1
58 18 1
58 60 1
58 104 1
58 140 1
58 193 1
58 218 2
58 264 1
58 313 1
59 19 1
59 61 1
59 105 1
59 141 1
59 194 1
59 219 2
59 265 1
59 314 1
60 20 1
60 62 1
60 106 1
60 142 1
60 195 1
60 220 2
60 266 1
60 315 1
61 21 1
61 63 1
61 107 1
61 143 1
61 196 1
61 221 2
61 267 1
61 316 1
62 22 1
62 64 1
62 108 1
62 144 1
62 197 1
62 222 2
62 268 1
62 317 1
63 23 1
63 65 1
63 109 1
63 145 1
63 198 1
63 223 2
63 269 1
63 318 1
64 24 1
64 66 1
64 110 1
64 146 1
64 199 1
64 224 2
64 270 1
64 319 1
65 25 1
65 67 1
65 111 1
65 147 1
65 200 1
65 225 2
65 271 1
65 320 1
66 26 1
66 68 1
66 112 1
66 148 1
66 161 1
66 226 2
66 272 1
66 281 1
67 27 1
67 69 1
67 113 1
67 149 1
67 162 1
67 227 2
67 273 1
67 282 1
68 28 1
68 70 1
68 114 1
68 150 1
68 163 1
68 228 2
68 274 1
68 283 1
69 29 1
69 71 1
69 115 1
69 151 1
69 164 1
69 229 2
69 275 1
69 284 1
70 30 1
70 72 1
70 116 1
70 152 1
70 165 1
70 230 2
70 276 1
70 285 1
71 31 1
71 73 1
71 117 1
71 153 1
71 166 1
71 231 2
71 277 1
71 286 1
72 32 1
72 74 1
72 118 1
72 154 1
72 167 1
72 232 2
72 278 1
72 287 1
73 33 1
73 75 1
73 119 1
73 155 1
73 168 1
73 233 2
73 279 1
73 288 1
74 34 1
74 76 1
74 120 1
74 156 1
74 169 1
74 234 2
74 280 1
74 289 1
75 35 1
75 77 1
75 81 1
75 157 1
75 170 1
75 235 2
75 241 1
75 290 1
76 36 1
76 78 1
76 82 1
76 158 1
76 171 1
76 236 2
76 242 1
76 291 1
77 37 1
77 79 1
77 83 1
77 159 1
77 172 1
77 237 2
77 243 1
77 292 1
78 38 1
78 80 1
78 84 1
78 160 1
78 173 1
78 238 2
78 244 1
78 293 1
79 39 1
79 41 1
79 85 1
79 121 1
79 174 1
79 239 2
79 245 1
79 294 1
80 40 1
80 42 1
80 86 1
80 122 1
80 175 1
80 240 2
80 246 1
80 295 1
81 1 1
81 55 1
81 120 1
81 140 1
81 200 1
81 215 1
81 241 2
81 300 1
82 2 1
82 56 1
82 81 1
82 141 1
82 161 1
82 216 1
82 242 2
82 301 1
83 3 1
83 57 1
83 82 1
83 142 1
83 162 1
83 217 1
83 243 2
83 302 1
84 4 1
84 58 1
84 83 1
84 143 1
84 163 1
84 218 1
84 244 2
84 303 1
85 5 1
85 59 1
85 84 1
85 144 1
85 164 1
85 219 1
85 245 2
85 304 1
86 6 1
86 60 1
86 85 1
86 145 1
86 165 1
86 220 1
86 246 2
86 305 1
87 7 1
87 61 1
87 86 1
87 146 1
87 166 1
87 221 1
87 247 2
87 306 1
88 8 1
88 62 1
88 87 1
88 147 1
88 167 1
88 222 1
88 248 2
88 307 1
89 9 1
89 63 1
89 88 1
89 148 1
89 168 1
89 223 1
89 249 2
89 308 1
90 10 1
90 64 1
90 89 1
90 149 1
90 169 1
90 224 1
90 250 2
90 309 1
91 11 1
91 65 1
91 90 1
91 150 1
91 170 1
91 225 1
91 251 2
91 310 1
92 12 1
92 66 1
92 91 1
92 151 1
92 171 1
92 226 1
92 252 2
92 311 1
93 13 1
93 67 1
93 92 1
93 152 1
93 172 1
93 227 1
93 253 2
93 312 1
94 14 1
94 68 1
94 93 1
94 153 1
94 173 1
94 228 1
94 254 2
94 313 1
95 15 1
95 69 1
95 94 1
95 154 1
95 174 1
95 229 1
95 255 2
95 314 1
96 16 1
96 70 1
96 95 1
96 155 1
96 175 1
96 230 1
96 256 2
96 315 1
97 17 1
97 71 1
97 96 1
97 156 1
97 176 1
97 231 1
97 257 2
97 316 1
98 18 1
98 72 1
98 97 1
98 157 1
98 177 1
98 232 1
98 258 2
98 317 1
99 19 1
99 73 1
99 98 1
99 158 1
99 178 1
99 233 1
99 259 2
99 318 1
100 20 1
100 74 1
100 99 1
100 159 1
100 179 1
100 234 1
100 260 2
100 319 1
101 21 1
101 75 1
101 100 1
101 160 1
101 180 1
101 235 1
101 261 2
101 320 1
102 22 1
102 76 1
102 101 1
102 121 1
102 181 1
102 236 1
102 262 2
102 281 1
103 23 1
103 77 1
103 102 1
103 122 1
103 182 1
103 237 1
103 263 2
103 282 1
104 24 1
104 78 1
104 103 1
104 123 1
104 183 1
104 238 1
104 264 2
104 283 1
105 25 1
105 79 1
105 104 1
105 124 1
105 184 1
105 239 1
105 265 2
105 284 1
106 26 1
106 80 1
106 105 1
106 125 1
106 185 1
106 240 1
106 266 2
106 285 1
107 27 1
107 41 1
107 106 1
107 126 1
107 186 1
107 201 1
107 267 2
107 286 1
108 28 1
108 42 1
108 107 1
108 127 1
108 187 1
108 202 1
108 268 2
108 287 1
109 29 1
109 43 1
109 108 1
109 128 1
109 188 1
109 203 1
109 269 2
109 288 1
110 30 1
110 44 1
110 109 1
110 129 1
110 189 1
110 204 1
110 270 2
110 289 1
111 31 1
111 45 1
111 110 1
111 130 1
111 190 1
111 205 1
111 271 2
111 290 1
112 32 1
112 46 1
112 111 1
112 131 1
112 191 1
112 206 1
112 272 2
112 291 1
113 33 1
113 47 1
113 112 1
113 132 1
113 192 1
113 207 1
113 273 2
113 292 1
114 34 1
114 48 1
114 113 1
114 133 1
114 193 1
114 208 1
114 274 2
114 293 1
115 35 1
115 49 1
115 114 1
115 134 1
115 194 1
115 209 1
115 275 2
115 294 1
116 36 1
116 50 1
116 115 1
116 135 1
116 195 1
116 210 1
116 276 2
116 295 1
117 37 1
117 51 1
117 116 1
117 136 1
117 196 1
117 211 1
117 277 2
117 296 1
118 38 1
118 52 1
118 117 1
118 137 1
118 197 1
118 212 1
118 278 2
118 297 1
119 39 1
119 53 1
119 118 1
119 138 1
119 198 1
119 213 1
119 279 2
119 298 1
120 40 1
120 54 1
120 119 1
120 139 1
120 199 1
120 214 1
120 280 2
120 299 1
