%%MatrixMarket matrix coordinate integer general
% Binary matrix over GF(2).
% Coordinate indices are 1-based; omitted entries are zero.
160 640 4080
1 253 1
1 293 1
1 294 1
1 403 1
1 411 1
1 416 1
1 450 1
1 465 1
1 475 1
1 483 1
1 488 1
1 496 1
1 501 1
1 537 1
1 547 1
1 565 1
1 576 1
1 581 1
1 602 1
1 605 1
1 606 1
1 635 1
2 255 1
2 295 1
2 296 1
2 405 1
2 413 1
2 418 1
2 452 1
2 467 1
2 477 1
2 485 1
2 490 1
2 498 1
2 503 1
2 539 1
2 549 1
2 567 1
2 578 1
2 583 1
2 604 1
2 607 1
2 608 1
2 637 1
3 257 1
3 297 1
3 298 1
3 407 1
3 415 1
3 420 1
3 454 1
3 469 1
3 479 1
3 487 1
3 492 1
3 500 1
3 505 1
3 541 1
3 551 1
3 569 1
3 580 1
3 585 1
3 606 1
3 609 1
3 610 1
3 639 1
4 259 1
4 299 1
4 300 1
4 401 1
4 409 1
4 417 1
4 422 1
4 456 1
4 471 1
4 489 1
4 494 1
4 502 1
4 507 1
4 543 1
4 553 1
4 561 1
4 571 1
4 582 1
4 587 1
4 608 1
4 611 1
4 612 1
5 261 1
5 301 1
5 302 1
5 403 1
5 411 1
5 419 1
5 424 1
5 458 1
5 473 1
5 491 1
5 496 1
5 504 1
5 509 1
5 545 1
5 555 1
5 563 1
5 573 1
5 584 1
5 589 1
5 610 1
5 613 1
5 614 1
6 263 1
6 303 1
6 304 1
6 405 1
6 413 1
6 421 1
6 426 1
6 460 1
6 475 1
6 493 1
6 498 1
6 506 1
6 511 1
6 547 1
6 557 1
6 565 1
6 575 1
6 586 1
6 591 1
6 612 1
6 615 1
6 616 1
7 265 1
7 305 1
7 306 1
7 407 1
7 415 1
7 423 1
7 428 1
7 462 1
7 477 1
7 495 1
7 500 1
7 508 1
7 513 1
7 549 1
7 559 1
7 567 1
7 577 1
7 588 1
7 593 1
7 614 1
7 617 1
7 618 1
8 267 1
8 307 1
8 308 1
8 409 1
8 417 1
8 425 1
8 430 1
8 464 1
8 479 1
8 481 1
8 497 1
8 502 1
8 510 1
8 515 1
8 551 1
8 569 1
8 579 1
8 590 1
8 595 1
8 616 1
8 619 1
8 620 1
9 269 1
9 309 1
9 310 1
9 401 1
9 411 1
9 419 1
9 427 1
9 432 1
9 466 1
9 483 1
9 499 1
9 504 1
9 512 1
9 517 1
9 553 1
9 571 1
9 581 1
9 592 1
9 597 1
9 618 1
9 621 1
9 622 1
10 271 1
10 311 1
10 312 1
10 403 1
10 413 1
10 421 1
10 429 1
10 434 1
10 468 1
10 485 1
10 501 1
10 506 1
10 514 1
10 519 1
10 555 1
10 573 1
10 583 1
10 594 1
10 599 1
10 620 1
10 623 1
10 624 1
11 273 1
11 313 1
11 314 1
11 405 1
11 415 1
11 423 1
11 431 1
11 436 1
11 470 1
11 487 1
11 503 1
11 508 1
11 516 1
11 521 1
11 557 1
11 575 1
11 585 1
11 596 1
11 601 1
11 622 1
11 625 1
11 626 1
12 275 1
12 315 1
12 316 1
12 407 1
12 417 1
12 425 1
12 433 1
12 438 1
12 472 1
12 489 1
12 505 1
12 510 1
12 518 1
12 523 1
12 559 1
12 577 1
12 587 1
12 598 1
12 603 1
12 624 1
12 627 1
12 628 1
13 277 1
13 317 1
13 318 1
13 409 1
13 419 1
13 427 1
13 435 1
13 440 1
13 474 1
13 481 1
13 491 1
13 507 1
13 512 1
13 520 1
13 525 1
13 579 1
13 589 1
13 600 1
13 605 1
13 626 1
13 629 1
13 630 1
14 279 1
14 319 1
14 320 1
14 411 1
14 421 1
14 429 1
14 437 1
14 442 1
14 476 1
14 483 1
14 493 1
14 509 1
14 514 1
14 522 1
14 527 1
14 581 1
14 591 1
14 602 1
14 607 1
14 628 1
14 631 1
14 632 1
15 241 1
15 242 1
15 281 1
15 413 1
15 423 1
15 431 1
15 439 1
15 444 1
15 478 1
15 485 1
15 495 1
15 511 1
15 516 1
15 524 1
15 529 1
15 583 1
15 593 1
15 604 1
15 609 1
15 630 1
15 633 1
15 634 1
16 243 1
16 244 1
16 283 1
16 415 1
16 425 1
16 433 1
16 441 1
16 446 1
16 480 1
16 487 1
16 497 1
16 513 1
16 518 1
16 526 1
16 531 1
16 585 1
16 595 1
16 606 1
16 611 1
16 632 1
16 635 1
16 636 1
17 245 1
17 246 1
17 285 1
17 402 1
17 417 1
17 427 1
17 435 1
17 443 1
17 448 1
17 489 1
17 499 1
17 515 1
17 520 1
17 528 1
17 533 1
17 587 1
17 597 1
17 608 1
17 613 1
17 634 1
17 637 1
17 638 1
18 247 1
18 248 1
18 287 1
18 404 1
18 419 1
18 429 1
18 437 1
18 445 1
18 450 1
18 491 1
18 501 1
18 517 1
18 522 1
18 530 1
18 535 1
18 589 1
18 599 1
18 610 1
18 615 1
18 636 1
18 639 1
18 640 1
19 249 1
19 250 1
19 289 1
19 406 1
19 421 1
19 431 1
19 439 1
19 447 1
19 452 1
19 493 1
19 503 1
19 519 1
19 524 1
19 532 1
19 537 1
19 561 1
19 562 1
19 591 1
19 601 1
19 612 1
19 617 1
19 638 1
20 251 1
20 252 1
20 291 1
20 408 1
20 423 1
20 433 1
20 441 1
20 449 1
20 454 1
20 495 1
20 505 1
20 521 1
20 526 1
20 534 1
20 539 1
20 563 1
20 564 1
20 593 1
20 603 1
20 614 1
20 619 1
20 640 1
21 253 1
21 254 1
21 293 1
21 410 1
21 425 1
21 435 1
21 443 1
21 451 1
21 456 1
21 497 1
21 507 1
21 523 1
21 528 1
21 536 1
21 541 1
21 562 1
21 565 1
21 566 1
21 595 1
21 605 1
21 616 1
21 621 1
22 255 1
22 256 1
22 295 1
22 412 1
22 427 1
22 437 1
22 445 1
22 453 1
22 458 1
22 499 1
22 509 1
22 525 1
22 530 1
22 538 1
22 543 1
22 564 1
22 567 1
22 568 1
22 597 1
22 607 1
22 618 1
22 623 1
23 257 1
23 258 1
23 297 1
23 414 1
23 429 1
23 439 1
23 447 1
23 455 1
23 460 1
23 501 1
23 511 1
23 527 1
23 532 1
23 540 1
23 545 1
23 566 1
23 569 1
23 570 1
23 599 1
23 609 1
23 620 1
23 625 1
24 259 1
24 260 1
24 299 1
24 416 1
24 431 1
24 441 1
24 449 1
24 457 1
24 462 1
24 503 1
24 513 1
24 529 1
24 534 1
24 542 1
24 547 1
24 568 1
24 571 1
24 572 1
24 601 1
24 611 1
24 622 1
24 627 1
25 261 1
25 262 1
25 301 1
25 418 1
25 433 1
25 443 1
25 451 1
25 459 1
25 464 1
25 505 1
25 515 1
25 531 1
25 536 1
25 544 1
25 549 1
25 570 1
25 573 1
25 574 1
25 603 1
25 613 1
25 624 1
25 629 1
26 263 1
26 264 1
26 303 1
26 420 1
26 435 1
26 445 1
26 453 1
26 461 1
26 466 1
26 507 1
26 517 1
26 533 1
26 538 1
26 546 1
26 551 1
26 572 1
26 575 1
26 576 1
26 605 1
26 615 1
26 626 1
26 631 1
27 265 1
27 266 1
27 305 1
27 422 1
27 437 1
27 447 1
27 455 1
27 463 1
27 468 1
27 509 1
27 519 1
27 535 1
27 540 1
27 548 1
27 553 1
27 574 1
27 577 1
27 578 1
27 607 1
27 617 1
27 628 1
27 633 1
28 267 1
28 268 1
28 307 1
28 424 1
28 439 1
28 449 1
28 457 1
28 465 1
28 470 1
28 511 1
28 521 1
28 537 1
28 542 1
28 550 1
28 555 1
28 576 1
28 579 1
28 580 1
28 609 1
28 619 1
28 630 1
28 635 1
29 269 1
29 270 1
29 309 1
29 426 1
29 441 1
29 451 1
29 459 1
29 467 1
29 472 1
29 513 1
29 523 1
29 539 1
29 544 1
29 552 1
29 557 1
29 578 1
29 581 1
29 582 1
29 611 1
29 621 1
29 632 1
29 637 1
30 271 1
30 272 1
30 311 1
30 428 1
30 443 1
30 453 1
30 461 1
30 469 1
30 474 1
30 515 1
30 525 1
30 541 1
30 546 1
30 554 1
30 559 1
30 580 1
30 583 1
30 584 1
30 613 1
30 623 1
30 634 1
30 639 1
31 273 1
31 274 1
31 313 1
31 430 1
31 445 1
31 455 1
31 463 1
31 471 1
31 476 1
31 481 1
31 517 1
31 527 1
31 543 1
31 548 1
31 556 1
31 561 1
31 582 1
31 585 1
31 586 1
31 615 1
31 625 1
31 636 1
32 275 1
32 276 1
32 315 1
32 432 1
32 447 1
32 457 1
32 465 1
32 473 1
32 478 1
32 483 1
32 519 1
32 529 1
32 545 1
32 550 1
32 558 1
32 563 1
32 584 1
32 587 1
32 588 1
32 617 1
32 627 1
32 638 1
33 277 1
33 278 1
33 317 1
33 434 1
33 449 1
33 459 1
33 467 1
33 475 1
33 480 1
33 485 1
33 521 1
33 531 1
33 547 1
33 552 1
33 560 1
33 565 1
33 586 1
33 589 1
33 590 1
33 619 1
33 629 1
33 640 1
34 279 1
34 280 1
34 319 1
34 402 1
34 436 1
34 451 1
34 461 1
34 469 1
34 477 1
34 482 1
34 487 1
34 523 1
34 533 1
34 549 1
34 554 1
34 562 1
34 567 1
34 588 1
34 591 1
34 592 1
34 621 1
34 631 1
35 241 1
35 281 1
35 282 1
35 404 1
35 438 1
35 453 1
35 463 1
35 471 1
35 479 1
35 484 1
35 489 1
35 525 1
35 535 1
35 551 1
35 556 1
35 564 1
35 569 1
35 590 1
35 593 1
35 594 1
35 623 1
35 633 1
36 243 1
36 283 1
36 284 1
36 401 1
36 406 1
36 440 1
36 455 1
36 465 1
36 473 1
36 486 1
36 491 1
36 527 1
36 537 1
36 553 1
36 558 1
36 566 1
36 571 1
36 592 1
36 595 1
36 596 1
36 625 1
36 635 1
37 245 1
37 285 1
37 286 1
37 403 1
37 408 1
37 442 1
37 457 1
37 467 1
37 475 1
37 488 1
37 493 1
37 529 1
37 539 1
37 555 1
37 560 1
37 568 1
37 573 1
37 594 1
37 597 1
37 598 1
37 627 1
37 637 1
38 247 1
38 287 1
38 288 1
38 405 1
38 410 1
38 444 1
38 459 1
38 469 1
38 477 1
38 482 1
38 490 1
38 495 1
38 531 1
38 541 1
38 557 1
38 570 1
38 575 1
38 596 1
38 599 1
38 600 1
38 629 1
38 639 1
39 249 1
39 289 1
39 290 1
39 407 1
39 412 1
39 446 1
39 461 1
39 471 1
39 479 1
39 484 1
39 492 1
39 497 1
39 533 1
39 543 1
39 559 1
39 561 1
39 572 1
39 577 1
39 598 1
39 601 1
39 602 1
39 631 1
40 251 1
40 291 1
40 292 1
40 401 1
40 409 1
40 414 1
40 448 1
40 463 1
40 473 1
40 481 1
40 486 1
40 494 1
40 499 1
40 535 1
40 545 1
40 563 1
40 574 1
40 579 1
40 600 1
40 603 1
40 604 1
40 633 1
41 254 1
41 293 1
41 404 1
41 412 1
41 415 1
41 416 1
41 449 1
41 450 1
41 466 1
41 476 1
41 484 1
41 487 1
41 488 1
41 495 1
41 496 1
41 502 1
41 538 1
41 548 1
41 566 1
41 575 1
41 576 1
41 582 1
41 601 1
41 602 1
41 605 1
41 636 1
42 256 1
42 295 1
42 406 1
42 414 1
42 417 1
42 418 1
42 451 1
42 452 1
42 468 1
42 478 1
42 486 1
42 489 1
42 490 1
42 497 1
42 498 1
42 504 1
42 540 1
42 550 1
42 568 1
42 577 1
42 578 1
42 584 1
42 603 1
42 604 1
42 607 1
42 638 1
43 258 1
43 297 1
43 408 1
43 416 1
43 419 1
43 420 1
43 453 1
43 454 1
43 470 1
43 480 1
43 488 1
43 491 1
43 492 1
43 499 1
43 500 1
43 506 1
43 542 1
43 552 1
43 570 1
43 579 1
43 580 1
43 586 1
43 605 1
43 606 1
43 609 1
43 640 1
44 260 1
44 299 1
44 402 1
44 410 1
44 418 1
44 421 1
44 422 1
44 455 1
44 456 1
44 472 1
44 490 1
44 493 1
44 494 1
44 501 1
44 502 1
44 508 1
44 544 1
44 554 1
44 562 1
44 572 1
44 581 1
44 582 1
44 588 1
44 607 1
44 608 1
44 611 1
45 262 1
45 301 1
45 404 1
45 412 1
45 420 1
45 423 1
45 424 1
45 457 1
45 458 1
45 474 1
45 492 1
45 495 1
45 496 1
45 503 1
45 504 1
45 510 1
45 546 1
45 556 1
45 564 1
45 574 1
45 583 1
45 584 1
45 590 1
45 609 1
45 610 1
45 613 1
46 264 1
46 303 1
46 406 1
46 414 1
46 422 1
46 425 1
46 426 1
46 459 1
46 460 1
46 476 1
46 494 1
46 497 1
46 498 1
46 505 1
46 506 1
46 512 1
46 548 1
46 558 1
46 566 1
46 576 1
46 585 1
46 586 1
46 592 1
46 611 1
46 612 1
46 615 1
47 266 1
47 305 1
47 408 1
47 416 1
47 424 1
47 427 1
47 428 1
47 461 1
47 462 1
47 478 1
47 496 1
47 499 1
47 500 1
47 507 1
47 508 1
47 514 1
47 550 1
47 560 1
47 568 1
47 578 1
47 587 1
47 588 1
47 594 1
47 613 1
47 614 1
47 617 1
48 268 1
48 307 1
48 410 1
48 418 1
48 426 1
48 429 1
48 430 1
48 463 1
48 464 1
48 480 1
48 482 1
48 498 1
48 501 1
48 502 1
48 509 1
48 510 1
48 516 1
48 552 1
48 570 1
48 580 1
48 589 1
48 590 1
48 596 1
48 615 1
48 616 1
48 619 1
49 270 1
49 309 1
49 402 1
49 412 1
49 420 1
49 428 1
49 431 1
49 432 1
49 465 1
49 466 1
49 484 1
49 500 1
49 503 1
49 504 1
49 511 1
49 512 1
49 518 1
49 554 1
49 572 1
49 582 1
49 591 1
49 592 1
49 598 1
49 617 1
49 618 1
49 621 1
50 272 1
50 311 1
50 404 1
50 414 1
50 422 1
50 430 1
50 433 1
50 434 1
50 467 1
50 468 1
50 486 1
50 502 1
50 505 1
50 506 1
50 513 1
50 514 1
50 520 1
50 556 1
50 574 1
50 584 1
50 593 1
50 594 1
50 600 1
50 619 1
50 620 1
50 623 1
51 274 1
51 313 1
51 406 1
51 416 1
51 424 1
51 432 1
51 435 1
51 436 1
51 469 1
51 470 1
51 488 1
51 504 1
51 507 1
51 508 1
51 515 1
51 516 1
51 522 1
51 558 1
51 576 1
51 586 1
51 595 1
51 596 1
51 602 1
51 621 1
51 622 1
51 625 1
52 276 1
52 315 1
52 408 1
52 418 1
52 426 1
52 434 1
52 437 1
52 438 1
52 471 1
52 472 1
52 490 1
52 506 1
52 509 1
52 510 1
52 517 1
52 518 1
52 524 1
52 560 1
52 578 1
52 588 1
52 597 1
52 598 1
52 604 1
52 623 1
52 624 1
52 627 1
53 278 1
53 317 1
53 410 1
53 420 1
53 428 1
53 436 1
53 439 1
53 440 1
53 473 1
53 474 1
53 482 1
53 492 1
53 508 1
53 511 1
53 512 1
53 519 1
53 520 1
53 526 1
53 580 1
53 590 1
53 599 1
53 600 1
53 606 1
53 625 1
53 626 1
53 629 1
54 280 1
54 319 1
54 412 1
54 422 1
54 430 1
54 438 1
54 441 1
54 442 1
54 475 1
54 476 1
54 484 1
54 494 1
54 510 1
54 513 1
54 514 1
54 521 1
54 522 1
54 528 1
54 582 1
54 592 1
54 601 1
54 602 1
54 608 1
54 627 1
54 628 1
54 631 1
55 241 1
55 282 1
55 414 1
55 424 1
55 432 1
55 440 1
55 443 1
55 444 1
55 477 1
55 478 1
55 486 1
55 496 1
55 512 1
55 515 1
55 516 1
55 523 1
55 524 1
55 530 1
55 584 1
55 594 1
55 603 1
55 604 1
55 610 1
55 629 1
55 630 1
55 633 1
56 243 1
56 284 1
56 416 1
56 426 1
56 434 1
56 442 1
56 445 1
56 446 1
56 479 1
56 480 1
56 488 1
56 498 1
56 514 1
56 517 1
56 518 1
56 525 1
56 526 1
56 532 1
56 586 1
56 596 1
56 605 1
56 606 1
56 612 1
56 631 1
56 632 1
56 635 1
57 245 1
57 286 1
57 401 1
57 402 1
57 418 1
57 428 1
57 436 1
57 444 1
57 447 1
57 448 1
57 490 1
57 500 1
57 516 1
57 519 1
57 520 1
57 527 1
57 528 1
57 534 1
57 588 1
57 598 1
57 607 1
57 608 1
57 614 1
57 633 1
57 634 1
57 637 1
58 247 1
58 288 1
58 403 1
58 404 1
58 420 1
58 430 1
58 438 1
58 446 1
58 449 1
58 450 1
58 492 1
58 502 1
58 518 1
58 521 1
58 522 1
58 529 1
58 530 1
58 536 1
58 590 1
58 600 1
58 609 1
58 610 1
58 616 1
58 635 1
58 636 1
58 639 1
59 249 1
59 290 1
59 405 1
59 406 1
59 422 1
59 432 1
59 440 1
59 448 1
59 451 1
59 452 1
59 494 1
59 504 1
59 520 1
59 523 1
59 524 1
59 531 1
59 532 1
59 538 1
59 561 1
59 592 1
59 602 1
59 611 1
59 612 1
59 618 1
59 637 1
59 638 1
60 251 1
60 292 1
60 407 1
60 408 1
60 424 1
60 434 1
60 442 1
60 450 1
60 453 1
60 454 1
60 496 1
60 506 1
60 522 1
60 525 1
60 526 1
60 533 1
60 534 1
60 540 1
60 563 1
60 594 1
60 604 1
60 613 1
60 614 1
60 620 1
60 639 1
60 640 1
61 253 1
61 294 1
61 409 1
61 410 1
61 426 1
61 436 1
61 444 1
61 452 1
61 455 1
61 456 1
61 498 1
61 508 1
61 524 1
61 527 1
61 528 1
61 535 1
61 536 1
61 542 1
61 561 1
61 562 1
61 565 1
61 596 1
61 606 1
61 615 1
61 616 1
61 622 1
62 255 1
62 296 1
62 411 1
62 412 1
62 428 1
62 438 1
62 446 1
62 454 1
62 457 1
62 458 1
62 500 1
62 510 1
62 526 1
62 529 1
62 530 1
62 537 1
62 538 1
62 544 1
62 563 1
62 564 1
62 567 1
62 598 1
62 608 1
62 617 1
62 618 1
62 624 1
63 257 1
63 298 1
63 413 1
63 414 1
63 430 1
63 440 1
63 448 1
63 456 1
63 459 1
63 460 1
63 502 1
63 512 1
63 528 1
63 531 1
63 532 1
63 539 1
63 540 1
63 546 1
63 565 1
63 566 1
63 569 1
63 600 1
63 610 1
63 619 1
63 620 1
63 626 1
64 259 1
64 300 1
64 415 1
64 416 1
64 432 1
64 442 1
64 450 1
64 458 1
64 461 1
64 462 1
64 504 1
64 514 1
64 530 1
64 533 1
64 534 1
64 541 1
64 542 1
64 548 1
64 567 1
64 568 1
64 571 1
64 602 1
64 612 1
64 621 1
64 622 1
64 628 1
65 261 1
65 302 1
65 417 1
65 418 1
65 434 1
65 444 1
65 452 1
65 460 1
65 463 1
65 464 1
65 506 1
65 516 1
65 532 1
65 535 1
65 536 1
65 543 1
65 544 1
65 550 1
65 569 1
65 570 1
65 573 1
65 604 1
65 614 1
65 623 1
65 624 1
65 630 1
66 263 1
66 304 1
66 419 1
66 420 1
66 436 1
66 446 1
66 454 1
66 462 1
66 465 1
66 466 1
66 508 1
66 518 1
66 534 1
66 537 1
66 538 1
66 545 1
66 546 1
66 552 1
66 571 1
66 572 1
66 575 1
66 606 1
66 616 1
66 625 1
66 626 1
66 632 1
67 265 1
67 306 1
67 421 1
67 422 1
67 438 1
67 448 1
67 456 1
67 464 1
67 467 1
67 468 1
67 510 1
67 520 1
67 536 1
67 539 1
67 540 1
67 547 1
67 548 1
67 554 1
67 573 1
67 574 1
67 577 1
67 608 1
67 618 1
67 627 1
67 628 1
67 634 1
68 267 1
68 308 1
68 423 1
68 424 1
68 440 1
68 450 1
68 458 1
68 466 1
68 469 1
68 470 1
68 512 1
68 522 1
68 538 1
68 541 1
68 542 1
68 549 1
68 550 1
68 556 1
68 575 1
68 576 1
68 579 1
68 610 1
68 620 1
68 629 1
68 630 1
68 636 1
69 269 1
69 310 1
69 425 1
69 426 1
69 442 1
69 452 1
69 460 1
69 468 1
69 471 1
69 472 1
69 514 1
69 524 1
69 540 1
69 543 1
69 544 1
69 551 1
69 552 1
69 558 1
69 577 1
69 578 1
69 581 1
69 612 1
69 622 1
69 631 1
69 632 1
69 638 1
70 271 1
70 312 1
70 427 1
70 428 1
70 444 1
70 454 1
70 462 1
70 470 1
70 473 1
70 474 1
70 516 1
70 526 1
70 542 1
70 545 1
70 546 1
70 553 1
70 554 1
70 560 1
70 579 1
70 580 1
70 583 1
70 614 1
70 624 1
70 633 1
70 634 1
70 640 1
71 273 1
71 314 1
71 429 1
71 430 1
71 446 1
71 456 1
71 464 1
71 472 1
71 475 1
71 476 1
71 482 1
71 518 1
71 528 1
71 544 1
71 547 1
71 548 1
71 555 1
71 556 1
71 562 1
71 581 1
71 582 1
71 585 1
71 616 1
71 626 1
71 635 1
71 636 1
72 275 1
72 316 1
72 431 1
72 432 1
72 448 1
72 458 1
72 466 1
72 474 1
72 477 1
72 478 1
72 484 1
72 520 1
72 530 1
72 546 1
72 549 1
72 550 1
72 557 1
72 558 1
72 564 1
72 583 1
72 584 1
72 587 1
72 618 1
72 628 1
72 637 1
72 638 1
73 277 1
73 318 1
73 433 1
73 434 1
73 450 1
73 460 1
73 468 1
73 476 1
73 479 1
73 480 1
73 486 1
73 522 1
73 532 1
73 548 1
73 551 1
73 552 1
73 559 1
73 560 1
73 566 1
73 585 1
73 586 1
73 589 1
73 620 1
73 630 1
73 639 1
73 640 1
74 279 1
74 320 1
74 401 1
74 402 1
74 435 1
74 436 1
74 452 1
74 462 1
74 470 1
74 478 1
74 481 1
74 482 1
74 488 1
74 524 1
74 534 1
74 550 1
74 553 1
74 554 1
74 561 1
74 562 1
74 568 1
74 587 1
74 588 1
74 591 1
74 622 1
74 632 1
75 242 1
75 281 1
75 403 1
75 404 1
75 437 1
75 438 1
75 454 1
75 464 1
75 472 1
75 480 1
75 483 1
75 484 1
75 490 1
75 526 1
75 536 1
75 552 1
75 555 1
75 556 1
75 563 1
75 564 1
75 570 1
75 589 1
75 590 1
75 593 1
75 624 1
75 634 1
76 244 1
76 283 1
76 402 1
76 405 1
76 406 1
76 439 1
76 440 1
76 456 1
76 466 1
76 474 1
76 485 1
76 486 1
76 492 1
76 528 1
76 538 1
76 554 1
76 557 1
76 558 1
76 565 1
76 566 1
76 572 1
76 591 1
76 592 1
76 595 1
76 626 1
76 636 1
77 246 1
77 285 1
77 404 1
77 407 1
77 408 1
77 441 1
77 442 1
77 458 1
77 468 1
77 476 1
77 487 1
77 488 1
77 494 1
77 530 1
77 540 1
77 556 1
77 559 1
77 560 1
77 567 1
77 568 1
77 574 1
77 593 1
77 594 1
77 597 1
77 628 1
77 638 1
78 248 1
78 287 1
78 406 1
78 409 1
78 410 1
78 443 1
78 444 1
78 460 1
78 470 1
78 478 1
78 481 1
78 482 1
78 489 1
78 490 1
78 496 1
78 532 1
78 542 1
78 558 1
78 569 1
78 570 1
78 576 1
78 595 1
78 596 1
78 599 1
78 630 1
78 640 1
79 250 1
79 289 1
79 408 1
79 411 1
79 412 1
79 445 1
79 446 1
79 462 1
79 472 1
79 480 1
79 483 1
79 484 1
79 491 1
79 492 1
79 498 1
79 534 1
79 544 1
79 560 1
79 562 1
79 571 1
79 572 1
79 578 1
79 597 1
79 598 1
79 601 1
79 632 1
80 252 1
80 291 1
80 402 1
80 410 1
80 413 1
80 414 1
80 447 1
80 448 1
80 464 1
80 474 1
80 482 1
80 485 1
80 486 1
80 493 1
80 494 1
80 500 1
80 536 1
80 546 1
80 564 1
80 573 1
80 574 1
80 580 1
80 599 1
80 600 1
80 603 1
80 634 1
81 329 1
81 330 1
81 335 1
81 336 1
81 349 1
81 369 1
81 370 1
81 375 1
81 389 1
81 405 1
81 413 1
81 414 1
81 439 1
81 440 1
81 466 1
81 474 1
81 479 1
81 480 1
81 485 1
81 486 1
81 498 1
81 511 1
81 512 1
81 517 1
81 546 1
81 551 1
81 552 1
81 564 1
81 603 1
82 331 1
82 332 1
82 337 1
82 338 1
82 351 1
82 371 1
82 372 1
82 377 1
82 391 1
82 401 1
82 402 1
82 407 1
82 415 1
82 416 1
82 441 1
82 442 1
82 468 1
82 476 1
82 487 1
82 488 1
82 500 1
82 513 1
82 514 1
82 519 1
82 548 1
82 553 1
82 554 1
82 566 1
82 605 1
83 333 1
83 334 1
83 339 1
83 340 1
83 353 1
83 373 1
83 374 1
83 379 1
83 393 1
83 403 1
83 404 1
83 409 1
83 417 1
83 418 1
83 443 1
83 444 1
83 470 1
83 478 1
83 489 1
83 490 1
83 502 1
83 515 1
83 516 1
83 521 1
83 550 1
83 555 1
83 556 1
83 568 1
83 607 1
84 335 1
84 336 1
84 341 1
84 342 1
84 355 1
84 375 1
84 376 1
84 381 1
84 395 1
84 405 1
84 406 1
84 411 1
84 419 1
84 420 1
84 445 1
84 446 1
84 472 1
84 480 1
84 491 1
84 492 1
84 504 1
84 517 1
84 518 1
84 523 1
84 552 1
84 557 1
84 558 1
84 570 1
84 609 1
85 337 1
85 338 1
85 343 1
85 344 1
85 357 1
85 377 1
85 378 1
85 383 1
85 397 1
85 402 1
85 407 1
85 408 1
85 413 1
85 421 1
85 422 1
85 447 1
85 448 1
85 474 1
85 493 1
85 494 1
85 506 1
85 519 1
85 520 1
85 525 1
85 554 1
85 559 1
85 560 1
85 572 1
85 611 1
86 339 1
86 340 1
86 345 1
86 346 1
86 359 1
86 379 1
86 380 1
86 385 1
86 399 1
86 404 1
86 409 1
86 410 1
86 415 1
86 423 1
86 424 1
86 449 1
86 450 1
86 476 1
86 481 1
86 482 1
86 495 1
86 496 1
86 508 1
86 521 1
86 522 1
86 527 1
86 556 1
86 574 1
86 613 1
87 321 1
87 341 1
87 342 1
87 347 1
87 348 1
87 361 1
87 381 1
87 382 1
87 387 1
87 406 1
87 411 1
87 412 1
87 417 1
87 425 1
87 426 1
87 451 1
87 452 1
87 478 1
87 483 1
87 484 1
87 497 1
87 498 1
87 510 1
87 523 1
87 524 1
87 529 1
87 558 1
87 576 1
87 615 1
88 323 1
88 343 1
88 344 1
88 349 1
88 350 1
88 363 1
88 383 1
88 384 1
88 389 1
88 408 1
88 413 1
88 414 1
88 419 1
88 427 1
88 428 1
88 453 1
88 454 1
88 480 1
88 485 1
88 486 1
88 499 1
88 500 1
88 512 1
88 525 1
88 526 1
88 531 1
88 560 1
88 578 1
88 617 1
89 325 1
89 345 1
89 346 1
89 351 1
89 352 1
89 365 1
89 385 1
89 386 1
89 391 1
89 402 1
89 410 1
89 415 1
89 416 1
89 421 1
89 429 1
89 430 1
89 455 1
89 456 1
89 482 1
89 487 1
89 488 1
89 501 1
89 502 1
89 514 1
89 527 1
89 528 1
89 533 1
89 580 1
89 619 1
90 327 1
90 347 1
90 348 1
90 353 1
90 354 1
90 367 1
90 387 1
90 388 1
90 393 1
90 404 1
90 412 1
90 417 1
90 418 1
90 423 1
90 431 1
90 432 1
90 457 1
90 458 1
90 484 1
90 489 1
90 490 1
90 503 1
90 504 1
90 516 1
90 529 1
90 530 1
90 535 1
90 582 1
90 621 1
91 329 1
91 349 1
91 350 1
91 355 1
91 356 1
91 369 1
91 389 1
91 390 1
91 395 1
91 406 1
91 414 1
91 419 1
91 420 1
91 425 1
91 433 1
91 434 1
91 459 1
91 460 1
91 486 1
91 491 1
91 492 1
91 505 1
91 506 1
91 518 1
91 531 1
91 532 1
91 537 1
91 584 1
91 623 1
92 331 1
92 351 1
92 352 1
92 357 1
92 358 1
92 371 1
92 391 1
92 392 1
92 397 1
92 408 1
92 416 1
92 421 1
92 422 1
92 427 1
92 435 1
92 436 1
92 461 1
92 462 1
92 488 1
92 493 1
92 494 1
92 507 1
92 508 1
92 520 1
92 533 1
92 534 1
92 539 1
92 586 1
92 625 1
93 333 1
93 353 1
93 354 1
93 359 1
93 360 1
93 373 1
93 393 1
93 394 1
93 399 1
93 410 1
93 418 1
93 423 1
93 424 1
93 429 1
93 437 1
93 438 1
93 463 1
93 464 1
93 490 1
93 495 1
93 496 1
93 509 1
93 510 1
93 522 1
93 535 1
93 536 1
93 541 1
93 588 1
93 627 1
94 321 1
94 335 1
94 355 1
94 356 1
94 361 1
94 362 1
94 375 1
94 395 1
94 396 1
94 412 1
94 420 1
94 425 1
94 426 1
94 431 1
94 439 1
94 440 1
94 465 1
94 466 1
94 492 1
94 497 1
94 498 1
94 511 1
94 512 1
94 524 1
94 537 1
94 538 1
94 543 1
94 590 1
94 629 1
95 323 1
95 337 1
95 357 1
95 358 1
95 363 1
95 364 1
95 377 1
95 397 1
95 398 1
95 414 1
95 422 1
95 427 1
95 428 1
95 433 1
95 441 1
95 442 1
95 467 1
95 468 1
95 494 1
95 499 1
95 500 1
95 513 1
95 514 1
95 526 1
95 539 1
95 540 1
95 545 1
95 592 1
95 631 1
96 325 1
96 339 1
96 359 1
96 360 1
96 365 1
96 366 1
96 379 1
96 399 1
96 400 1
96 416 1
96 424 1
96 429 1
96 430 1
96 435 1
96 443 1
96 444 1
96 469 1
96 470 1
96 496 1
96 501 1
96 502 1
96 515 1
96 516 1
96 528 1
96 541 1
96 542 1
96 547 1
96 594 1
96 633 1
97 321 1
97 322 1
97 327 1
97 341 1
97 361 1
97 362 1
97 367 1
97 368 1
97 381 1
97 418 1
97 426 1
97 431 1
97 432 1
97 437 1
97 445 1
97 446 1
97 471 1
97 472 1
97 498 1
97 503 1
97 504 1
97 517 1
97 518 1
97 530 1
97 543 1
97 544 1
97 549 1
97 596 1
97 635 1
98 323 1
98 324 1
98 329 1
98 343 1
98 363 1
98 364 1
98 369 1
98 370 1
98 383 1
98 420 1
98 428 1
98 433 1
98 434 1
98 439 1
98 447 1
98 448 1
98 473 1
98 474 1
98 500 1
98 505 1
98 506 1
98 519 1
98 520 1
98 532 1
98 545 1
98 546 1
98 551 1
98 598 1
98 637 1
99 325 1
99 326 1
99 331 1
99 345 1
99 365 1
99 366 1
99 371 1
99 372 1
99 385 1
99 422 1
99 430 1
99 435 1
99 436 1
99 441 1
99 449 1
99 450 1
99 475 1
99 476 1
99 502 1
99 507 1
99 508 1
99 521 1
99 522 1
99 534 1
99 547 1
99 548 1
99 553 1
99 600 1
99 639 1
100 327 1
100 328 1
100 333 1
100 347 1
100 367 1
100 368 1
100 373 1
100 374 1
100 387 1
100 424 1
100 432 1
100 437 1
100 438 1
100 443 1
100 451 1
100 452 1
100 477 1
100 478 1
100 504 1
100 509 1
100 510 1
100 523 1
100 524 1
100 536 1
100 549 1
100 550 1
100 555 1
100 561 1
100 602 1
101 329 1
101 330 1
101 335 1
101 349 1
101 369 1
101 370 1
101 375 1
101 376 1
101 389 1
101 426 1
101 434 1
101 439 1
101 440 1
101 445 1
101 453 1
101 454 1
101 479 1
101 480 1
101 506 1
101 511 1
101 512 1
101 525 1
101 526 1
101 538 1
101 551 1
101 552 1
101 557 1
101 563 1
101 604 1
102 331 1
102 332 1
102 337 1
102 351 1
102 371 1
102 372 1
102 377 1
102 378 1
102 391 1
102 401 1
102 402 1
102 428 1
102 436 1
102 441 1
102 442 1
102 447 1
102 455 1
102 456 1
102 508 1
102 513 1
102 514 1
102 527 1
102 528 1
102 540 1
102 553 1
102 554 1
102 559 1
102 565 1
102 606 1
103 333 1
103 334 1
103 339 1
103 353 1
103 373 1
103 374 1
103 379 1
103 380 1
103 393 1
103 403 1
103 404 1
103 430 1
103 438 1
103 443 1
103 444 1
103 449 1
103 457 1
103 458 1
103 481 1
103 510 1
103 515 1
103 516 1
103 529 1
103 530 1
103 542 1
103 555 1
103 556 1
103 567 1
103 608 1
104 335 1
104 336 1
104 341 1
104 355 1
104 375 1
104 376 1
104 381 1
104 382 1
104 395 1
104 405 1
104 406 1
104 432 1
104 440 1
104 445 1
104 446 1
104 451 1
104 459 1
104 460 1
104 483 1
104 512 1
104 517 1
104 518 1
104 531 1
104 532 1
104 544 1
104 557 1
104 558 1
104 569 1
104 610 1
105 337 1
105 338 1
105 343 1
105 357 1
105 377 1
105 378 1
105 383 1
105 384 1
105 397 1
105 407 1
105 408 1
105 434 1
105 442 1
105 447 1
105 448 1
105 453 1
105 461 1
105 462 1
105 485 1
105 514 1
105 519 1
105 520 1
105 533 1
105 534 1
105 546 1
105 559 1
105 560 1
105 571 1
105 612 1
106 339 1
106 340 1
106 345 1
106 359 1
106 379 1
106 380 1
106 385 1
106 386 1
106 399 1
106 409 1
106 410 1
106 436 1
106 444 1
106 449 1
106 450 1
106 455 1
106 463 1
106 464 1
106 481 1
106 482 1
106 487 1
106 516 1
106 521 1
106 522 1
106 535 1
106 536 1
106 548 1
106 573 1
106 614 1
107 321 1
107 341 1
107 342 1
107 347 1
107 361 1
107 381 1
107 382 1
107 387 1
107 388 1
107 411 1
107 412 1
107 438 1
107 446 1
107 451 1
107 452 1
107 457 1
107 465 1
107 466 1
107 483 1
107 484 1
107 489 1
107 518 1
107 523 1
107 524 1
107 537 1
107 538 1
107 550 1
107 575 1
107 616 1
108 323 1
108 343 1
108 344 1
108 349 1
108 363 1
108 383 1
108 384 1
108 389 1
108 390 1
108 413 1
108 414 1
108 440 1
108 448 1
108 453 1
108 454 1
108 459 1
108 467 1
108 468 1
108 485 1
108 486 1
108 491 1
108 520 1
108 525 1
108 526 1
108 539 1
108 540 1
108 552 1
108 577 1
108 618 1
109 325 1
109 345 1
109 346 1
109 351 1
109 365 1
109 385 1
109 386 1
109 391 1
109 392 1
109 415 1
109 416 1
109 442 1
109 450 1
109 455 1
109 456 1
109 461 1
109 469 1
109 470 1
109 487 1
109 488 1
109 493 1
109 522 1
109 527 1
109 528 1
109 541 1
109 542 1
109 554 1
109 579 1
109 620 1
110 327 1
110 347 1
110 348 1
110 353 1
110 367 1
110 387 1
110 388 1
110 393 1
110 394 1
110 417 1
110 418 1
110 444 1
110 452 1
110 457 1
110 458 1
110 463 1
110 471 1
110 472 1
110 489 1
110 490 1
110 495 1
110 524 1
110 529 1
110 530 1
110 543 1
110 544 1
110 556 1
110 581 1
110 622 1
111 329 1
111 349 1
111 350 1
111 355 1
111 369 1
111 389 1
111 390 1
111 395 1
111 396 1
111 419 1
111 420 1
111 446 1
111 454 1
111 459 1
111 460 1
111 465 1
111 473 1
111 474 1
111 491 1
111 492 1
111 497 1
111 526 1
111 531 1
111 532 1
111 545 1
111 546 1
111 558 1
111 583 1
111 624 1
112 331 1
112 351 1
112 352 1
112 357 1
112 371 1
112 391 1
112 392 1
112 397 1
112 398 1
112 421 1
112 422 1
112 448 1
112 456 1
112 461 1
112 462 1
112 467 1
112 475 1
112 476 1
112 493 1
112 494 1
112 499 1
112 528 1
112 533 1
112 534 1
112 547 1
112 548 1
112 560 1
112 585 1
112 626 1
113 333 1
113 353 1
113 354 1
113 359 1
113 373 1
113 393 1
113 394 1
113 399 1
113 400 1
113 423 1
113 424 1
113 450 1
113 458 1
113 463 1
113 464 1
113 469 1
113 477 1
113 478 1
113 482 1
113 495 1
113 496 1
113 501 1
113 530 1
113 535 1
113 536 1
113 549 1
113 550 1
113 587 1
113 628 1
114 321 1
114 322 1
114 335 1
114 355 1
114 356 1
114 361 1
114 375 1
114 395 1
114 396 1
114 425 1
114 426 1
114 452 1
114 460 1
114 465 1
114 466 1
114 471 1
114 479 1
114 480 1
114 484 1
114 497 1
114 498 1
114 503 1
114 532 1
114 537 1
114 538 1
114 551 1
114 552 1
114 589 1
114 630 1
115 323 1
115 324 1
115 337 1
115 357 1
115 358 1
115 363 1
115 377 1
115 397 1
115 398 1
115 401 1
115 402 1
115 427 1
115 428 1
115 454 1
115 462 1
115 467 1
115 468 1
115 473 1
115 486 1
115 499 1
115 500 1
115 505 1
115 534 1
115 539 1
115 540 1
115 553 1
115 554 1
115 591 1
115 632 1
116 325 1
116 326 1
116 339 1
116 359 1
116 360 1
116 365 1
116 379 1
116 399 1
116 400 1
116 403 1
116 404 1
116 429 1
116 430 1
116 456 1
116 464 1
116 469 1
116 470 1
116 475 1
116 488 1
116 501 1
116 502 1
116 507 1
116 536 1
116 541 1
116 542 1
116 555 1
116 556 1
116 593 1
116 634 1
117 321 1
117 322 1
117 327 1
117 328 1
117 341 1
117 361 1
117 362 1
117 367 1
117 381 1
117 405 1
117 406 1
117 431 1
117 432 1
117 458 1
117 466 1
117 471 1
117 472 1
117 477 1
117 490 1
117 503 1
117 504 1
117 509 1
117 538 1
117 543 1
117 544 1
117 557 1
117 558 1
117 595 1
117 636 1
118 323 1
118 324 1
118 329 1
118 330 1
118 343 1
118 363 1
118 364 1
118 369 1
118 383 1
118 407 1
118 408 1
118 433 1
118 434 1
118 460 1
118 468 1
118 473 1
118 474 1
118 479 1
118 492 1
118 505 1
118 506 1
118 511 1
118 540 1
118 545 1
118 546 1
118 559 1
118 560 1
118 597 1
118 638 1
119 325 1
119 326 1
119 331 1
119 332 1
119 345 1
119 365 1
119 366 1
119 371 1
119 385 1
119 401 1
119 409 1
119 410 1
119 435 1
119 436 1
119 462 1
119 470 1
119 475 1
119 476 1
119 481 1
119 482 1
119 494 1
119 507 1
119 508 1
119 513 1
119 542 1
119 547 1
119 548 1
119 599 1
119 640 1
120 327 1
120 328 1
120 333 1
120 334 1
120 347 1
120 367 1
120 368 1
120 373 1
120 387 1
120 403 1
120 411 1
120 412 1
120 437 1
120 438 1
120 464 1
120 472 1
120 477 1
120 478 1
120 483 1
120 484 1
120 496 1
120 509 1
120 510 1
120 515 1
120 544 1
120 549 1
120 550 1
120 562 1
120 601 1
121 329 1
121 335 1
121 350 1
121 369 1
121 376 1
121 390 1
121 406 1
121 413 1
121 439 1
121 465 1
121 466 1
121 473 1
121 474 1
121 479 1
121 485 1
121 497 1
121 498 1
121 511 1
121 518 1
121 545 1
121 546 1
121 551 1
121 563 1
121 564 1
121 604 1
122 331 1
122 337 1
122 352 1
122 371 1
122 378 1
122 392 1
122 401 1
122 408 1
122 415 1
122 441 1
122 467 1
122 468 1
122 475 1
122 476 1
122 487 1
122 499 1
122 500 1
122 513 1
122 520 1
122 547 1
122 548 1
122 553 1
122 565 1
122 566 1
122 606 1
123 333 1
123 339 1
123 354 1
123 373 1
123 380 1
123 394 1
123 403 1
123 410 1
123 417 1
123 443 1
123 469 1
123 470 1
123 477 1
123 478 1
123 489 1
123 501 1
123 502 1
123 515 1
123 522 1
123 549 1
123 550 1
123 555 1
123 567 1
123 568 1
123 608 1
124 335 1
124 341 1
124 356 1
124 375 1
124 382 1
124 396 1
124 405 1
124 412 1
124 419 1
124 445 1
124 471 1
124 472 1
124 479 1
124 480 1
124 491 1
124 503 1
124 504 1
124 517 1
124 524 1
124 551 1
124 552 1
124 557 1
124 569 1
124 570 1
124 610 1
125 337 1
125 343 1
125 358 1
125 377 1
125 384 1
125 398 1
125 401 1
125 402 1
125 407 1
125 414 1
125 421 1
125 447 1
125 473 1
125 474 1
125 493 1
125 505 1
125 506 1
125 519 1
125 526 1
125 553 1
125 554 1
125 559 1
125 571 1
125 572 1
125 612 1
126 339 1
126 345 1
126 360 1
126 379 1
126 386 1
126 400 1
126 403 1
126 404 1
126 409 1
126 416 1
126 423 1
126 449 1
126 475 1
126 476 1
126 481 1
126 495 1
126 507 1
126 508 1
126 521 1
126 528 1
126 555 1
126 556 1
126 573 1
126 574 1
126 614 1
127 322 1
127 341 1
127 347 1
127 362 1
127 381 1
127 388 1
127 405 1
127 406 1
127 411 1
127 418 1
127 425 1
127 451 1
127 477 1
127 478 1
127 483 1
127 497 1
127 509 1
127 510 1
127 523 1
127 530 1
127 557 1
127 558 1
127 575 1
127 576 1
127 616 1
128 324 1
128 343 1
128 349 1
128 364 1
128 383 1
128 390 1
128 407 1
128 408 1
128 413 1
128 420 1
128 427 1
128 453 1
128 479 1
128 480 1
128 485 1
128 499 1
128 511 1
128 512 1
128 525 1
128 532 1
128 559 1
128 560 1
128 577 1
128 578 1
128 618 1
129 326 1
129 345 1
129 351 1
129 366 1
129 385 1
129 392 1
129 401 1
129 402 1
129 409 1
129 410 1
129 415 1
129 422 1
129 429 1
129 455 1
129 481 1
129 482 1
129 487 1
129 501 1
129 513 1
129 514 1
129 527 1
129 534 1
129 579 1
129 580 1
129 620 1
130 328 1
130 347 1
130 353 1
130 368 1
130 387 1
130 394 1
130 403 1
130 404 1
130 411 1
130 412 1
130 417 1
130 424 1
130 431 1
130 457 1
130 483 1
130 484 1
130 489 1
130 503 1
130 515 1
130 516 1
130 529 1
130 536 1
130 581 1
130 582 1
130 622 1
131 330 1
131 349 1
131 355 1
131 370 1
131 389 1
131 396 1
131 405 1
131 406 1
131 413 1
131 414 1
131 419 1
131 426 1
131 433 1
131 459 1
131 485 1
131 486 1
131 491 1
131 505 1
131 517 1
131 518 1
131 531 1
131 538 1
131 583 1
131 584 1
131 624 1
132 332 1
132 351 1
132 357 1
132 372 1
132 391 1
132 398 1
132 407 1
132 408 1
132 415 1
132 416 1
132 421 1
132 428 1
132 435 1
132 461 1
132 487 1
132 488 1
132 493 1
132 507 1
132 519 1
132 520 1
132 533 1
132 540 1
132 585 1
132 586 1
132 626 1
133 334 1
133 353 1
133 359 1
133 374 1
133 393 1
133 400 1
133 409 1
133 410 1
133 417 1
133 418 1
133 423 1
133 430 1
133 437 1
133 463 1
133 489 1
133 490 1
133 495 1
133 509 1
133 521 1
133 522 1
133 535 1
133 542 1
133 587 1
133 588 1
133 628 1
134 322 1
134 336 1
134 355 1
134 361 1
134 376 1
134 395 1
134 411 1
134 412 1
134 419 1
134 420 1
134 425 1
134 432 1
134 439 1
134 465 1
134 491 1
134 492 1
134 497 1
134 511 1
134 523 1
134 524 1
134 537 1
134 544 1
134 589 1
134 590 1
134 630 1
135 324 1
135 338 1
135 357 1
135 363 1
135 378 1
135 397 1
135 413 1
135 414 1
135 421 1
135 422 1
135 427 1
135 434 1
135 441 1
135 467 1
135 493 1
135 494 1
135 499 1
135 513 1
135 525 1
135 526 1
135 539 1
135 546 1
135 591 1
135 592 1
135 632 1
136 326 1
136 340 1
136 359 1
136 365 1
136 380 1
136 399 1
136 415 1
136 416 1
136 423 1
136 424 1
136 429 1
136 436 1
136 443 1
136 469 1
136 495 1
136 496 1
136 501 1
136 515 1
136 527 1
136 528 1
136 541 1
136 548 1
136 593 1
136 594 1
136 634 1
137 321 1
137 328 1
137 342 1
137 361 1
137 367 1
137 382 1
137 417 1
137 418 1
137 425 1
137 426 1
137 431 1
137 438 1
137 445 1
137 471 1
137 497 1
137 498 1
137 503 1
137 517 1
137 529 1
137 530 1
137 543 1
137 550 1
137 595 1
137 596 1
137 636 1
138 323 1
138 330 1
138 344 1
138 363 1
138 369 1
138 384 1
138 419 1
138 420 1
138 427 1
138 428 1
138 433 1
138 440 1
138 447 1
138 473 1
138 499 1
138 500 1
138 505 1
138 519 1
138 531 1
138 532 1
138 545 1
138 552 1
138 597 1
138 598 1
138 638 1
139 325 1
139 332 1
139 346 1
139 365 1
139 371 1
139 386 1
139 421 1
139 422 1
139 429 1
139 430 1
139 435 1
139 442 1
139 449 1
139 475 1
139 501 1
139 502 1
139 507 1
139 521 1
139 533 1
139 534 1
139 547 1
139 554 1
139 599 1
139 600 1
139 640 1
140 327 1
140 334 1
140 348 1
140 367 1
140 373 1
140 388 1
140 423 1
140 424 1
140 431 1
140 432 1
140 437 1
140 444 1
140 451 1
140 477 1
140 503 1
140 504 1
140 509 1
140 523 1
140 535 1
140 536 1
140 549 1
140 556 1
140 562 1
140 601 1
140 602 1
141 329 1
141 336 1
141 350 1
141 369 1
141 375 1
141 390 1
141 425 1
141 426 1
141 433 1
141 434 1
141 439 1
141 446 1
141 453 1
141 479 1
141 505 1
141 506 1
141 511 1
141 525 1
141 537 1
141 538 1
141 551 1
141 558 1
141 564 1
141 603 1
141 604 1
142 331 1
142 338 1
142 352 1
142 371 1
142 377 1
142 392 1
142 401 1
142 427 1
142 428 1
142 435 1
142 436 1
142 441 1
142 448 1
142 455 1
142 507 1
142 508 1
142 513 1
142 527 1
142 539 1
142 540 1
142 553 1
142 560 1
142 566 1
142 605 1
142 606 1
143 333 1
143 340 1
143 354 1
143 373 1
143 379 1
143 394 1
143 403 1
143 429 1
143 430 1
143 437 1
143 438 1
143 443 1
143 450 1
143 457 1
143 482 1
143 509 1
143 510 1
143 515 1
143 529 1
143 541 1
143 542 1
143 555 1
143 568 1
143 607 1
143 608 1
144 335 1
144 342 1
144 356 1
144 375 1
144 381 1
144 396 1
144 405 1
144 431 1
144 432 1
144 439 1
144 440 1
144 445 1
144 452 1
144 459 1
144 484 1
144 511 1
144 512 1
144 517 1
144 531 1
144 543 1
144 544 1
144 557 1
144 570 1
144 609 1
144 610 1
145 337 1
145 344 1
145 358 1
145 377 1
145 383 1
145 398 1
145 407 1
145 433 1
145 434 1
145 441 1
145 442 1
145 447 1
145 454 1
145 461 1
145 486 1
145 513 1
145 514 1
145 519 1
145 533 1
145 545 1
145 546 1
145 559 1
145 572 1
145 611 1
145 612 1
146 339 1
146 346 1
146 360 1
146 379 1
146 385 1
146 400 1
146 409 1
146 435 1
146 436 1
146 443 1
146 444 1
146 449 1
146 456 1
146 463 1
146 481 1
146 488 1
146 515 1
146 516 1
146 521 1
146 535 1
146 547 1
146 548 1
146 574 1
146 613 1
146 614 1
147 322 1
147 341 1
147 348 1
147 362 1
147 381 1
147 387 1
147 411 1
147 437 1
147 438 1
147 445 1
147 446 1
147 451 1
147 458 1
147 465 1
147 483 1
147 490 1
147 517 1
147 518 1
147 523 1
147 537 1
147 549 1
147 550 1
147 576 1
147 615 1
147 616 1
148 324 1
148 343 1
148 350 1
148 364 1
148 383 1
148 389 1
148 413 1
148 439 1
148 440 1
148 447 1
148 448 1
148 453 1
148 460 1
148 467 1
148 485 1
148 492 1
148 519 1
148 520 1
148 525 1
148 539 1
148 551 1
148 552 1
148 578 1
148 617 1
148 618 1
149 326 1
149 345 1
149 352 1
149 366 1
149 385 1
149 391 1
149 415 1
149 441 1
149 442 1
149 449 1
149 450 1
149 455 1
149 462 1
149 469 1
149 487 1
149 494 1
149 521 1
149 522 1
149 527 1
149 541 1
149 553 1
149 554 1
149 580 1
149 619 1
149 620 1
150 328 1
150 347 1
150 354 1
150 368 1
150 387 1
150 393 1
150 417 1
150 443 1
150 444 1
150 451 1
150 452 1
150 457 1
150 464 1
150 471 1
150 489 1
150 496 1
150 523 1
150 524 1
150 529 1
150 543 1
150 555 1
150 556 1
150 582 1
150 621 1
150 622 1
151 330 1
151 349 1
151 356 1
151 370 1
151 389 1
151 395 1
151 419 1
151 445 1
151 446 1
151 453 1
151 454 1
151 459 1
151 466 1
151 473 1
151 491 1
151 498 1
151 525 1
151 526 1
151 531 1
151 545 1
151 557 1
151 558 1
151 584 1
151 623 1
151 624 1
152 332 1
152 351 1
152 358 1
152 372 1
152 391 1
152 397 1
152 421 1
152 447 1
152 448 1
152 455 1
152 456 1
152 461 1
152 468 1
152 475 1
152 493 1
152 500 1
152 527 1
152 528 1
152 533 1
152 547 1
152 559 1
152 560 1
152 586 1
152 625 1
152 626 1
153 334 1
153 353 1
153 360 1
153 374 1
153 393 1
153 399 1
153 423 1
153 449 1
153 450 1
153 457 1
153 458 1
153 463 1
153 470 1
153 477 1
153 481 1
153 482 1
153 495 1
153 502 1
153 529 1
153 530 1
153 535 1
153 549 1
153 588 1
153 627 1
153 628 1
154 321 1
154 336 1
154 355 1
154 362 1
154 376 1
154 395 1
154 425 1
154 451 1
154 452 1
154 459 1
154 460 1
154 465 1
154 472 1
154 479 1
154 483 1
154 484 1
154 497 1
154 504 1
154 531 1
154 532 1
154 537 1
154 551 1
154 590 1
154 629 1
154 630 1
155 323 1
155 338 1
155 357 1
155 364 1
155 378 1
155 397 1
155 401 1
155 427 1
155 453 1
155 454 1
155 461 1
155 462 1
155 467 1
155 474 1
155 485 1
155 486 1
155 499 1
155 506 1
155 533 1
155 534 1
155 539 1
155 553 1
155 592 1
155 631 1
155 632 1
156 325 1
156 340 1
156 359 1
156 366 1
156 380 1
156 399 1
156 403 1
156 429 1
156 455 1
156 456 1
156 463 1
156 464 1
156 469 1
156 476 1
156 487 1
156 488 1
156 501 1
156 508 1
156 535 1
156 536 1
156 541 1
156 555 1
156 594 1
156 633 1
156 634 1
157 321 1
157 327 1
157 342 1
157 361 1
157 368 1
157 382 1
157 405 1
157 431 1
157 457 1
157 458 1
157 465 1
157 466 1
157 471 1
157 478 1
157 489 1
157 490 1
157 503 1
157 510 1
157 537 1
157 538 1
157 543 1
157 557 1
157 596 1
157 635 1
157 636 1
158 323 1
158 329 1
158 344 1
158 363 1
158 370 1
158 384 1
158 407 1
158 433 1
158 459 1
158 460 1
158 467 1
158 468 1
158 473 1
158 480 1
158 491 1
158 492 1
158 505 1
158 512 1
158 539 1
158 540 1
158 545 1
158 559 1
158 598 1
158 637 1
158 638 1
159 325 1
159 331 1
159 346 1
159 365 1
159 372 1
159 386 1
159 402 1
159 409 1
159 435 1
159 461 1
159 462 1
159 469 1
159 470 1
159 475 1
159 481 1
159 493 1
159 494 1
159 507 1
159 514 1
159 541 1
159 542 1
159 547 1
159 600 1
159 639 1
159 640 1
160 327 1
160 333 1
160 348 1
160 367 1
160 374 1
160 388 1
160 404 1
160 411 1
160 437 1
160 463 1
160 464 1
160 471 1
160 472 1
160 477 1
160 483 1
160 495 1
160 496 1
160 509 1
160 516 1
160 543 1
160 544 1
160 549 1
160 561 1
160 562 1
160 602 1
