%%MatrixMarket matrix coordinate integer general
% GF(4) labels 0,1,2=omega,3=omega+1; arithmetic is NOT integer arithmetic.
% Coordinate indices are 1-based; omitted entries are zero.
80 320 1600
1 127 1
1 147 3
1 202 1
1 206 1
1 208 2
1 225 2
1 233 1
1 238 1
1 242 1
1 244 2
1 248 2
1 251 1
1 269 1
1 274 1
1 283 1
1 288 2
1 291 1
1 301 2
1 303 3
1 318 1
2 128 1
2 148 3
2 203 1
2 207 1
2 209 2
2 226 2
2 234 1
2 239 1
2 243 1
2 245 2
2 249 2
2 252 1
2 270 1
2 275 1
2 284 1
2 289 2
2 292 1
2 302 2
2 304 3
2 319 1
3 129 1
3 149 3
3 204 1
3 208 1
3 210 2
3 227 2
3 235 1
3 240 1
3 244 1
3 246 2
3 250 2
3 253 1
3 271 1
3 276 1
3 285 1
3 290 2
3 293 1
3 303 2
3 305 3
3 320 1
4 130 1
4 150 3
4 201 1
4 205 1
4 209 1
4 211 2
4 228 2
4 236 1
4 245 1
4 247 2
4 251 2
4 254 1
4 272 1
4 277 1
4 281 1
4 286 1
4 291 2
4 294 1
4 304 2
4 306 3
5 131 1
5 151 3
5 202 1
5 206 1
5 210 1
5 212 2
5 229 2
5 237 1
5 246 1
5 248 2
5 252 2
5 255 1
5 273 1
5 278 1
5 282 1
5 287 1
5 292 2
5 295 1
5 305 2
5 307 3
6 132 1
6 152 3
6 203 1
6 207 1
6 211 1
6 213 2
6 230 2
6 238 1
6 247 1
6 249 2
6 253 2
6 256 1
6 274 1
6 279 1
6 283 1
6 288 1
6 293 2
6 296 1
6 306 2
6 308 3
7 133 1
7 153 3
7 204 1
7 208 1
7 212 1
7 214 2
7 231 2
7 239 1
7 248 1
7 250 2
7 254 2
7 257 1
7 275 1
7 280 1
7 284 1
7 289 1
7 294 2
7 297 1
7 307 2
7 309 3
8 134 1
8 154 3
8 205 1
8 209 1
8 213 1
8 215 2
8 232 2
8 240 1
8 241 1
8 249 1
8 251 2
8 255 2
8 258 1
8 276 1
8 285 1
8 290 1
8 295 2
8 298 1
8 308 2
8 310 3
9 135 1
9 155 3
9 201 1
9 206 1
9 210 1
9 214 1
9 216 2
9 233 2
9 242 1
9 250 1
9 252 2
9 256 2
9 259 1
9 277 1
9 286 1
9 291 1
9 296 2
9 299 1
9 309 2
9 311 3
10 136 1
10 156 3
10 202 1
10 207 1
10 211 1
10 215 1
10 217 2
10 234 2
10 243 1
10 251 1
10 253 2
10 257 2
10 260 1
10 278 1
10 287 1
10 292 1
10 297 2
10 300 1
10 310 2
10 312 3
11 137 1
11 157 3
11 203 1
11 208 1
11 212 1
11 216 1
11 218 2
11 235 2
11 244 1
11 252 1
11 254 2
11 258 2
11 261 1
11 279 1
11 288 1
11 293 1
11 298 2
11 301 1
11 311 2
11 313 3
12 138 1
12 158 3
12 204 1
12 209 1
12 213 1
12 217 1
12 219 2
12 236 2
12 245 1
12 253 1
12 255 2
12 259 2
12 262 1
12 280 1
12 289 1
12 294 1
12 299 2
12 302 1
12 312 2
12 314 3
13 139 1
13 159 3
13 205 1
13 210 1
13 214 1
13 218 1
13 220 2
13 237 2
13 241 1
13 246 1
13 254 1
13 256 2
13 260 2
13 263 1
13 290 1
13 295 1
13 300 2
13 303 1
13 313 2
13 315 3
14 140 1
14 160 3
14 206 1
14 211 1
14 215 1
14 219 1
14 221 2
14 238 2
14 242 1
14 247 1
14 255 1
14 257 2
14 261 2
14 264 1
14 291 1
14 296 1
14 301 2
14 304 1
14 314 2
14 316 3
15 121 3
15 141 1
15 207 1
15 212 1
15 216 1
15 220 1
15 222 2
15 239 2
15 243 1
15 248 1
15 256 1
15 258 2
15 262 2
15 265 1
15 292 1
15 297 1
15 302 2
15 305 1
15 315 2
15 317 3
16 122 3
16 142 1
16 208 1
16 213 1
16 217 1
16 221 1
16 223 2
16 240 2
16 244 1
16 249 1
16 257 1
16 259 2
16 263 2
16 266 1
16 293 1
16 298 1
16 303 2
16 306 1
16 316 2
16 318 3
17 123 3
17 143 1
17 201 2
17 209 1
17 214 1
17 218 1
17 222 1
17 224 2
17 245 1
17 250 1
17 258 1
17 260 2
17 264 2
17 267 1
17 294 1
17 299 1
17 304 2
17 307 1
17 317 2
17 319 3
18 124 3
18 144 1
18 202 2
18 210 1
18 215 1
18 219 1
18 223 1
18 225 2
18 246 1
18 251 1
18 259 1
18 261 2
18 265 2
18 268 1
18 295 1
18 300 1
18 305 2
18 308 1
18 318 2
18 320 3
19 125 3
19 145 1
19 203 2
19 211 1
19 216 1
19 220 1
19 224 1
19 226 2
19 247 1
19 252 1
19 260 1
19 262 2
19 266 2
19 269 1
19 281 3
19 296 1
19 301 1
19 306 2
19 309 1
19 319 2
20 126 3
20 146 1
20 204 2
20 212 1
20 217 1
20 221 1
20 225 1
20 227 2
20 248 1
20 253 1
20 261 1
20 263 2
20 267 2
20 270 1
20 282 3
20 297 1
20 302 1
20 307 2
20 310 1
20 320 2
21 127 3
21 147 1
21 205 2
21 213 1
21 218 1
21 222 1
21 226 1
21 228 2
21 249 1
21 254 1
21 262 1
21 264 2
21 268 2
21 271 1
21 281 2
21 283 3
21 298 1
21 303 1
21 308 2
21 311 1
22 128 3
22 148 1
22 206 2
22 214 1
22 219 1
22 223 1
22 227 1
22 229 2
22 250 1
22 255 1
22 263 1
22 265 2
22 269 2
22 272 1
22 282 2
22 284 3
22 299 1
22 304 1
22 309 2
22 312 1
23 129 3
23 149 1
23 207 2
23 215 1
23 220 1
23 224 1
23 228 1
23 230 2
23 251 1
23 256 1
23 264 1
23 266 2
23 270 2
23 273 1
23 283 2
23 285 3
23 300 1
23 305 1
23 310 2
23 313 1
24 130 3
24 150 1
24 208 2
24 216 1
24 221 1
24 225 1
24 229 1
24 231 2
24 252 1
24 257 1
24 265 1
24 267 2
24 271 2
24 274 1
24 284 2
24 286 3
24 301 1
24 306 1
24 311 2
24 314 1
25 131 3
25 151 1
25 209 2
25 217 1
25 222 1
25 226 1
25 230 1
25 232 2
25 253 1
25 258 1
25 266 1
25 268 2
25 272 2
25 275 1
25 285 2
25 287 3
25 302 1
25 307 1
25 312 2
25 315 1
26 132 3
26 152 1
26 210 2
26 218 1
26 223 1
26 227 1
26 231 1
26 233 2
26 254 1
26 259 1
26 267 1
26 269 2
26 273 2
26 276 1
26 286 2
26 288 3
26 303 1
26 308 1
26 313 2
26 316 1
27 133 3
27 153 1
27 211 2
27 219 1
27 224 1
27 228 1
27 232 1
27 234 2
27 255 1
27 260 1
27 268 1
27 270 2
27 274 2
27 277 1
27 287 2
27 289 3
27 304 1
27 309 1
27 314 2
27 317 1
28 134 3
28 154 1
28 212 2
28 220 1
28 225 1
28 229 1
28 233 1
28 235 2
28 256 1
28 261 1
28 269 1
28 271 2
28 275 2
28 278 1
28 288 2
28 290 3
28 305 1
28 310 1
28 315 2
28 318 1
29 135 3
29 155 1
29 213 2
29 221 1
29 226 1
29 230 1
29 234 1
29 236 2
29 257 1
29 262 1
29 270 1
29 272 2
29 276 2
29 279 1
29 289 2
29 291 3
29 306 1
29 311 1
29 316 2
29 319 1
30 136 3
30 156 1
30 214 2
30 222 1
30 227 1
30 231 1
30 235 1
30 237 2
30 258 1
30 263 1
30 271 1
30 273 2
30 277 2
30 280 1
30 290 2
30 292 3
30 307 1
30 312 1
30 317 2
30 320 1
31 137 3
31 157 1
31 215 2
31 223 1
31 228 1
31 232 1
31 236 1
31 238 2
31 241 1
31 259 1
31 264 1
31 272 1
31 274 2
31 278 2
31 281 1
31 291 2
31 293 3
31 308 1
31 313 1
31 318 2
32 138 3
32 158 1
32 216 2
32 224 1
32 229 1
32 233 1
32 237 1
32 239 2
32 242 1
32 260 1
32 265 1
32 273 1
32 275 2
32 279 2
32 282 1
32 292 2
32 294 3
32 309 1
32 314 1
32 319 2
33 139 3
33 159 1
33 217 2
33 225 1
33 230 1
33 234 1
33 238 1
33 240 2
33 243 1
33 261 1
33 266 1
33 274 1
33 276 2
33 280 2
33 283 1
33 293 2
33 295 3
33 310 1
33 315 1
33 320 2
34 140 3
34 160 1
34 201 2
34 218 2
34 226 1
34 231 1
34 235 1
34 239 1
34 241 2
34 244 1
34 262 1
34 267 1
34 275 1
34 277 2
34 281 2
34 284 1
34 294 2
34 296 3
34 311 1
34 316 1
35 121 1
35 141 3
35 202 2
35 219 2
35 227 1
35 232 1
35 236 1
35 240 1
35 242 2
35 245 1
35 263 1
35 268 1
35 276 1
35 278 2
35 282 2
35 285 1
35 295 2
35 297 3
35 312 1
35 317 1
36 122 1
36 142 3
36 201 1
36 203 2
36 220 2
36 228 1
36 233 1
36 237 1
36 243 2
36 246 1
36 264 1
36 269 1
36 277 1
36 279 2
36 283 2
36 286 1
36 296 2
36 298 3
36 313 1
36 318 1
37 123 1
37 143 3
37 202 1
37 204 2
37 221 2
37 229 1
37 234 1
37 238 1
37 244 2
37 247 1
37 265 1
37 270 1
37 278 1
37 280 2
37 284 2
37 287 1
37 297 2
37 299 3
37 314 1
37 319 1
38 124 1
38 144 3
38 203 1
38 205 2
38 222 2
38 230 1
38 235 1
38 239 1
38 241 2
38 245 2
38 248 1
38 266 1
38 271 1
38 279 1
38 285 2
38 288 1
38 298 2
38 300 3
38 315 1
38 320 1
39 125 1
39 145 3
39 204 1
39 206 2
39 223 2
39 231 1
39 236 1
39 240 1
39 242 2
39 246 2
39 249 1
39 267 1
39 272 1
39 280 1
39 281 1
39 286 2
39 289 1
39 299 2
39 301 3
39 316 1
40 126 1
40 146 3
40 201 1
40 205 1
40 207 2
40 224 2
40 232 1
40 237 1
40 241 1
40 243 2
40 247 2
40 250 1
40 268 1
40 273 1
40 282 1
40 287 2
40 290 1
40 300 2
40 302 3
40 317 1
41 165 3
41 168 3
41 175 1
41 185 3
41 188 1
41 195 1
41 203 1
41 207 3
41 220 3
41 233 2
41 237 2
41 240 3
41 243 3
41 249 2
41 256 3
41 259 1
41 273 2
41 276 3
41 282 2
41 302 1
42 166 3
42 169 3
42 176 1
42 186 3
42 189 1
42 196 1
42 201 3
42 204 1
42 208 3
42 221 3
42 234 2
42 238 2
42 244 3
42 250 2
42 257 3
42 260 1
42 274 2
42 277 3
42 283 2
42 303 1
43 167 3
43 170 3
43 177 1
43 187 3
43 190 1
43 197 1
43 202 3
43 205 1
43 209 3
43 222 3
43 235 2
43 239 2
43 245 3
43 251 2
43 258 3
43 261 1
43 275 2
43 278 3
43 284 2
43 304 1
44 168 3
44 171 3
44 178 1
44 188 3
44 191 1
44 198 1
44 203 3
44 206 1
44 210 3
44 223 3
44 236 2
44 240 2
44 246 3
44 252 2
44 259 3
44 262 1
44 276 2
44 279 3
44 285 2
44 305 1
45 169 3
45 172 3
45 179 1
45 189 3
45 192 1
45 199 1
45 201 2
45 204 3
45 207 1
45 211 3
45 224 3
45 237 2
45 247 3
45 253 2
45 260 3
45 263 1
45 277 2
45 280 3
45 286 2
45 306 1
46 170 3
46 173 3
46 180 1
46 190 3
46 193 1
46 200 1
46 202 2
46 205 3
46 208 1
46 212 3
46 225 3
46 238 2
46 241 3
46 248 3
46 254 2
46 261 3
46 264 1
46 278 2
46 287 2
46 307 1
47 161 1
47 171 3
47 174 3
47 181 1
47 191 3
47 194 1
47 203 2
47 206 3
47 209 1
47 213 3
47 226 3
47 239 2
47 242 3
47 249 3
47 255 2
47 262 3
47 265 1
47 279 2
47 288 2
47 308 1
48 162 1
48 172 3
48 175 3
48 182 1
48 192 3
48 195 1
48 204 2
48 207 3
48 210 1
48 214 3
48 227 3
48 240 2
48 243 3
48 250 3
48 256 2
48 263 3
48 266 1
48 280 2
48 289 2
48 309 1
49 163 1
49 173 3
49 176 3
49 183 1
49 193 3
49 196 1
49 201 2
49 205 2
49 208 3
49 211 1
49 215 3
49 228 3
49 241 2
49 244 3
49 251 3
49 257 2
49 264 3
49 267 1
49 290 2
49 310 1
50 164 1
50 174 3
50 177 3
50 184 1
50 194 3
50 197 1
50 202 2
50 206 2
50 209 3
50 212 1
50 216 3
50 229 3
50 242 2
50 245 3
50 252 3
50 258 2
50 265 3
50 268 1
50 291 2
50 311 1
51 165 1
51 175 3
51 178 3
51 185 1
51 195 3
51 198 1
51 203 2
51 207 2
51 210 3
51 213 1
51 217 3
51 230 3
51 243 2
51 246 3
51 253 3
51 259 2
51 266 3
51 269 1
51 292 2
51 312 1
52 166 1
52 176 3
52 179 3
52 186 1
52 196 3
52 199 1
52 204 2
52 208 2
52 211 3
52 214 1
52 218 3
52 231 3
52 244 2
52 247 3
52 254 3
52 260 2
52 267 3
52 270 1
52 293 2
52 313 1
53 167 1
53 177 3
53 180 3
53 187 1
53 197 3
53 200 1
53 205 2
53 209 2
53 212 3
53 215 1
53 219 3
53 232 3
53 245 2
53 248 3
53 255 3
53 261 2
53 268 3
53 271 1
53 294 2
53 314 1
54 161 1
54 168 1
54 178 3
54 181 3
54 188 1
54 198 3
54 206 2
54 210 2
54 213 3
54 216 1
54 220 3
54 233 3
54 246 2
54 249 3
54 256 3
54 262 2
54 269 3
54 272 1
54 295 2
54 315 1
55 162 1
55 169 1
55 179 3
55 182 3
55 189 1
55 199 3
55 207 2
55 211 2
55 214 3
55 217 1
55 221 3
55 234 3
55 247 2
55 250 3
55 257 3
55 263 2
55 270 3
55 273 1
55 296 2
55 316 1
56 163 1
56 170 1
56 180 3
56 183 3
56 190 1
56 200 3
56 208 2
56 212 2
56 215 3
56 218 1
56 222 3
56 235 3
56 248 2
56 251 3
56 258 3
56 264 2
56 271 3
56 274 1
56 297 2
56 317 1
57 161 3
57 164 1
57 171 1
57 181 3
57 184 3
57 191 1
57 209 2
57 213 2
57 216 3
57 219 1
57 223 3
57 236 3
57 249 2
57 252 3
57 259 3
57 265 2
57 272 3
57 275 1
57 298 2
57 318 1
58 162 3
58 165 1
58 172 1
58 182 3
58 185 3
58 192 1
58 210 2
58 214 2
58 217 3
58 220 1
58 224 3
58 237 3
58 250 2
58 253 3
58 260 3
58 266 2
58 273 3
58 276 1
58 299 2
58 319 1
59 163 3
59 166 1
59 173 1
59 183 3
59 186 3
59 193 1
59 211 2
59 215 2
59 218 3
59 221 1
59 225 3
59 238 3
59 251 2
59 254 3
59 261 3
59 267 2
59 274 3
59 277 1
59 300 2
59 320 1
60 164 3
60 167 1
60 174 1
60 184 3
60 187 3
60 194 1
60 212 2
60 216 2
60 219 3
60 222 1
60 226 3
60 239 3
60 252 2
60 255 3
60 262 3
60 268 2
60 275 3
60 278 1
60 281 1
60 301 2
61 165 3
61 168 1
61 175 1
61 185 3
61 188 3
61 195 1
61 213 2
61 217 2
61 220 3
61 223 1
61 227 3
61 240 3
61 253 2
61 256 3
61 263 3
61 269 2
61 276 3
61 279 1
61 282 1
61 302 2
62 166 3
62 169 1
62 176 1
62 186 3
62 189 3
62 196 1
62 201 3
62 214 2
62 218 2
62 221 3
62 224 1
62 228 3
62 254 2
62 257 3
62 264 3
62 270 2
62 277 3
62 280 1
62 283 1
62 303 2
63 167 3
63 170 1
63 177 1
63 187 3
63 190 3
63 197 1
63 202 3
63 215 2
63 219 2
63 222 3
63 225 1
63 229 3
63 241 1
63 255 2
63 258 3
63 265 3
63 271 2
63 278 3
63 284 1
63 304 2
64 168 3
64 171 1
64 178 1
64 188 3
64 191 3
64 198 1
64 203 3
64 216 2
64 220 2
64 223 3
64 226 1
64 230 3
64 242 1
64 256 2
64 259 3
64 266 3
64 272 2
64 279 3
64 285 1
64 305 2
65 169 3
65 172 1
65 179 1
65 189 3
65 192 3
65 199 1
65 204 3
65 217 2
65 221 2
65 224 3
65 227 1
65 231 3
65 243 1
65 257 2
65 260 3
65 267 3
65 273 2
65 280 3
65 286 1
65 306 2
66 170 3
66 173 1
66 180 1
66 190 3
66 193 3
66 200 1
66 205 3
66 218 2
66 222 2
66 225 3
66 228 1
66 232 3
66 241 3
66 244 1
66 258 2
66 261 3
66 268 3
66 274 2
66 287 1
66 307 2
67 161 1
67 171 3
67 174 1
67 181 1
67 191 3
67 194 3
67 206 3
67 219 2
67 223 2
67 226 3
67 229 1
67 233 3
67 242 3
67 245 1
67 259 2
67 262 3
67 269 3
67 275 2
67 288 1
67 308 2
68 162 1
68 172 3
68 175 1
68 182 1
68 192 3
68 195 3
68 207 3
68 220 2
68 224 2
68 227 3
68 230 1
68 234 3
68 243 3
68 246 1
68 260 2
68 263 3
68 270 3
68 276 2
68 289 1
68 309 2
69 163 1
69 173 3
69 176 1
69 183 1
69 193 3
69 196 3
69 208 3
69 221 2
69 225 2
69 228 3
69 231 1
69 235 3
69 244 3
69 247 1
69 261 2
69 264 3
69 271 3
69 277 2
69 290 1
69 310 2
70 164 1
70 174 3
70 177 1
70 184 1
70 194 3
70 197 3
70 209 3
70 222 2
70 226 2
70 229 3
70 232 1
70 236 3
70 245 3
70 248 1
70 262 2
70 265 3
70 272 3
70 278 2
70 291 1
70 311 2
71 165 1
71 175 3
71 178 1
71 185 1
71 195 3
71 198 3
71 210 3
71 223 2
71 227 2
71 230 3
71 233 1
71 237 3
71 246 3
71 249 1
71 263 2
71 266 3
71 273 3
71 279 2
71 292 1
71 312 2
72 166 1
72 176 3
72 179 1
72 186 1
72 196 3
72 199 3
72 211 3
72 224 2
72 228 2
72 231 3
72 234 1
72 238 3
72 247 3
72 250 1
72 264 2
72 267 3
72 274 3
72 280 2
72 293 1
72 313 2
73 167 1
73 177 3
73 180 1
73 187 1
73 197 3
73 200 3
73 212 3
73 225 2
73 229 2
73 232 3
73 235 1
73 239 3
73 241 2
73 248 3
73 251 1
73 265 2
73 268 3
73 275 3
73 294 1
73 314 2
74 161 3
74 168 1
74 178 3
74 181 1
74 188 1
74 198 3
74 213 3
74 226 2
74 230 2
74 233 3
74 236 1
74 240 3
74 242 2
74 249 3
74 252 1
74 266 2
74 269 3
74 276 3
74 295 1
74 315 2
75 162 3
75 169 1
75 179 3
75 182 1
75 189 1
75 199 3
75 201 3
75 214 3
75 227 2
75 231 2
75 234 3
75 237 1
75 243 2
75 250 3
75 253 1
75 267 2
75 270 3
75 277 3
75 296 1
75 316 2
76 163 3
76 170 1
76 180 3
76 183 1
76 190 1
76 200 3
76 202 3
76 215 3
76 228 2
76 232 2
76 235 3
76 238 1
76 244 2
76 251 3
76 254 1
76 268 2
76 271 3
76 278 3
76 297 1
76 317 2
77 161 3
77 164 3
77 171 1
77 181 3
77 184 1
77 191 1
77 203 3
77 216 3
77 229 2
77 233 2
77 236 3
77 239 1
77 245 2
77 252 3
77 255 1
77 269 2
77 272 3
77 279 3
77 298 1
77 318 2
78 162 3
78 165 3
78 172 1
78 182 3
78 185 1
78 192 1
78 204 3
78 217 3
78 230 2
78 234 2
78 237 3
78 240 1
78 246 2
78 253 3
78 256 1
78 270 2
78 273 3
78 280 3
78 299 1
78 319 2
79 163 3
79 166 3
79 173 1
79 183 3
79 186 1
79 193 1
79 201 1
79 205 3
79 218 3
79 231 2
79 235 2
79 238 3
79 241 3
79 247 2
79 254 3
79 257 1
79 271 2
79 274 3
79 300 1
79 320 2
80 164 3
80 167 3
80 174 1
80 184 3
80 187 1
80 194 1
80 202 1
80 206 3
80 219 3
80 232 2
80 236 2
80 239 3
80 242 3
80 248 2
80 255 3
80 258 1
80 272 2
80 275 3
80 281 2
80 301 1
