%%MatrixMarket matrix coordinate integer general
% Binary matrix over GF(2).
% Coordinate indices are 1-based; omitted entries are zero.
160 640 4080
1 21 1
1 27 1
1 28 1
1 42 1
1 53 1
1 54 1
1 67 1
1 68 1
1 74 1
1 81 1
1 87 1
1 88 1
1 94 1
1 102 1
1 127 1
1 128 1
1 153 1
1 154 1
1 161 1
1 167 1
1 168 1
1 187 1
1 201 1
1 202 1
1 207 1
1 208 1
1 227 1
1 254 1
1 293 1
2 23 1
2 29 1
2 30 1
2 44 1
2 55 1
2 56 1
2 69 1
2 70 1
2 76 1
2 83 1
2 89 1
2 90 1
2 96 1
2 104 1
2 129 1
2 130 1
2 155 1
2 156 1
2 163 1
2 169 1
2 170 1
2 189 1
2 203 1
2 204 1
2 209 1
2 210 1
2 229 1
2 256 1
2 295 1
3 25 1
3 31 1
3 32 1
3 46 1
3 57 1
3 58 1
3 71 1
3 72 1
3 78 1
3 85 1
3 91 1
3 92 1
3 98 1
3 106 1
3 131 1
3 132 1
3 157 1
3 158 1
3 165 1
3 171 1
3 172 1
3 191 1
3 205 1
3 206 1
3 211 1
3 212 1
3 231 1
3 258 1
3 297 1
4 27 1
4 33 1
4 34 1
4 48 1
4 59 1
4 60 1
4 73 1
4 74 1
4 80 1
4 87 1
4 93 1
4 94 1
4 100 1
4 108 1
4 133 1
4 134 1
4 159 1
4 160 1
4 167 1
4 173 1
4 174 1
4 193 1
4 207 1
4 208 1
4 213 1
4 214 1
4 233 1
4 260 1
4 299 1
5 2 1
5 29 1
5 35 1
5 36 1
5 50 1
5 61 1
5 62 1
5 75 1
5 76 1
5 81 1
5 82 1
5 89 1
5 95 1
5 96 1
5 102 1
5 110 1
5 135 1
5 136 1
5 169 1
5 175 1
5 176 1
5 195 1
5 209 1
5 210 1
5 215 1
5 216 1
5 235 1
5 262 1
5 301 1
6 4 1
6 31 1
6 37 1
6 38 1
6 52 1
6 63 1
6 64 1
6 77 1
6 78 1
6 83 1
6 84 1
6 91 1
6 97 1
6 98 1
6 104 1
6 112 1
6 137 1
6 138 1
6 171 1
6 177 1
6 178 1
6 197 1
6 211 1
6 212 1
6 217 1
6 218 1
6 237 1
6 264 1
6 303 1
7 6 1
7 33 1
7 39 1
7 40 1
7 54 1
7 65 1
7 66 1
7 79 1
7 80 1
7 85 1
7 86 1
7 93 1
7 99 1
7 100 1
7 106 1
7 114 1
7 139 1
7 140 1
7 173 1
7 179 1
7 180 1
7 199 1
7 213 1
7 214 1
7 219 1
7 220 1
7 239 1
7 266 1
7 305 1
8 1 1
8 2 1
8 8 1
8 35 1
8 41 1
8 42 1
8 56 1
8 67 1
8 68 1
8 87 1
8 88 1
8 95 1
8 101 1
8 102 1
8 108 1
8 116 1
8 141 1
8 142 1
8 161 1
8 175 1
8 181 1
8 182 1
8 201 1
8 215 1
8 216 1
8 221 1
8 222 1
8 268 1
8 307 1
9 3 1
9 4 1
9 10 1
9 37 1
9 43 1
9 44 1
9 58 1
9 69 1
9 70 1
9 89 1
9 90 1
9 97 1
9 103 1
9 104 1
9 110 1
9 118 1
9 143 1
9 144 1
9 163 1
9 177 1
9 183 1
9 184 1
9 203 1
9 217 1
9 218 1
9 223 1
9 224 1
9 270 1
9 309 1
10 5 1
10 6 1
10 12 1
10 39 1
10 45 1
10 46 1
10 60 1
10 71 1
10 72 1
10 91 1
10 92 1
10 99 1
10 105 1
10 106 1
10 112 1
10 120 1
10 145 1
10 146 1
10 165 1
10 179 1
10 185 1
10 186 1
10 205 1
10 219 1
10 220 1
10 225 1
10 226 1
10 272 1
10 311 1
11 7 1
11 8 1
11 14 1
11 41 1
11 47 1
11 48 1
11 62 1
11 73 1
11 74 1
11 93 1
11 94 1
11 101 1
11 107 1
11 108 1
11 114 1
11 122 1
11 147 1
11 148 1
11 167 1
11 181 1
11 187 1
11 188 1
11 207 1
11 221 1
11 222 1
11 227 1
11 228 1
11 274 1
11 313 1
12 9 1
12 10 1
12 16 1
12 43 1
12 49 1
12 50 1
12 64 1
12 75 1
12 76 1
12 95 1
12 96 1
12 103 1
12 109 1
12 110 1
12 116 1
12 124 1
12 149 1
12 150 1
12 169 1
12 183 1
12 189 1
12 190 1
12 209 1
12 223 1
12 224 1
12 229 1
12 230 1
12 276 1
12 315 1
13 11 1
13 12 1
13 18 1
13 45 1
13 51 1
13 52 1
13 66 1
13 77 1
13 78 1
13 97 1
13 98 1
13 105 1
13 111 1
13 112 1
13 118 1
13 126 1
13 151 1
13 152 1
13 171 1
13 185 1
13 191 1
13 192 1
13 211 1
13 225 1
13 226 1
13 231 1
13 232 1
13 278 1
13 317 1
14 13 1
14 14 1
14 20 1
14 47 1
14 53 1
14 54 1
14 68 1
14 79 1
14 80 1
14 99 1
14 100 1
14 107 1
14 113 1
14 114 1
14 120 1
14 128 1
14 153 1
14 154 1
14 173 1
14 187 1
14 193 1
14 194 1
14 213 1
14 227 1
14 228 1
14 233 1
14 234 1
14 280 1
14 319 1
15 1 1
15 2 1
15 15 1
15 16 1
15 22 1
15 49 1
15 55 1
15 56 1
15 70 1
15 101 1
15 102 1
15 109 1
15 115 1
15 116 1
15 122 1
15 130 1
15 155 1
15 156 1
15 175 1
15 189 1
15 195 1
15 196 1
15 215 1
15 229 1
15 230 1
15 235 1
15 236 1
15 241 1
15 282 1
16 3 1
16 4 1
16 17 1
16 18 1
16 24 1
16 51 1
16 57 1
16 58 1
16 72 1
16 103 1
16 104 1
16 111 1
16 117 1
16 118 1
16 124 1
16 132 1
16 157 1
16 158 1
16 177 1
16 191 1
16 197 1
16 198 1
16 217 1
16 231 1
16 232 1
16 237 1
16 238 1
16 243 1
16 284 1
17 5 1
17 6 1
17 19 1
17 20 1
17 26 1
17 53 1
17 59 1
17 60 1
17 74 1
17 105 1
17 106 1
17 113 1
17 119 1
17 120 1
17 126 1
17 134 1
17 159 1
17 160 1
17 179 1
17 193 1
17 199 1
17 200 1
17 219 1
17 233 1
17 234 1
17 239 1
17 240 1
17 245 1
17 286 1
18 7 1
18 8 1
18 21 1
18 22 1
18 28 1
18 55 1
18 61 1
18 62 1
18 76 1
18 81 1
18 82 1
18 107 1
18 108 1
18 115 1
18 121 1
18 122 1
18 128 1
18 136 1
18 161 1
18 162 1
18 181 1
18 195 1
18 201 1
18 202 1
18 221 1
18 235 1
18 236 1
18 247 1
18 288 1
19 9 1
19 10 1
19 23 1
19 24 1
19 30 1
19 57 1
19 63 1
19 64 1
19 78 1
19 83 1
19 84 1
19 109 1
19 110 1
19 117 1
19 123 1
19 124 1
19 130 1
19 138 1
19 163 1
19 164 1
19 183 1
19 197 1
19 203 1
19 204 1
19 223 1
19 237 1
19 238 1
19 249 1
19 290 1
20 11 1
20 12 1
20 25 1
20 26 1
20 32 1
20 59 1
20 65 1
20 66 1
20 80 1
20 85 1
20 86 1
20 111 1
20 112 1
20 119 1
20 125 1
20 126 1
20 132 1
20 140 1
20 165 1
20 166 1
20 185 1
20 199 1
20 205 1
20 206 1
20 225 1
20 239 1
20 240 1
20 251 1
20 292 1
21 2 1
21 13 1
21 14 1
21 27 1
21 28 1
21 34 1
21 61 1
21 67 1
21 68 1
21 87 1
21 88 1
21 113 1
21 114 1
21 121 1
21 127 1
21 128 1
21 134 1
21 142 1
21 161 1
21 162 1
21 167 1
21 168 1
21 187 1
21 201 1
21 207 1
21 208 1
21 227 1
21 253 1
21 294 1
22 4 1
22 15 1
22 16 1
22 29 1
22 30 1
22 36 1
22 63 1
22 69 1
22 70 1
22 89 1
22 90 1
22 115 1
22 116 1
22 123 1
22 129 1
22 130 1
22 136 1
22 144 1
22 163 1
22 164 1
22 169 1
22 170 1
22 189 1
22 203 1
22 209 1
22 210 1
22 229 1
22 255 1
22 296 1
23 6 1
23 17 1
23 18 1
23 31 1
23 32 1
23 38 1
23 65 1
23 71 1
23 72 1
23 91 1
23 92 1
23 117 1
23 118 1
23 125 1
23 131 1
23 132 1
23 138 1
23 146 1
23 165 1
23 166 1
23 171 1
23 172 1
23 191 1
23 205 1
23 211 1
23 212 1
23 231 1
23 257 1
23 298 1
24 8 1
24 19 1
24 20 1
24 33 1
24 34 1
24 40 1
24 67 1
24 73 1
24 74 1
24 93 1
24 94 1
24 119 1
24 120 1
24 127 1
24 133 1
24 134 1
24 140 1
24 148 1
24 167 1
24 168 1
24 173 1
24 174 1
24 193 1
24 207 1
24 213 1
24 214 1
24 233 1
24 259 1
24 300 1
25 10 1
25 21 1
25 22 1
25 35 1
25 36 1
25 42 1
25 69 1
25 75 1
25 76 1
25 95 1
25 96 1
25 121 1
25 122 1
25 129 1
25 135 1
25 136 1
25 142 1
25 150 1
25 169 1
25 170 1
25 175 1
25 176 1
25 195 1
25 209 1
25 215 1
25 216 1
25 235 1
25 261 1
25 302 1
26 12 1
26 23 1
26 24 1
26 37 1
26 38 1
26 44 1
26 71 1
26 77 1
26 78 1
26 97 1
26 98 1
26 123 1
26 124 1
26 131 1
26 137 1
26 138 1
26 144 1
26 152 1
26 171 1
26 172 1
26 177 1
26 178 1
26 197 1
26 211 1
26 217 1
26 218 1
26 237 1
26 263 1
26 304 1
27 14 1
27 25 1
27 26 1
27 39 1
27 40 1
27 46 1
27 73 1
27 79 1
27 80 1
27 99 1
27 100 1
27 125 1
27 126 1
27 133 1
27 139 1
27 140 1
27 146 1
27 154 1
27 173 1
27 174 1
27 179 1
27 180 1
27 199 1
27 213 1
27 219 1
27 220 1
27 239 1
27 265 1
27 306 1
28 1 1
28 2 1
28 16 1
28 27 1
28 28 1
28 41 1
28 42 1
28 48 1
28 75 1
28 101 1
28 102 1
28 127 1
28 128 1
28 135 1
28 141 1
28 142 1
28 148 1
28 156 1
28 161 1
28 175 1
28 176 1
28 181 1
28 182 1
28 201 1
28 215 1
28 221 1
28 222 1
28 267 1
28 308 1
29 3 1
29 4 1
29 18 1
29 29 1
29 30 1
29 43 1
29 44 1
29 50 1
29 77 1
29 103 1
29 104 1
29 129 1
29 130 1
29 137 1
29 143 1
29 144 1
29 150 1
29 158 1
29 163 1
29 177 1
29 178 1
29 183 1
29 184 1
29 203 1
29 217 1
29 223 1
29 224 1
29 269 1
29 310 1
30 5 1
30 6 1
30 20 1
30 31 1
30 32 1
30 45 1
30 46 1
30 52 1
30 79 1
30 105 1
30 106 1
30 131 1
30 132 1
30 139 1
30 145 1
30 146 1
30 152 1
30 160 1
30 165 1
30 179 1
30 180 1
30 185 1
30 186 1
30 205 1
30 219 1
30 225 1
30 226 1
30 271 1
30 312 1
31 1 1
31 7 1
31 8 1
31 22 1
31 33 1
31 34 1
31 47 1
31 48 1
31 54 1
31 82 1
31 107 1
31 108 1
31 133 1
31 134 1
31 141 1
31 147 1
31 148 1
31 154 1
31 167 1
31 181 1
31 182 1
31 187 1
31 188 1
31 207 1
31 221 1
31 227 1
31 228 1
31 273 1
31 314 1
32 3 1
32 9 1
32 10 1
32 24 1
32 35 1
32 36 1
32 49 1
32 50 1
32 56 1
32 84 1
32 109 1
32 110 1
32 135 1
32 136 1
32 143 1
32 149 1
32 150 1
32 156 1
32 169 1
32 183 1
32 184 1
32 189 1
32 190 1
32 209 1
32 223 1
32 229 1
32 230 1
32 275 1
32 316 1
33 5 1
33 11 1
33 12 1
33 26 1
33 37 1
33 38 1
33 51 1
33 52 1
33 58 1
33 86 1
33 111 1
33 112 1
33 137 1
33 138 1
33 145 1
33 151 1
33 152 1
33 158 1
33 171 1
33 185 1
33 186 1
33 191 1
33 192 1
33 211 1
33 225 1
33 231 1
33 232 1
33 277 1
33 318 1
34 7 1
34 13 1
34 14 1
34 28 1
34 39 1
34 40 1
34 53 1
34 54 1
34 60 1
34 88 1
34 113 1
34 114 1
34 139 1
34 140 1
34 147 1
34 153 1
34 154 1
34 160 1
34 173 1
34 187 1
34 188 1
34 193 1
34 194 1
34 213 1
34 227 1
34 233 1
34 234 1
34 279 1
34 320 1
35 9 1
35 15 1
35 16 1
35 30 1
35 41 1
35 42 1
35 55 1
35 56 1
35 62 1
35 82 1
35 90 1
35 115 1
35 116 1
35 141 1
35 142 1
35 149 1
35 155 1
35 156 1
35 175 1
35 189 1
35 190 1
35 195 1
35 196 1
35 215 1
35 229 1
35 235 1
35 236 1
35 242 1
35 281 1
36 11 1
36 17 1
36 18 1
36 32 1
36 43 1
36 44 1
36 57 1
36 58 1
36 64 1
36 84 1
36 92 1
36 117 1
36 118 1
36 143 1
36 144 1
36 151 1
36 157 1
36 158 1
36 177 1
36 191 1
36 192 1
36 197 1
36 198 1
36 217 1
36 231 1
36 237 1
36 238 1
36 244 1
36 283 1
37 13 1
37 19 1
37 20 1
37 34 1
37 45 1
37 46 1
37 59 1
37 60 1
37 66 1
37 86 1
37 94 1
37 119 1
37 120 1
37 145 1
37 146 1
37 153 1
37 159 1
37 160 1
37 179 1
37 193 1
37 194 1
37 199 1
37 200 1
37 219 1
37 233 1
37 239 1
37 240 1
37 246 1
37 285 1
38 15 1
38 21 1
38 22 1
38 36 1
38 47 1
38 48 1
38 61 1
38 62 1
38 68 1
38 81 1
38 82 1
38 88 1
38 96 1
38 121 1
38 122 1
38 147 1
38 148 1
38 155 1
38 161 1
38 162 1
38 181 1
38 195 1
38 196 1
38 201 1
38 202 1
38 221 1
38 235 1
38 248 1
38 287 1
39 17 1
39 23 1
39 24 1
39 38 1
39 49 1
39 50 1
39 63 1
39 64 1
39 70 1
39 83 1
39 84 1
39 90 1
39 98 1
39 123 1
39 124 1
39 149 1
39 150 1
39 157 1
39 163 1
39 164 1
39 183 1
39 197 1
39 198 1
39 203 1
39 204 1
39 223 1
39 237 1
39 250 1
39 289 1
40 19 1
40 25 1
40 26 1
40 40 1
40 51 1
40 52 1
40 65 1
40 66 1
40 72 1
40 85 1
40 86 1
40 92 1
40 100 1
40 125 1
40 126 1
40 151 1
40 152 1
40 159 1
40 165 1
40 166 1
40 185 1
40 199 1
40 200 1
40 205 1
40 206 1
40 225 1
40 239 1
40 252 1
40 291 1
41 22 1
41 27 1
41 41 1
41 42 1
41 53 1
41 67 1
41 73 1
41 74 1
41 82 1
41 87 1
41 93 1
41 94 1
41 101 1
41 102 1
41 127 1
41 153 1
41 162 1
41 167 1
41 188 1
41 201 1
41 207 1
41 228 1
41 253 1
41 254 1
41 294 1
42 24 1
42 29 1
42 43 1
42 44 1
42 55 1
42 69 1
42 75 1
42 76 1
42 84 1
42 89 1
42 95 1
42 96 1
42 103 1
42 104 1
42 129 1
42 155 1
42 164 1
42 169 1
42 190 1
42 203 1
42 209 1
42 230 1
42 255 1
42 256 1
42 296 1
43 26 1
43 31 1
43 45 1
43 46 1
43 57 1
43 71 1
43 77 1
43 78 1
43 86 1
43 91 1
43 97 1
43 98 1
43 105 1
43 106 1
43 131 1
43 157 1
43 166 1
43 171 1
43 192 1
43 205 1
43 211 1
43 232 1
43 257 1
43 258 1
43 298 1
44 28 1
44 33 1
44 47 1
44 48 1
44 59 1
44 73 1
44 79 1
44 80 1
44 88 1
44 93 1
44 99 1
44 100 1
44 107 1
44 108 1
44 133 1
44 159 1
44 168 1
44 173 1
44 194 1
44 207 1
44 213 1
44 234 1
44 259 1
44 260 1
44 300 1
45 1 1
45 2 1
45 30 1
45 35 1
45 49 1
45 50 1
45 61 1
45 75 1
45 81 1
45 90 1
45 95 1
45 101 1
45 102 1
45 109 1
45 110 1
45 135 1
45 170 1
45 175 1
45 196 1
45 209 1
45 215 1
45 236 1
45 261 1
45 262 1
45 302 1
46 3 1
46 4 1
46 32 1
46 37 1
46 51 1
46 52 1
46 63 1
46 77 1
46 83 1
46 92 1
46 97 1
46 103 1
46 104 1
46 111 1
46 112 1
46 137 1
46 172 1
46 177 1
46 198 1
46 211 1
46 217 1
46 238 1
46 263 1
46 264 1
46 304 1
47 5 1
47 6 1
47 34 1
47 39 1
47 53 1
47 54 1
47 65 1
47 79 1
47 85 1
47 94 1
47 99 1
47 105 1
47 106 1
47 113 1
47 114 1
47 139 1
47 174 1
47 179 1
47 200 1
47 213 1
47 219 1
47 240 1
47 265 1
47 266 1
47 306 1
48 1 1
48 7 1
48 8 1
48 36 1
48 41 1
48 55 1
48 56 1
48 67 1
48 87 1
48 96 1
48 101 1
48 107 1
48 108 1
48 115 1
48 116 1
48 141 1
48 162 1
48 176 1
48 181 1
48 202 1
48 215 1
48 221 1
48 267 1
48 268 1
48 308 1
49 3 1
49 9 1
49 10 1
49 38 1
49 43 1
49 57 1
49 58 1
49 69 1
49 89 1
49 98 1
49 103 1
49 109 1
49 110 1
49 117 1
49 118 1
49 143 1
49 164 1
49 178 1
49 183 1
49 204 1
49 217 1
49 223 1
49 269 1
49 270 1
49 310 1
50 5 1
50 11 1
50 12 1
50 40 1
50 45 1
50 59 1
50 60 1
50 71 1
50 91 1
50 100 1
50 105 1
50 111 1
50 112 1
50 119 1
50 120 1
50 145 1
50 166 1
50 180 1
50 185 1
50 206 1
50 219 1
50 225 1
50 271 1
50 272 1
50 312 1
51 7 1
51 13 1
51 14 1
51 42 1
51 47 1
51 61 1
51 62 1
51 73 1
51 93 1
51 102 1
51 107 1
51 113 1
51 114 1
51 121 1
51 122 1
51 147 1
51 168 1
51 182 1
51 187 1
51 208 1
51 221 1
51 227 1
51 273 1
51 274 1
51 314 1
52 9 1
52 15 1
52 16 1
52 44 1
52 49 1
52 63 1
52 64 1
52 75 1
52 95 1
52 104 1
52 109 1
52 115 1
52 116 1
52 123 1
52 124 1
52 149 1
52 170 1
52 184 1
52 189 1
52 210 1
52 223 1
52 229 1
52 275 1
52 276 1
52 316 1
53 11 1
53 17 1
53 18 1
53 46 1
53 51 1
53 65 1
53 66 1
53 77 1
53 97 1
53 106 1
53 111 1
53 117 1
53 118 1
53 125 1
53 126 1
53 151 1
53 172 1
53 186 1
53 191 1
53 212 1
53 225 1
53 231 1
53 277 1
53 278 1
53 318 1
54 13 1
54 19 1
54 20 1
54 48 1
54 53 1
54 67 1
54 68 1
54 79 1
54 99 1
54 108 1
54 113 1
54 119 1
54 120 1
54 127 1
54 128 1
54 153 1
54 174 1
54 188 1
54 193 1
54 214 1
54 227 1
54 233 1
54 279 1
54 280 1
54 320 1
55 1 1
55 15 1
55 21 1
55 22 1
55 50 1
55 55 1
55 69 1
55 70 1
55 101 1
55 110 1
55 115 1
55 121 1
55 122 1
55 129 1
55 130 1
55 155 1
55 176 1
55 190 1
55 195 1
55 216 1
55 229 1
55 235 1
55 242 1
55 281 1
55 282 1
56 3 1
56 17 1
56 23 1
56 24 1
56 52 1
56 57 1
56 71 1
56 72 1
56 103 1
56 112 1
56 117 1
56 123 1
56 124 1
56 131 1
56 132 1
56 157 1
56 178 1
56 192 1
56 197 1
56 218 1
56 231 1
56 237 1
56 244 1
56 283 1
56 284 1
57 5 1
57 19 1
57 25 1
57 26 1
57 54 1
57 59 1
57 73 1
57 74 1
57 105 1
57 114 1
57 119 1
57 125 1
57 126 1
57 133 1
57 134 1
57 159 1
57 180 1
57 194 1
57 199 1
57 220 1
57 233 1
57 239 1
57 246 1
57 285 1
57 286 1
58 7 1
58 21 1
58 27 1
58 28 1
58 56 1
58 61 1
58 75 1
58 76 1
58 81 1
58 107 1
58 116 1
58 121 1
58 127 1
58 128 1
58 135 1
58 136 1
58 161 1
58 182 1
58 196 1
58 201 1
58 222 1
58 235 1
58 248 1
58 287 1
58 288 1
59 9 1
59 23 1
59 29 1
59 30 1
59 58 1
59 63 1
59 77 1
59 78 1
59 83 1
59 109 1
59 118 1
59 123 1
59 129 1
59 130 1
59 137 1
59 138 1
59 163 1
59 184 1
59 198 1
59 203 1
59 224 1
59 237 1
59 250 1
59 289 1
59 290 1
60 11 1
60 25 1
60 31 1
60 32 1
60 60 1
60 65 1
60 79 1
60 80 1
60 85 1
60 111 1
60 120 1
60 125 1
60 131 1
60 132 1
60 139 1
60 140 1
60 165 1
60 186 1
60 200 1
60 205 1
60 226 1
60 239 1
60 252 1
60 291 1
60 292 1
61 1 1
61 2 1
61 13 1
61 27 1
61 33 1
61 34 1
61 62 1
61 67 1
61 87 1
61 113 1
61 122 1
61 127 1
61 133 1
61 134 1
61 141 1
61 142 1
61 161 1
61 167 1
61 188 1
61 202 1
61 207 1
61 228 1
61 254 1
61 293 1
61 294 1
62 3 1
62 4 1
62 15 1
62 29 1
62 35 1
62 36 1
62 64 1
62 69 1
62 89 1
62 115 1
62 124 1
62 129 1
62 135 1
62 136 1
62 143 1
62 144 1
62 163 1
62 169 1
62 190 1
62 204 1
62 209 1
62 230 1
62 256 1
62 295 1
62 296 1
63 5 1
63 6 1
63 17 1
63 31 1
63 37 1
63 38 1
63 66 1
63 71 1
63 91 1
63 117 1
63 126 1
63 131 1
63 137 1
63 138 1
63 145 1
63 146 1
63 165 1
63 171 1
63 192 1
63 206 1
63 211 1
63 232 1
63 258 1
63 297 1
63 298 1
64 7 1
64 8 1
64 19 1
64 33 1
64 39 1
64 40 1
64 68 1
64 73 1
64 93 1
64 119 1
64 128 1
64 133 1
64 139 1
64 140 1
64 147 1
64 148 1
64 167 1
64 173 1
64 194 1
64 208 1
64 213 1
64 234 1
64 260 1
64 299 1
64 300 1
65 9 1
65 10 1
65 21 1
65 35 1
65 41 1
65 42 1
65 70 1
65 75 1
65 95 1
65 121 1
65 130 1
65 135 1
65 141 1
65 142 1
65 149 1
65 150 1
65 169 1
65 175 1
65 196 1
65 210 1
65 215 1
65 236 1
65 262 1
65 301 1
65 302 1
66 11 1
66 12 1
66 23 1
66 37 1
66 43 1
66 44 1
66 72 1
66 77 1
66 97 1
66 123 1
66 132 1
66 137 1
66 143 1
66 144 1
66 151 1
66 152 1
66 171 1
66 177 1
66 198 1
66 212 1
66 217 1
66 238 1
66 264 1
66 303 1
66 304 1
67 13 1
67 14 1
67 25 1
67 39 1
67 45 1
67 46 1
67 74 1
67 79 1
67 99 1
67 125 1
67 134 1
67 139 1
67 145 1
67 146 1
67 153 1
67 154 1
67 173 1
67 179 1
67 200 1
67 214 1
67 219 1
67 240 1
67 266 1
67 305 1
67 306 1
68 1 1
68 15 1
68 16 1
68 27 1
68 41 1
68 47 1
68 48 1
68 76 1
68 101 1
68 127 1
68 136 1
68 141 1
68 147 1
68 148 1
68 155 1
68 156 1
68 162 1
68 175 1
68 181 1
68 202 1
68 216 1
68 221 1
68 268 1
68 307 1
68 308 1
69 3 1
69 17 1
69 18 1
69 29 1
69 43 1
69 49 1
69 50 1
69 78 1
69 103 1
69 129 1
69 138 1
69 143 1
69 149 1
69 150 1
69 157 1
69 158 1
69 164 1
69 177 1
69 183 1
69 204 1
69 218 1
69 223 1
69 270 1
69 309 1
69 310 1
70 5 1
70 19 1
70 20 1
70 31 1
70 45 1
70 51 1
70 52 1
70 80 1
70 105 1
70 131 1
70 140 1
70 145 1
70 151 1
70 152 1
70 159 1
70 160 1
70 166 1
70 179 1
70 185 1
70 206 1
70 220 1
70 225 1
70 272 1
70 311 1
70 312 1
71 2 1
71 7 1
71 21 1
71 22 1
71 33 1
71 47 1
71 53 1
71 54 1
71 81 1
71 82 1
71 107 1
71 133 1
71 142 1
71 147 1
71 153 1
71 154 1
71 168 1
71 181 1
71 187 1
71 208 1
71 222 1
71 227 1
71 274 1
71 313 1
71 314 1
72 4 1
72 9 1
72 23 1
72 24 1
72 35 1
72 49 1
72 55 1
72 56 1
72 83 1
72 84 1
72 109 1
72 135 1
72 144 1
72 149 1
72 155 1
72 156 1
72 170 1
72 183 1
72 189 1
72 210 1
72 224 1
72 229 1
72 276 1
72 315 1
72 316 1
73 6 1
73 11 1
73 25 1
73 26 1
73 37 1
73 51 1
73 57 1
73 58 1
73 85 1
73 86 1
73 111 1
73 137 1
73 146 1
73 151 1
73 157 1
73 158 1
73 172 1
73 185 1
73 191 1
73 212 1
73 226 1
73 231 1
73 278 1
73 317 1
73 318 1
74 8 1
74 13 1
74 27 1
74 28 1
74 39 1
74 53 1
74 59 1
74 60 1
74 87 1
74 88 1
74 113 1
74 139 1
74 148 1
74 153 1
74 159 1
74 160 1
74 174 1
74 187 1
74 193 1
74 214 1
74 228 1
74 233 1
74 280 1
74 319 1
74 320 1
75 10 1
75 15 1
75 29 1
75 30 1
75 41 1
75 55 1
75 61 1
75 62 1
75 81 1
75 82 1
75 89 1
75 90 1
75 115 1
75 141 1
75 150 1
75 155 1
75 176 1
75 189 1
75 195 1
75 216 1
75 230 1
75 235 1
75 241 1
75 242 1
75 282 1
76 12 1
76 17 1
76 31 1
76 32 1
76 43 1
76 57 1
76 63 1
76 64 1
76 83 1
76 84 1
76 91 1
76 92 1
76 117 1
76 143 1
76 152 1
76 157 1
76 178 1
76 191 1
76 197 1
76 218 1
76 232 1
76 237 1
76 243 1
76 244 1
76 284 1
77 14 1
77 19 1
77 33 1
77 34 1
77 45 1
77 59 1
77 65 1
77 66 1
77 85 1
77 86 1
77 93 1
77 94 1
77 119 1
77 145 1
77 154 1
77 159 1
77 180 1
77 193 1
77 199 1
77 220 1
77 234 1
77 239 1
77 245 1
77 246 1
77 286 1
78 16 1
78 21 1
78 35 1
78 36 1
78 47 1
78 61 1
78 67 1
78 68 1
78 81 1
78 87 1
78 88 1
78 95 1
78 96 1
78 121 1
78 147 1
78 156 1
78 161 1
78 182 1
78 195 1
78 201 1
78 222 1
78 236 1
78 247 1
78 248 1
78 288 1
79 18 1
79 23 1
79 37 1
79 38 1
79 49 1
79 63 1
79 69 1
79 70 1
79 83 1
79 89 1
79 90 1
79 97 1
79 98 1
79 123 1
79 149 1
79 158 1
79 163 1
79 184 1
79 197 1
79 203 1
79 224 1
79 238 1
79 249 1
79 250 1
79 290 1
80 20 1
80 25 1
80 39 1
80 40 1
80 51 1
80 65 1
80 71 1
80 72 1
80 85 1
80 91 1
80 92 1
80 99 1
80 100 1
80 125 1
80 151 1
80 160 1
80 165 1
80 186 1
80 199 1
80 205 1
80 226 1
80 240 1
80 251 1
80 252 1
80 292 1
81 1 1
81 37 1
81 44 1
81 52 1
81 55 1
81 71 1
81 83 1
81 91 1
81 101 1
81 118 1
81 152 1
81 155 1
81 242 1
81 251 1
81 261 1
81 291 1
81 292 1
81 296 1
81 315 1
81 563 1
81 603 1
81 604 1
82 3 1
82 39 1
82 46 1
82 54 1
82 57 1
82 73 1
82 85 1
82 93 1
82 103 1
82 120 1
82 154 1
82 157 1
82 244 1
82 253 1
82 263 1
82 293 1
82 294 1
82 298 1
82 317 1
82 565 1
82 605 1
82 606 1
83 5 1
83 41 1
83 48 1
83 56 1
83 59 1
83 75 1
83 87 1
83 95 1
83 105 1
83 122 1
83 156 1
83 159 1
83 246 1
83 255 1
83 265 1
83 295 1
83 296 1
83 300 1
83 319 1
83 567 1
83 607 1
83 608 1
84 7 1
84 43 1
84 50 1
84 58 1
84 61 1
84 77 1
84 81 1
84 89 1
84 97 1
84 107 1
84 124 1
84 158 1
84 241 1
84 248 1
84 257 1
84 267 1
84 297 1
84 298 1
84 302 1
84 569 1
84 609 1
84 610 1
85 9 1
85 45 1
85 52 1
85 60 1
85 63 1
85 79 1
85 83 1
85 91 1
85 99 1
85 109 1
85 126 1
85 160 1
85 243 1
85 250 1
85 259 1
85 269 1
85 299 1
85 300 1
85 304 1
85 571 1
85 611 1
85 612 1
86 1 1
86 11 1
86 47 1
86 54 1
86 62 1
86 65 1
86 82 1
86 85 1
86 93 1
86 101 1
86 111 1
86 128 1
86 245 1
86 252 1
86 261 1
86 271 1
86 301 1
86 302 1
86 306 1
86 573 1
86 613 1
86 614 1
87 3 1
87 13 1
87 49 1
87 56 1
87 64 1
87 67 1
87 84 1
87 87 1
87 95 1
87 103 1
87 113 1
87 130 1
87 247 1
87 254 1
87 263 1
87 273 1
87 303 1
87 304 1
87 308 1
87 575 1
87 615 1
87 616 1
88 5 1
88 15 1
88 51 1
88 58 1
88 66 1
88 69 1
88 86 1
88 89 1
88 97 1
88 105 1
88 115 1
88 132 1
88 249 1
88 256 1
88 265 1
88 275 1
88 305 1
88 306 1
88 310 1
88 577 1
88 617 1
88 618 1
89 7 1
89 17 1
89 53 1
89 60 1
89 68 1
89 71 1
89 88 1
89 91 1
89 99 1
89 107 1
89 117 1
89 134 1
89 251 1
89 258 1
89 267 1
89 277 1
89 307 1
89 308 1
89 312 1
89 579 1
89 619 1
89 620 1
90 9 1
90 19 1
90 55 1
90 62 1
90 70 1
90 73 1
90 90 1
90 93 1
90 101 1
90 109 1
90 119 1
90 136 1
90 253 1
90 260 1
90 269 1
90 279 1
90 309 1
90 310 1
90 314 1
90 581 1
90 621 1
90 622 1
91 11 1
91 21 1
91 57 1
91 64 1
91 72 1
91 75 1
91 92 1
91 95 1
91 103 1
91 111 1
91 121 1
91 138 1
91 255 1
91 262 1
91 271 1
91 281 1
91 311 1
91 312 1
91 316 1
91 583 1
91 623 1
91 624 1
92 13 1
92 23 1
92 59 1
92 66 1
92 74 1
92 77 1
92 94 1
92 97 1
92 105 1
92 113 1
92 123 1
92 140 1
92 257 1
92 264 1
92 273 1
92 283 1
92 313 1
92 314 1
92 318 1
92 585 1
92 625 1
92 626 1
93 15 1
93 25 1
93 61 1
93 68 1
93 76 1
93 79 1
93 96 1
93 99 1
93 107 1
93 115 1
93 125 1
93 142 1
93 259 1
93 266 1
93 275 1
93 285 1
93 315 1
93 316 1
93 320 1
93 587 1
93 627 1
93 628 1
94 1 1
94 17 1
94 27 1
94 63 1
94 70 1
94 78 1
94 98 1
94 101 1
94 109 1
94 117 1
94 127 1
94 144 1
94 242 1
94 261 1
94 268 1
94 277 1
94 287 1
94 317 1
94 318 1
94 589 1
94 629 1
94 630 1
95 3 1
95 19 1
95 29 1
95 65 1
95 72 1
95 80 1
95 100 1
95 103 1
95 111 1
95 119 1
95 129 1
95 146 1
95 244 1
95 263 1
95 270 1
95 279 1
95 289 1
95 319 1
95 320 1
95 591 1
95 631 1
95 632 1
96 2 1
96 5 1
96 21 1
96 31 1
96 67 1
96 74 1
96 102 1
96 105 1
96 113 1
96 121 1
96 131 1
96 148 1
96 241 1
96 242 1
96 246 1
96 265 1
96 272 1
96 281 1
96 291 1
96 593 1
96 633 1
96 634 1
97 4 1
97 7 1
97 23 1
97 33 1
97 69 1
97 76 1
97 104 1
97 107 1
97 115 1
97 123 1
97 133 1
97 150 1
97 243 1
97 244 1
97 248 1
97 267 1
97 274 1
97 283 1
97 293 1
97 595 1
97 635 1
97 636 1
98 6 1
98 9 1
98 25 1
98 35 1
98 71 1
98 78 1
98 106 1
98 109 1
98 117 1
98 125 1
98 135 1
98 152 1
98 245 1
98 246 1
98 250 1
98 269 1
98 276 1
98 285 1
98 295 1
98 597 1
98 637 1
98 638 1
99 8 1
99 11 1
99 27 1
99 37 1
99 73 1
99 80 1
99 108 1
99 111 1
99 119 1
99 127 1
99 137 1
99 154 1
99 247 1
99 248 1
99 252 1
99 271 1
99 278 1
99 287 1
99 297 1
99 599 1
99 639 1
99 640 1
100 2 1
100 10 1
100 13 1
100 29 1
100 39 1
100 75 1
100 110 1
100 113 1
100 121 1
100 129 1
100 139 1
100 156 1
100 249 1
100 250 1
100 254 1
100 273 1
100 280 1
100 289 1
100 299 1
100 561 1
100 562 1
100 601 1
101 4 1
101 12 1
101 15 1
101 31 1
101 41 1
101 77 1
101 112 1
101 115 1
101 123 1
101 131 1
101 141 1
101 158 1
101 251 1
101 252 1
101 256 1
101 275 1
101 282 1
101 291 1
101 301 1
101 563 1
101 564 1
101 603 1
102 6 1
102 14 1
102 17 1
102 33 1
102 43 1
102 79 1
102 114 1
102 117 1
102 125 1
102 133 1
102 143 1
102 160 1
102 253 1
102 254 1
102 258 1
102 277 1
102 284 1
102 293 1
102 303 1
102 565 1
102 566 1
102 605 1
103 1 1
103 8 1
103 16 1
103 19 1
103 35 1
103 45 1
103 82 1
103 116 1
103 119 1
103 127 1
103 135 1
103 145 1
103 255 1
103 256 1
103 260 1
103 279 1
103 286 1
103 295 1
103 305 1
103 567 1
103 568 1
103 607 1
104 3 1
104 10 1
104 18 1
104 21 1
104 37 1
104 47 1
104 84 1
104 118 1
104 121 1
104 129 1
104 137 1
104 147 1
104 257 1
104 258 1
104 262 1
104 281 1
104 288 1
104 297 1
104 307 1
104 569 1
104 570 1
104 609 1
105 5 1
105 12 1
105 20 1
105 23 1
105 39 1
105 49 1
105 86 1
105 120 1
105 123 1
105 131 1
105 139 1
105 149 1
105 259 1
105 260 1
105 264 1
105 283 1
105 290 1
105 299 1
105 309 1
105 571 1
105 572 1
105 611 1
106 7 1
106 14 1
106 22 1
106 25 1
106 41 1
106 51 1
106 88 1
106 122 1
106 125 1
106 133 1
106 141 1
106 151 1
106 261 1
106 262 1
106 266 1
106 285 1
106 292 1
106 301 1
106 311 1
106 573 1
106 574 1
106 613 1
107 9 1
107 16 1
107 24 1
107 27 1
107 43 1
107 53 1
107 90 1
107 124 1
107 127 1
107 135 1
107 143 1
107 153 1
107 263 1
107 264 1
107 268 1
107 287 1
107 294 1
107 303 1
107 313 1
107 575 1
107 576 1
107 615 1
108 11 1
108 18 1
108 26 1
108 29 1
108 45 1
108 55 1
108 92 1
108 126 1
108 129 1
108 137 1
108 145 1
108 155 1
108 265 1
108 266 1
108 270 1
108 289 1
108 296 1
108 305 1
108 315 1
108 577 1
108 578 1
108 617 1
109 13 1
109 20 1
109 28 1
109 31 1
109 47 1
109 57 1
109 94 1
109 128 1
109 131 1
109 139 1
109 147 1
109 157 1
109 267 1
109 268 1
109 272 1
109 291 1
109 298 1
109 307 1
109 317 1
109 579 1
109 580 1
109 619 1
110 15 1
110 22 1
110 30 1
110 33 1
110 49 1
110 59 1
110 96 1
110 130 1
110 133 1
110 141 1
110 149 1
110 159 1
110 269 1
110 270 1
110 274 1
110 293 1
110 300 1
110 309 1
110 319 1
110 581 1
110 582 1
110 621 1
111 17 1
111 24 1
111 32 1
111 35 1
111 51 1
111 61 1
111 81 1
111 98 1
111 132 1
111 135 1
111 143 1
111 151 1
111 241 1
111 271 1
111 272 1
111 276 1
111 295 1
111 302 1
111 311 1
111 583 1
111 584 1
111 623 1
112 19 1
112 26 1
112 34 1
112 37 1
112 53 1
112 63 1
112 83 1
112 100 1
112 134 1
112 137 1
112 145 1
112 153 1
112 243 1
112 273 1
112 274 1
112 278 1
112 297 1
112 304 1
112 313 1
112 585 1
112 586 1
112 625 1
113 21 1
113 28 1
113 36 1
113 39 1
113 55 1
113 65 1
113 85 1
113 102 1
113 136 1
113 139 1
113 147 1
113 155 1
113 245 1
113 275 1
113 276 1
113 280 1
113 299 1
113 306 1
113 315 1
113 587 1
113 588 1
113 627 1
114 23 1
114 30 1
114 38 1
114 41 1
114 57 1
114 67 1
114 87 1
114 104 1
114 138 1
114 141 1
114 149 1
114 157 1
114 247 1
114 277 1
114 278 1
114 282 1
114 301 1
114 308 1
114 317 1
114 589 1
114 590 1
114 629 1
115 25 1
115 32 1
115 40 1
115 43 1
115 59 1
115 69 1
115 89 1
115 106 1
115 140 1
115 143 1
115 151 1
115 159 1
115 249 1
115 279 1
115 280 1
115 284 1
115 303 1
115 310 1
115 319 1
115 591 1
115 592 1
115 631 1
116 27 1
116 34 1
116 42 1
116 45 1
116 61 1
116 71 1
116 81 1
116 91 1
116 108 1
116 142 1
116 145 1
116 153 1
116 241 1
116 251 1
116 281 1
116 282 1
116 286 1
116 305 1
116 312 1
116 593 1
116 594 1
116 633 1
117 29 1
117 36 1
117 44 1
117 47 1
117 63 1
117 73 1
117 83 1
117 93 1
117 110 1
117 144 1
117 147 1
117 155 1
117 243 1
117 253 1
117 283 1
117 284 1
117 288 1
117 307 1
117 314 1
117 595 1
117 596 1
117 635 1
118 31 1
118 38 1
118 46 1
118 49 1
118 65 1
118 75 1
118 85 1
118 95 1
118 112 1
118 146 1
118 149 1
118 157 1
118 245 1
118 255 1
118 285 1
118 286 1
118 290 1
118 309 1
118 316 1
118 597 1
118 598 1
118 637 1
119 33 1
119 40 1
119 48 1
119 51 1
119 67 1
119 77 1
119 87 1
119 97 1
119 114 1
119 148 1
119 151 1
119 159 1
119 247 1
119 257 1
119 287 1
119 288 1
119 292 1
119 311 1
119 318 1
119 599 1
119 600 1
119 639 1
120 35 1
120 42 1
120 50 1
120 53 1
120 69 1
120 79 1
120 81 1
120 89 1
120 99 1
120 116 1
120 150 1
120 153 1
120 249 1
120 259 1
120 289 1
120 290 1
120 294 1
120 313 1
120 320 1
120 561 1
120 601 1
120 602 1
121 2 1
121 38 1
121 43 1
121 44 1
121 51 1
121 52 1
121 56 1
121 72 1
121 84 1
121 92 1
121 102 1
121 117 1
121 118 1
121 151 1
121 152 1
121 156 1
121 241 1
121 242 1
121 252 1
121 262 1
121 291 1
121 295 1
121 296 1
121 316 1
121 564 1
121 603 1
122 4 1
122 40 1
122 45 1
122 46 1
122 53 1
122 54 1
122 58 1
122 74 1
122 86 1
122 94 1
122 104 1
122 119 1
122 120 1
122 153 1
122 154 1
122 158 1
122 243 1
122 244 1
122 254 1
122 264 1
122 293 1
122 297 1
122 298 1
122 318 1
122 566 1
122 605 1
123 6 1
123 42 1
123 47 1
123 48 1
123 55 1
123 56 1
123 60 1
123 76 1
123 88 1
123 96 1
123 106 1
123 121 1
123 122 1
123 155 1
123 156 1
123 160 1
123 245 1
123 246 1
123 256 1
123 266 1
123 295 1
123 299 1
123 300 1
123 320 1
123 568 1
123 607 1
124 8 1
124 44 1
124 49 1
124 50 1
124 57 1
124 58 1
124 62 1
124 78 1
124 82 1
124 90 1
124 98 1
124 108 1
124 123 1
124 124 1
124 157 1
124 158 1
124 242 1
124 247 1
124 248 1
124 258 1
124 268 1
124 297 1
124 301 1
124 302 1
124 570 1
124 609 1
125 10 1
125 46 1
125 51 1
125 52 1
125 59 1
125 60 1
125 64 1
125 80 1
125 84 1
125 92 1
125 100 1
125 110 1
125 125 1
125 126 1
125 159 1
125 160 1
125 244 1
125 249 1
125 250 1
125 260 1
125 270 1
125 299 1
125 303 1
125 304 1
125 572 1
125 611 1
126 2 1
126 12 1
126 48 1
126 53 1
126 54 1
126 61 1
126 62 1
126 66 1
126 81 1
126 82 1
126 86 1
126 94 1
126 102 1
126 112 1
126 127 1
126 128 1
126 246 1
126 251 1
126 252 1
126 262 1
126 272 1
126 301 1
126 305 1
126 306 1
126 574 1
126 613 1
127 4 1
127 14 1
127 50 1
127 55 1
127 56 1
127 63 1
127 64 1
127 68 1
127 83 1
127 84 1
127 88 1
127 96 1
127 104 1
127 114 1
127 129 1
127 130 1
127 248 1
127 253 1
127 254 1
127 264 1
127 274 1
127 303 1
127 307 1
127 308 1
127 576 1
127 615 1
128 6 1
128 16 1
128 52 1
128 57 1
128 58 1
128 65 1
128 66 1
128 70 1
128 85 1
128 86 1
128 90 1
128 98 1
128 106 1
128 116 1
128 131 1
128 132 1
128 250 1
128 255 1
128 256 1
128 266 1
128 276 1
128 305 1
128 309 1
128 310 1
128 578 1
128 617 1
129 8 1
129 18 1
129 54 1
129 59 1
129 60 1
129 67 1
129 68 1
129 72 1
129 87 1
129 88 1
129 92 1
129 100 1
129 108 1
129 118 1
129 133 1
129 134 1
129 252 1
129 257 1
129 258 1
129 268 1
129 278 1
129 307 1
129 311 1
129 312 1
129 580 1
129 619 1
130 10 1
130 20 1
130 56 1
130 61 1
130 62 1
130 69 1
130 70 1
130 74 1
130 89 1
130 90 1
130 94 1
130 102 1
130 110 1
130 120 1
130 135 1
130 136 1
130 254 1
130 259 1
130 260 1
130 270 1
130 280 1
130 309 1
130 313 1
130 314 1
130 582 1
130 621 1
131 12 1
131 22 1
131 58 1
131 63 1
131 64 1
131 71 1
131 72 1
131 76 1
131 91 1
131 92 1
131 96 1
131 104 1
131 112 1
131 122 1
131 137 1
131 138 1
131 256 1
131 261 1
131 262 1
131 272 1
131 282 1
131 311 1
131 315 1
131 316 1
131 584 1
131 623 1
132 14 1
132 24 1
132 60 1
132 65 1
132 66 1
132 73 1
132 74 1
132 78 1
132 93 1
132 94 1
132 98 1
132 106 1
132 114 1
132 124 1
132 139 1
132 140 1
132 258 1
132 263 1
132 264 1
132 274 1
132 284 1
132 313 1
132 317 1
132 318 1
132 586 1
132 625 1
133 16 1
133 26 1
133 62 1
133 67 1
133 68 1
133 75 1
133 76 1
133 80 1
133 95 1
133 96 1
133 100 1
133 108 1
133 116 1
133 126 1
133 141 1
133 142 1
133 260 1
133 265 1
133 266 1
133 276 1
133 286 1
133 315 1
133 319 1
133 320 1
133 588 1
133 627 1
134 2 1
134 18 1
134 28 1
134 64 1
134 69 1
134 70 1
134 77 1
134 78 1
134 97 1
134 98 1
134 102 1
134 110 1
134 118 1
134 128 1
134 143 1
134 144 1
134 241 1
134 242 1
134 262 1
134 267 1
134 268 1
134 278 1
134 288 1
134 317 1
134 590 1
134 629 1
135 4 1
135 20 1
135 30 1
135 66 1
135 71 1
135 72 1
135 79 1
135 80 1
135 99 1
135 100 1
135 104 1
135 112 1
135 120 1
135 130 1
135 145 1
135 146 1
135 243 1
135 244 1
135 264 1
135 269 1
135 270 1
135 280 1
135 290 1
135 319 1
135 592 1
135 631 1
136 1 1
136 2 1
136 6 1
136 22 1
136 32 1
136 68 1
136 73 1
136 74 1
136 101 1
136 102 1
136 106 1
136 114 1
136 122 1
136 132 1
136 147 1
136 148 1
136 241 1
136 245 1
136 246 1
136 266 1
136 271 1
136 272 1
136 282 1
136 292 1
136 594 1
136 633 1
137 3 1
137 4 1
137 8 1
137 24 1
137 34 1
137 70 1
137 75 1
137 76 1
137 103 1
137 104 1
137 108 1
137 116 1
137 124 1
137 134 1
137 149 1
137 150 1
137 243 1
137 247 1
137 248 1
137 268 1
137 273 1
137 274 1
137 284 1
137 294 1
137 596 1
137 635 1
138 5 1
138 6 1
138 10 1
138 26 1
138 36 1
138 72 1
138 77 1
138 78 1
138 105 1
138 106 1
138 110 1
138 118 1
138 126 1
138 136 1
138 151 1
138 152 1
138 245 1
138 249 1
138 250 1
138 270 1
138 275 1
138 276 1
138 286 1
138 296 1
138 598 1
138 637 1
139 7 1
139 8 1
139 12 1
139 28 1
139 38 1
139 74 1
139 79 1
139 80 1
139 107 1
139 108 1
139 112 1
139 120 1
139 128 1
139 138 1
139 153 1
139 154 1
139 247 1
139 251 1
139 252 1
139 272 1
139 277 1
139 278 1
139 288 1
139 298 1
139 600 1
139 639 1
140 1 1
140 2 1
140 9 1
140 10 1
140 14 1
140 30 1
140 40 1
140 76 1
140 109 1
140 110 1
140 114 1
140 122 1
140 130 1
140 140 1
140 155 1
140 156 1
140 249 1
140 253 1
140 254 1
140 274 1
140 279 1
140 280 1
140 290 1
140 300 1
140 561 1
140 602 1
141 3 1
141 4 1
141 11 1
141 12 1
141 16 1
141 32 1
141 42 1
141 78 1
141 111 1
141 112 1
141 116 1
141 124 1
141 132 1
141 142 1
141 157 1
141 158 1
141 251 1
141 255 1
141 256 1
141 276 1
141 281 1
141 282 1
141 292 1
141 302 1
141 563 1
141 604 1
142 5 1
142 6 1
142 13 1
142 14 1
142 18 1
142 34 1
142 44 1
142 80 1
142 113 1
142 114 1
142 118 1
142 126 1
142 134 1
142 144 1
142 159 1
142 160 1
142 253 1
142 257 1
142 258 1
142 278 1
142 283 1
142 284 1
142 294 1
142 304 1
142 565 1
142 606 1
143 2 1
143 7 1
143 8 1
143 15 1
143 16 1
143 20 1
143 36 1
143 46 1
143 81 1
143 82 1
143 115 1
143 116 1
143 120 1
143 128 1
143 136 1
143 146 1
143 255 1
143 259 1
143 260 1
143 280 1
143 285 1
143 286 1
143 296 1
143 306 1
143 567 1
143 608 1
144 4 1
144 9 1
144 10 1
144 17 1
144 18 1
144 22 1
144 38 1
144 48 1
144 83 1
144 84 1
144 117 1
144 118 1
144 122 1
144 130 1
144 138 1
144 148 1
144 257 1
144 261 1
144 262 1
144 282 1
144 287 1
144 288 1
144 298 1
144 308 1
144 569 1
144 610 1
145 6 1
145 11 1
145 12 1
145 19 1
145 20 1
145 24 1
145 40 1
145 50 1
145 85 1
145 86 1
145 119 1
145 120 1
145 124 1
145 132 1
145 140 1
145 150 1
145 259 1
145 263 1
145 264 1
145 284 1
145 289 1
145 290 1
145 300 1
145 310 1
145 571 1
145 612 1
146 8 1
146 13 1
146 14 1
146 21 1
146 22 1
146 26 1
146 42 1
146 52 1
146 87 1
146 88 1
146 121 1
146 122 1
146 126 1
146 134 1
146 142 1
146 152 1
146 261 1
146 265 1
146 266 1
146 286 1
146 291 1
146 292 1
146 302 1
146 312 1
146 573 1
146 614 1
147 10 1
147 15 1
147 16 1
147 23 1
147 24 1
147 28 1
147 44 1
147 54 1
147 89 1
147 90 1
147 123 1
147 124 1
147 128 1
147 136 1
147 144 1
147 154 1
147 263 1
147 267 1
147 268 1
147 288 1
147 293 1
147 294 1
147 304 1
147 314 1
147 575 1
147 616 1
148 12 1
148 17 1
148 18 1
148 25 1
148 26 1
148 30 1
148 46 1
148 56 1
148 91 1
148 92 1
148 125 1
148 126 1
148 130 1
148 138 1
148 146 1
148 156 1
148 265 1
148 269 1
148 270 1
148 290 1
148 295 1
148 296 1
148 306 1
148 316 1
148 577 1
148 618 1
149 14 1
149 19 1
149 20 1
149 27 1
149 28 1
149 32 1
149 48 1
149 58 1
149 93 1
149 94 1
149 127 1
149 128 1
149 132 1
149 140 1
149 148 1
149 158 1
149 267 1
149 271 1
149 272 1
149 292 1
149 297 1
149 298 1
149 308 1
149 318 1
149 579 1
149 620 1
150 16 1
150 21 1
150 22 1
150 29 1
150 30 1
150 34 1
150 50 1
150 60 1
150 95 1
150 96 1
150 129 1
150 130 1
150 134 1
150 142 1
150 150 1
150 160 1
150 269 1
150 273 1
150 274 1
150 294 1
150 299 1
150 300 1
150 310 1
150 320 1
150 581 1
150 622 1
151 18 1
151 23 1
151 24 1
151 31 1
151 32 1
151 36 1
151 52 1
151 62 1
151 82 1
151 97 1
151 98 1
151 131 1
151 132 1
151 136 1
151 144 1
151 152 1
151 242 1
151 271 1
151 275 1
151 276 1
151 296 1
151 301 1
151 302 1
151 312 1
151 583 1
151 624 1
152 20 1
152 25 1
152 26 1
152 33 1
152 34 1
152 38 1
152 54 1
152 64 1
152 84 1
152 99 1
152 100 1
152 133 1
152 134 1
152 138 1
152 146 1
152 154 1
152 244 1
152 273 1
152 277 1
152 278 1
152 298 1
152 303 1
152 304 1
152 314 1
152 585 1
152 626 1
153 22 1
153 27 1
153 28 1
153 35 1
153 36 1
153 40 1
153 56 1
153 66 1
153 86 1
153 101 1
153 102 1
153 135 1
153 136 1
153 140 1
153 148 1
153 156 1
153 246 1
153 275 1
153 279 1
153 280 1
153 300 1
153 305 1
153 306 1
153 316 1
153 587 1
153 628 1
154 24 1
154 29 1
154 30 1
154 37 1
154 38 1
154 42 1
154 58 1
154 68 1
154 88 1
154 103 1
154 104 1
154 137 1
154 138 1
154 142 1
154 150 1
154 158 1
154 248 1
154 277 1
154 281 1
154 282 1
154 302 1
154 307 1
154 308 1
154 318 1
154 589 1
154 630 1
155 26 1
155 31 1
155 32 1
155 39 1
155 40 1
155 44 1
155 60 1
155 70 1
155 90 1
155 105 1
155 106 1
155 139 1
155 140 1
155 144 1
155 152 1
155 160 1
155 250 1
155 279 1
155 283 1
155 284 1
155 304 1
155 309 1
155 310 1
155 320 1
155 591 1
155 632 1
156 28 1
156 33 1
156 34 1
156 41 1
156 42 1
156 46 1
156 62 1
156 72 1
156 82 1
156 92 1
156 107 1
156 108 1
156 141 1
156 142 1
156 146 1
156 154 1
156 242 1
156 252 1
156 281 1
156 285 1
156 286 1
156 306 1
156 311 1
156 312 1
156 593 1
156 634 1
157 30 1
157 35 1
157 36 1
157 43 1
157 44 1
157 48 1
157 64 1
157 74 1
157 84 1
157 94 1
157 109 1
157 110 1
157 143 1
157 144 1
157 148 1
157 156 1
157 244 1
157 254 1
157 283 1
157 287 1
157 288 1
157 308 1
157 313 1
157 314 1
157 595 1
157 636 1
158 32 1
158 37 1
158 38 1
158 45 1
158 46 1
158 50 1
158 66 1
158 76 1
158 86 1
158 96 1
158 111 1
158 112 1
158 145 1
158 146 1
158 150 1
158 158 1
158 246 1
158 256 1
158 285 1
158 289 1
158 290 1
158 310 1
158 315 1
158 316 1
158 597 1
158 638 1
159 34 1
159 39 1
159 40 1
159 47 1
159 48 1
159 52 1
159 68 1
159 78 1
159 88 1
159 98 1
159 113 1
159 114 1
159 147 1
159 148 1
159 152 1
159 160 1
159 248 1
159 258 1
159 287 1
159 291 1
159 292 1
159 312 1
159 317 1
159 318 1
159 599 1
159 640 1
160 36 1
160 41 1
160 42 1
160 49 1
160 50 1
160 54 1
160 70 1
160 80 1
160 82 1
160 90 1
160 100 1
160 115 1
160 116 1
160 149 1
160 150 1
160 154 1
160 250 1
160 260 1
160 289 1
160 293 1
160 294 1
160 314 1
160 319 1
160 320 1
160 562 1
160 601 1
