%%MatrixMarket matrix coordinate integer general
% GF(4) labels 0,1,2=omega,3=omega+1; arithmetic is NOT integer arithmetic.
% Coordinate indices are 1-based; omitted entries are zero.
80 320 1600
1 11 1
1 14 3
1 21 2
1 27 3
1 34 3
1 37 2
1 41 1
1 44 3
1 47 2
1 51 2
1 64 3
1 77 3
1 81 1
1 84 3
1 94 1
1 101 3
1 104 3
1 114 1
1 127 2
1 147 1
2 12 1
2 15 3
2 22 2
2 28 3
2 35 3
2 38 2
2 42 1
2 45 3
2 48 2
2 52 2
2 65 3
2 78 3
2 82 1
2 85 3
2 95 1
2 102 3
2 105 3
2 115 1
2 128 2
2 148 1
3 13 1
3 16 3
3 23 2
3 29 3
3 36 3
3 39 2
3 43 1
3 46 3
3 49 2
3 53 2
3 66 3
3 79 3
3 83 1
3 86 3
3 96 1
3 103 3
3 106 3
3 116 1
3 129 2
3 149 1
4 14 1
4 17 3
4 24 2
4 30 3
4 37 3
4 40 2
4 44 1
4 47 3
4 50 2
4 54 2
4 67 3
4 80 3
4 84 1
4 87 3
4 97 1
4 104 3
4 107 3
4 117 1
4 130 2
4 150 1
5 1 2
5 15 1
5 18 3
5 25 2
5 31 3
5 38 3
5 41 3
5 45 1
5 48 3
5 51 2
5 55 2
5 68 3
5 85 1
5 88 3
5 98 1
5 105 3
5 108 3
5 118 1
5 131 2
5 151 1
6 2 2
6 16 1
6 19 3
6 26 2
6 32 3
6 39 3
6 42 3
6 46 1
6 49 3
6 52 2
6 56 2
6 69 3
6 86 1
6 89 3
6 99 1
6 106 3
6 109 3
6 119 1
6 132 2
6 152 1
7 3 2
7 17 1
7 20 3
7 27 2
7 33 3
7 40 3
7 43 3
7 47 1
7 50 3
7 53 2
7 57 2
7 70 3
7 87 1
7 90 3
7 100 1
7 107 3
7 110 3
7 120 1
7 133 2
7 153 1
8 1 3
8 4 2
8 18 1
8 21 3
8 28 2
8 34 3
8 44 3
8 48 1
8 51 3
8 54 2
8 58 2
8 71 3
8 81 1
8 88 1
8 91 3
8 101 1
8 108 3
8 111 3
8 134 2
8 154 1
9 2 3
9 5 2
9 19 1
9 22 3
9 29 2
9 35 3
9 45 3
9 49 1
9 52 3
9 55 2
9 59 2
9 72 3
9 82 1
9 89 1
9 92 3
9 102 1
9 109 3
9 112 3
9 135 2
9 155 1
10 3 3
10 6 2
10 20 1
10 23 3
10 30 2
10 36 3
10 46 3
10 50 1
10 53 3
10 56 2
10 60 2
10 73 3
10 83 1
10 90 1
10 93 3
10 103 1
10 110 3
10 113 3
10 136 2
10 156 1
11 4 3
11 7 2
11 21 1
11 24 3
11 31 2
11 37 3
11 47 3
11 51 1
11 54 3
11 57 2
11 61 2
11 74 3
11 84 1
11 91 1
11 94 3
11 104 1
11 111 3
11 114 3
11 137 2
11 157 1
12 5 3
12 8 2
12 22 1
12 25 3
12 32 2
12 38 3
12 48 3
12 52 1
12 55 3
12 58 2
12 62 2
12 75 3
12 85 1
12 92 1
12 95 3
12 105 1
12 112 3
12 115 3
12 138 2
12 158 1
13 6 3
13 9 2
13 23 1
13 26 3
13 33 2
13 39 3
13 49 3
13 53 1
13 56 3
13 59 2
13 63 2
13 76 3
13 86 1
13 93 1
13 96 3
13 106 1
13 113 3
13 116 3
13 139 2
13 159 1
14 7 3
14 10 2
14 24 1
14 27 3
14 34 2
14 40 3
14 50 3
14 54 1
14 57 3
14 60 2
14 64 2
14 77 3
14 87 1
14 94 1
14 97 3
14 107 1
14 114 3
14 117 3
14 140 2
14 160 1
15 1 3
15 8 3
15 11 2
15 25 1
15 28 3
15 35 2
15 51 3
15 55 1
15 58 3
15 61 2
15 65 2
15 78 3
15 88 1
15 95 1
15 98 3
15 108 1
15 115 3
15 118 3
15 121 1
15 141 2
16 2 3
16 9 3
16 12 2
16 26 1
16 29 3
16 36 2
16 52 3
16 56 1
16 59 3
16 62 2
16 66 2
16 79 3
16 89 1
16 96 1
16 99 3
16 109 1
16 116 3
16 119 3
16 122 1
16 142 2
17 3 3
17 10 3
17 13 2
17 27 1
17 30 3
17 37 2
17 53 3
17 57 1
17 60 3
17 63 2
17 67 2
17 80 3
17 90 1
17 97 1
17 100 3
17 110 1
17 117 3
17 120 3
17 123 1
17 143 2
18 4 3
18 11 3
18 14 2
18 28 1
18 31 3
18 38 2
18 41 3
18 54 3
18 58 1
18 61 3
18 64 2
18 68 2
18 81 3
18 91 1
18 98 1
18 101 3
18 111 1
18 118 3
18 124 1
18 144 2
19 5 3
19 12 3
19 15 2
19 29 1
19 32 3
19 39 2
19 42 3
19 55 3
19 59 1
19 62 3
19 65 2
19 69 2
19 82 3
19 92 1
19 99 1
19 102 3
19 112 1
19 119 3
19 125 1
19 145 2
20 6 3
20 13 3
20 16 2
20 30 1
20 33 3
20 40 2
20 43 3
20 56 3
20 60 1
20 63 3
20 66 2
20 70 2
20 83 3
20 93 1
20 100 1
20 103 3
20 113 1
20 120 3
20 126 1
20 146 2
21 1 2
21 7 3
21 14 3
21 17 2
21 31 1
21 34 3
21 44 3
21 57 3
21 61 1
21 64 3
21 67 2
21 71 2
21 81 3
21 84 3
21 94 1
21 101 1
21 104 3
21 114 1
21 127 1
21 147 2
22 2 2
22 8 3
22 15 3
22 18 2
22 32 1
22 35 3
22 45 3
22 58 3
22 62 1
22 65 3
22 68 2
22 72 2
22 82 3
22 85 3
22 95 1
22 102 1
22 105 3
22 115 1
22 128 1
22 148 2
23 3 2
23 9 3
23 16 3
23 19 2
23 33 1
23 36 3
23 46 3
23 59 3
23 63 1
23 66 3
23 69 2
23 73 2
23 83 3
23 86 3
23 96 1
23 103 1
23 106 3
23 116 1
23 129 1
23 149 2
24 4 2
24 10 3
24 17 3
24 20 2
24 34 1
24 37 3
24 47 3
24 60 3
24 64 1
24 67 3
24 70 2
24 74 2
24 84 3
24 87 3
24 97 1
24 104 1
24 107 3
24 117 1
24 130 1
24 150 2
25 5 2
25 11 3
25 18 3
25 21 2
25 35 1
25 38 3
25 48 3
25 61 3
25 65 1
25 68 3
25 71 2
25 75 2
25 85 3
25 88 3
25 98 1
25 105 1
25 108 3
25 118 1
25 131 1
25 151 2
26 6 2
26 12 3
26 19 3
26 22 2
26 36 1
26 39 3
26 49 3
26 62 3
26 66 1
26 69 3
26 72 2
26 76 2
26 86 3
26 89 3
26 99 1
26 106 1
26 109 3
26 119 1
26 132 1
26 152 2
27 7 2
27 13 3
27 20 3
27 23 2
27 37 1
27 40 3
27 50 3
27 63 3
27 67 1
27 70 3
27 73 2
27 77 2
27 87 3
27 90 3
27 100 1
27 107 1
27 110 3
27 120 1
27 133 1
27 153 2
28 1 3
28 8 2
28 14 3
28 21 3
28 24 2
28 38 1
28 51 3
28 64 3
28 68 1
28 71 3
28 74 2
28 78 2
28 81 1
28 88 3
28 91 3
28 101 1
28 108 1
28 111 3
28 134 1
28 154 2
29 2 3
29 9 2
29 15 3
29 22 3
29 25 2
29 39 1
29 52 3
29 65 3
29 69 1
29 72 3
29 75 2
29 79 2
29 82 1
29 89 3
29 92 3
29 102 1
29 109 1
29 112 3
29 135 1
29 155 2
30 3 3
30 10 2
30 16 3
30 23 3
30 26 2
30 40 1
30 53 3
30 66 3
30 70 1
30 73 3
30 76 2
30 80 2
30 83 1
30 90 3
30 93 3
30 103 1
30 110 1
30 113 3
30 136 1
30 156 2
31 1 1
31 4 3
31 11 2
31 17 3
31 24 3
31 27 2
31 41 2
31 54 3
31 67 3
31 71 1
31 74 3
31 77 2
31 84 1
31 91 3
31 94 3
31 104 1
31 111 1
31 114 3
31 137 1
31 157 2
32 2 1
32 5 3
32 12 2
32 18 3
32 25 3
32 28 2
32 42 2
32 55 3
32 68 3
32 72 1
32 75 3
32 78 2
32 85 1
32 92 3
32 95 3
32 105 1
32 112 1
32 115 3
32 138 1
32 158 2
33 3 1
33 6 3
33 13 2
33 19 3
33 26 3
33 29 2
33 43 2
33 56 3
33 69 3
33 73 1
33 76 3
33 79 2
33 86 1
33 93 3
33 96 3
33 106 1
33 113 1
33 116 3
33 139 1
33 159 2
34 4 1
34 7 3
34 14 2
34 20 3
34 27 3
34 30 2
34 44 2
34 57 3
34 70 3
34 74 1
34 77 3
34 80 2
34 87 1
34 94 3
34 97 3
34 107 1
34 114 1
34 117 3
34 140 1
34 160 2
35 5 1
35 8 3
35 15 2
35 21 3
35 28 3
35 31 2
35 41 2
35 45 2
35 58 3
35 71 3
35 75 1
35 78 3
35 88 1
35 95 3
35 98 3
35 108 1
35 115 1
35 118 3
35 121 2
35 141 1
36 6 1
36 9 3
36 16 2
36 22 3
36 29 3
36 32 2
36 42 2
36 46 2
36 59 3
36 72 3
36 76 1
36 79 3
36 89 1
36 96 3
36 99 3
36 109 1
36 116 1
36 119 3
36 122 2
36 142 1
37 7 1
37 10 3
37 17 2
37 23 3
37 30 3
37 33 2
37 43 2
37 47 2
37 60 3
37 73 3
37 77 1
37 80 3
37 90 1
37 97 3
37 100 3
37 110 1
37 117 1
37 120 3
37 123 2
37 143 1
38 8 1
38 11 3
38 18 2
38 24 3
38 31 3
38 34 2
38 41 3
38 44 2
38 48 2
38 61 3
38 74 3
38 78 1
38 81 3
38 91 1
38 98 3
38 101 3
38 111 1
38 118 1
38 124 2
38 144 1
39 9 1
39 12 3
39 19 2
39 25 3
39 32 3
39 35 2
39 42 3
39 45 2
39 49 2
39 62 3
39 75 3
39 79 1
39 82 3
39 92 1
39 99 3
39 102 3
39 112 1
39 119 1
39 125 2
39 145 1
40 10 1
40 13 3
40 20 2
40 26 3
40 33 3
40 36 2
40 43 3
40 46 2
40 50 2
40 63 3
40 76 3
40 80 1
40 83 3
40 93 1
40 100 3
40 103 3
40 113 1
40 120 1
40 126 2
40 146 1
41 1 1
41 19 1
41 22 2
41 26 2
41 28 1
41 36 1
41 42 1
41 46 1
41 51 1
41 59 2
41 76 2
41 78 1
41 121 2
41 126 1
41 131 1
41 146 3
41 148 2
41 158 1
41 282 1
41 302 3
42 2 1
42 20 1
42 23 2
42 27 2
42 29 1
42 37 1
42 43 1
42 47 1
42 52 1
42 60 2
42 77 2
42 79 1
42 122 2
42 127 1
42 132 1
42 147 3
42 149 2
42 159 1
42 283 1
42 303 3
43 3 1
43 21 1
43 24 2
43 28 2
43 30 1
43 38 1
43 44 1
43 48 1
43 53 1
43 61 2
43 78 2
43 80 1
43 123 2
43 128 1
43 133 1
43 148 3
43 150 2
43 160 1
43 284 1
43 304 3
44 4 1
44 22 1
44 25 2
44 29 2
44 31 1
44 39 1
44 41 1
44 45 1
44 49 1
44 54 1
44 62 2
44 79 2
44 121 1
44 124 2
44 129 1
44 134 1
44 149 3
44 151 2
44 285 1
44 305 3
45 5 1
45 23 1
45 26 2
45 30 2
45 32 1
45 40 1
45 42 1
45 46 1
45 50 1
45 55 1
45 63 2
45 80 2
45 122 1
45 125 2
45 130 1
45 135 1
45 150 3
45 152 2
45 286 1
45 306 3
46 1 1
46 6 1
46 24 1
46 27 2
46 31 2
46 33 1
46 41 2
46 43 1
46 47 1
46 51 1
46 56 1
46 64 2
46 123 1
46 126 2
46 131 1
46 136 1
46 151 3
46 153 2
46 287 1
46 307 3
47 2 1
47 7 1
47 25 1
47 28 2
47 32 2
47 34 1
47 42 2
47 44 1
47 48 1
47 52 1
47 57 1
47 65 2
47 124 1
47 127 2
47 132 1
47 137 1
47 152 3
47 154 2
47 288 1
47 308 3
48 3 1
48 8 1
48 26 1
48 29 2
48 33 2
48 35 1
48 43 2
48 45 1
48 49 1
48 53 1
48 58 1
48 66 2
48 125 1
48 128 2
48 133 1
48 138 1
48 153 3
48 155 2
48 289 1
48 309 3
49 4 1
49 9 1
49 27 1
49 30 2
49 34 2
49 36 1
49 44 2
49 46 1
49 50 1
49 54 1
49 59 1
49 67 2
49 126 1
49 129 2
49 134 1
49 139 1
49 154 3
49 156 2
49 290 1
49 310 3
50 5 1
50 10 1
50 28 1
50 31 2
50 35 2
50 37 1
50 45 2
50 47 1
50 51 1
50 55 1
50 60 1
50 68 2
50 127 1
50 130 2
50 135 1
50 140 1
50 155 3
50 157 2
50 291 1
50 311 3
51 6 1
51 11 1
51 29 1
51 32 2
51 36 2
51 38 1
51 46 2
51 48 1
51 52 1
51 56 1
51 61 1
51 69 2
51 128 1
51 131 2
51 136 1
51 141 1
51 156 3
51 158 2
51 292 1
51 312 3
52 7 1
52 12 1
52 30 1
52 33 2
52 37 2
52 39 1
52 47 2
52 49 1
52 53 1
52 57 1
52 62 1
52 70 2
52 129 1
52 132 2
52 137 1
52 142 1
52 157 3
52 159 2
52 293 1
52 313 3
53 8 1
53 13 1
53 31 1
53 34 2
53 38 2
53 40 1
53 48 2
53 50 1
53 54 1
53 58 1
53 63 1
53 71 2
53 130 1
53 133 2
53 138 1
53 143 1
53 158 3
53 160 2
53 294 1
53 314 3
54 1 1
54 9 1
54 14 1
54 32 1
54 35 2
54 39 2
54 49 2
54 51 1
54 55 1
54 59 1
54 64 1
54 72 2
54 121 2
54 131 1
54 134 2
54 139 1
54 144 1
54 159 3
54 295 1
54 315 3
55 2 1
55 10 1
55 15 1
55 33 1
55 36 2
55 40 2
55 50 2
55 52 1
55 56 1
55 60 1
55 65 1
55 73 2
55 122 2
55 132 1
55 135 2
55 140 1
55 145 1
55 160 3
55 296 1
55 316 3
56 1 2
56 3 1
56 11 1
56 16 1
56 34 1
56 37 2
56 51 2
56 53 1
56 57 1
56 61 1
56 66 1
56 74 2
56 121 3
56 123 2
56 133 1
56 136 2
56 141 1
56 146 1
56 297 1
56 317 3
57 2 2
57 4 1
57 12 1
57 17 1
57 35 1
57 38 2
57 52 2
57 54 1
57 58 1
57 62 1
57 67 1
57 75 2
57 122 3
57 124 2
57 134 1
57 137 2
57 142 1
57 147 1
57 298 1
57 318 3
58 3 2
58 5 1
58 13 1
58 18 1
58 36 1
58 39 2
58 53 2
58 55 1
58 59 1
58 63 1
58 68 1
58 76 2
58 123 3
58 125 2
58 135 1
58 138 2
58 143 1
58 148 1
58 299 1
58 319 3
59 4 2
59 6 1
59 14 1
59 19 1
59 37 1
59 40 2
59 54 2
59 56 1
59 60 1
59 64 1
59 69 1
59 77 2
59 124 3
59 126 2
59 136 1
59 139 2
59 144 1
59 149 1
59 300 1
59 320 3
60 1 2
60 5 2
60 7 1
60 15 1
60 20 1
60 38 1
60 55 2
60 57 1
60 61 1
60 65 1
60 70 1
60 78 2
60 125 3
60 127 2
60 137 1
60 140 2
60 145 1
60 150 1
60 281 3
60 301 1
61 2 2
61 6 2
61 8 1
61 16 1
61 21 1
61 39 1
61 56 2
61 58 1
61 62 1
61 66 1
61 71 1
61 79 2
61 126 3
61 128 2
61 138 1
61 141 2
61 146 1
61 151 1
61 282 3
61 302 1
62 3 2
62 7 2
62 9 1
62 17 1
62 22 1
62 40 1
62 57 2
62 59 1
62 63 1
62 67 1
62 72 1
62 80 2
62 127 3
62 129 2
62 139 1
62 142 2
62 147 1
62 152 1
62 283 3
62 303 1
63 1 1
63 4 2
63 8 2
63 10 1
63 18 1
63 23 1
63 41 2
63 58 2
63 60 1
63 64 1
63 68 1
63 73 1
63 128 3
63 130 2
63 140 1
63 143 2
63 148 1
63 153 1
63 284 3
63 304 1
64 2 1
64 5 2
64 9 2
64 11 1
64 19 1
64 24 1
64 42 2
64 59 2
64 61 1
64 65 1
64 69 1
64 74 1
64 129 3
64 131 2
64 141 1
64 144 2
64 149 1
64 154 1
64 285 3
64 305 1
65 3 1
65 6 2
65 10 2
65 12 1
65 20 1
65 25 1
65 43 2
65 60 2
65 62 1
65 66 1
65 70 1
65 75 1
65 130 3
65 132 2
65 142 1
65 145 2
65 150 1
65 155 1
65 286 3
65 306 1
66 4 1
66 7 2
66 11 2
66 13 1
66 21 1
66 26 1
66 44 2
66 61 2
66 63 1
66 67 1
66 71 1
66 76 1
66 131 3
66 133 2
66 143 1
66 146 2
66 151 1
66 156 1
66 287 3
66 307 1
67 5 1
67 8 2
67 12 2
67 14 1
67 22 1
67 27 1
67 45 2
67 62 2
67 64 1
67 68 1
67 72 1
67 77 1
67 132 3
67 134 2
67 144 1
67 147 2
67 152 1
67 157 1
67 288 3
67 308 1
68 6 1
68 9 2
68 13 2
68 15 1
68 23 1
68 28 1
68 46 2
68 63 2
68 65 1
68 69 1
68 73 1
68 78 1
68 133 3
68 135 2
68 145 1
68 148 2
68 153 1
68 158 1
68 289 3
68 309 1
69 7 1
69 10 2
69 14 2
69 16 1
69 24 1
69 29 1
69 47 2
69 64 2
69 66 1
69 70 1
69 74 1
69 79 1
69 134 3
69 136 2
69 146 1
69 149 2
69 154 1
69 159 1
69 290 3
69 310 1
70 8 1
70 11 2
70 15 2
70 17 1
70 25 1
70 30 1
70 48 2
70 65 2
70 67 1
70 71 1
70 75 1
70 80 1
70 135 3
70 137 2
70 147 1
70 150 2
70 155 1
70 160 1
70 291 3
70 311 1
71 9 1
71 12 2
71 16 2
71 18 1
71 26 1
71 31 1
71 41 1
71 49 2
71 66 2
71 68 1
71 72 1
71 76 1
71 121 1
71 136 3
71 138 2
71 148 1
71 151 2
71 156 1
71 292 3
71 312 1
72 10 1
72 13 2
72 17 2
72 19 1
72 27 1
72 32 1
72 42 1
72 50 2
72 67 2
72 69 1
72 73 1
72 77 1
72 122 1
72 137 3
72 139 2
72 149 1
72 152 2
72 157 1
72 293 3
72 313 1
73 11 1
73 14 2
73 18 2
73 20 1
73 28 1
73 33 1
73 43 1
73 51 2
73 68 2
73 70 1
73 74 1
73 78 1
73 123 1
73 138 3
73 140 2
73 150 1
73 153 2
73 158 1
73 294 3
73 314 1
74 12 1
74 15 2
74 19 2
74 21 1
74 29 1
74 34 1
74 44 1
74 52 2
74 69 2
74 71 1
74 75 1
74 79 1
74 124 1
74 139 3
74 141 2
74 151 1
74 154 2
74 159 1
74 295 3
74 315 1
75 13 1
75 16 2
75 20 2
75 22 1
75 30 1
75 35 1
75 45 1
75 53 2
75 70 2
75 72 1
75 76 1
75 80 1
75 125 1
75 140 3
75 142 2
75 152 1
75 155 2
75 160 1
75 296 3
75 316 1
76 14 1
76 17 2
76 21 2
76 23 1
76 31 1
76 36 1
76 41 1
76 46 1
76 54 2
76 71 2
76 73 1
76 77 1
76 121 1
76 126 1
76 141 3
76 143 2
76 153 1
76 156 2
76 297 3
76 317 1
77 15 1
77 18 2
77 22 2
77 24 1
77 32 1
77 37 1
77 42 1
77 47 1
77 55 2
77 72 2
77 74 1
77 78 1
77 122 1
77 127 1
77 142 3
77 144 2
77 154 1
77 157 2
77 298 3
77 318 1
78 16 1
78 19 2
78 23 2
78 25 1
78 33 1
78 38 1
78 43 1
78 48 1
78 56 2
78 73 2
78 75 1
78 79 1
78 123 1
78 128 1
78 143 3
78 145 2
78 155 1
78 158 2
78 299 3
78 319 1
79 17 1
79 20 2
79 24 2
79 26 1
79 34 1
79 39 1
79 44 1
79 49 1
79 57 2
79 74 2
79 76 1
79 80 1
79 124 1
79 129 1
79 144 3
79 146 2
79 156 1
79 159 2
79 300 3
79 320 1
80 18 1
80 21 2
80 25 2
80 27 1
80 35 1
80 40 1
80 41 1
80 45 1
80 50 1
80 58 2
80 75 2
80 77 1
80 125 1
80 130 1
80 145 3
80 147 2
80 157 1
80 160 2
80 281 1
80 301 3
