%%MatrixMarket matrix coordinate integer general
% Binary matrix over GF(2).
% Coordinate indices are 1-based; omitted entries are zero.
156 416 1326
1 2 1
1 53 1
1 105 1
1 157 1
1 209 1
1 261 1
1 313 1
1 365 1
2 1 1
2 2 1
2 54 1
2 106 1
2 158 1
2 210 1
2 262 1
2 314 1
2 366 1
3 4 1
3 55 1
3 107 1
3 159 1
3 211 1
3 263 1
3 315 1
3 367 1
4 3 1
4 4 1
4 56 1
4 108 1
4 160 1
4 212 1
4 264 1
4 316 1
4 368 1
5 6 1
5 57 1
5 109 1
5 161 1
5 213 1
5 265 1
5 317 1
5 369 1
6 5 1
6 6 1
6 58 1
6 110 1
6 162 1
6 214 1
6 266 1
6 318 1
6 370 1
7 8 1
7 59 1
7 111 1
7 163 1
7 215 1
7 267 1
7 319 1
7 371 1
8 7 1
8 8 1
8 60 1
8 112 1
8 164 1
8 216 1
8 268 1
8 320 1
8 372 1
9 10 1
9 61 1
9 113 1
9 165 1
9 217 1
9 269 1
9 321 1
9 373 1
10 9 1
10 10 1
10 62 1
10 114 1
10 166 1
10 218 1
10 270 1
10 322 1
10 374 1
11 12 1
11 63 1
11 115 1
11 167 1
11 219 1
11 271 1
11 323 1
11 375 1
12 11 1
12 12 1
12 64 1
12 116 1
12 168 1
12 220 1
12 272 1
12 324 1
12 376 1
13 14 1
13 65 1
13 117 1
13 169 1
13 221 1
13 273 1
13 325 1
13 377 1
14 13 1
14 14 1
14 66 1
14 118 1
14 170 1
14 222 1
14 274 1
14 326 1
14 378 1
15 16 1
15 67 1
15 119 1
15 171 1
15 223 1
15 275 1
15 327 1
15 379 1
16 15 1
16 16 1
16 68 1
16 120 1
16 172 1
16 224 1
16 276 1
16 328 1
16 380 1
17 18 1
17 69 1
17 121 1
17 173 1
17 225 1
17 277 1
17 329 1
17 381 1
18 17 1
18 18 1
18 70 1
18 122 1
18 174 1
18 226 1
18 278 1
18 330 1
18 382 1
19 20 1
19 71 1
19 123 1
19 175 1
19 227 1
19 279 1
19 331 1
19 383 1
20 19 1
20 20 1
20 72 1
20 124 1
20 176 1
20 228 1
20 280 1
20 332 1
20 384 1
21 22 1
21 73 1
21 125 1
21 177 1
21 229 1
21 281 1
21 333 1
21 385 1
22 21 1
22 22 1
22 74 1
22 126 1
22 178 1
22 230 1
22 282 1
22 334 1
22 386 1
23 24 1
23 75 1
23 127 1
23 179 1
23 231 1
23 283 1
23 335 1
23 387 1
24 23 1
24 24 1
24 76 1
24 128 1
24 180 1
24 232 1
24 284 1
24 336 1
24 388 1
25 26 1
25 77 1
25 129 1
25 181 1
25 233 1
25 285 1
25 337 1
25 389 1
26 25 1
26 26 1
26 78 1
26 130 1
26 182 1
26 234 1
26 286 1
26 338 1
26 390 1
27 28 1
27 79 1
27 131 1
27 183 1
27 235 1
27 287 1
27 339 1
27 391 1
28 27 1
28 28 1
28 80 1
28 132 1
28 184 1
28 236 1
28 288 1
28 340 1
28 392 1
29 30 1
29 81 1
29 133 1
29 185 1
29 237 1
29 289 1
29 341 1
29 393 1
30 29 1
30 30 1
30 82 1
30 134 1
30 186 1
30 238 1
30 290 1
30 342 1
30 394 1
31 32 1
31 83 1
31 135 1
31 187 1
31 239 1
31 291 1
31 343 1
31 395 1
32 31 1
32 32 1
32 84 1
32 136 1
32 188 1
32 240 1
32 292 1
32 344 1
32 396 1
33 34 1
33 85 1
33 137 1
33 189 1
33 241 1
33 293 1
33 345 1
33 397 1
34 33 1
34 34 1
34 86 1
34 138 1
34 190 1
34 242 1
34 294 1
34 346 1
34 398 1
35 36 1
35 87 1
35 139 1
35 191 1
35 243 1
35 295 1
35 347 1
35 399 1
36 35 1
36 36 1
36 88 1
36 140 1
36 192 1
36 244 1
36 296 1
36 348 1
36 400 1
37 38 1
37 89 1
37 141 1
37 193 1
37 245 1
37 297 1
37 349 1
37 401 1
38 37 1
38 38 1
38 90 1
38 142 1
38 194 1
38 246 1
38 298 1
38 350 1
38 402 1
39 40 1
39 91 1
39 143 1
39 195 1
39 247 1
39 299 1
39 351 1
39 403 1
40 39 1
40 40 1
40 92 1
40 144 1
40 196 1
40 248 1
40 300 1
40 352 1
40 404 1
41 42 1
41 93 1
41 145 1
41 197 1
41 249 1
41 301 1
41 353 1
41 405 1
42 41 1
42 42 1
42 94 1
42 146 1
42 198 1
42 250 1
42 302 1
42 354 1
42 406 1
43 44 1
43 95 1
43 147 1
43 199 1
43 251 1
43 303 1
43 355 1
43 407 1
44 43 1
44 44 1
44 96 1
44 148 1
44 200 1
44 252 1
44 304 1
44 356 1
44 408 1
45 46 1
45 97 1
45 149 1
45 201 1
45 253 1
45 305 1
45 357 1
45 409 1
46 45 1
46 46 1
46 98 1
46 150 1
46 202 1
46 254 1
46 306 1
46 358 1
46 410 1
47 48 1
47 99 1
47 151 1
47 203 1
47 255 1
47 307 1
47 359 1
47 411 1
48 47 1
48 48 1
48 100 1
48 152 1
48 204 1
48 256 1
48 308 1
48 360 1
48 412 1
49 50 1
49 101 1
49 153 1
49 205 1
49 257 1
49 309 1
49 361 1
49 413 1
50 49 1
50 50 1
50 102 1
50 154 1
50 206 1
50 258 1
50 310 1
50 362 1
50 414 1
51 52 1
51 103 1
51 155 1
51 207 1
51 259 1
51 311 1
51 363 1
51 415 1
52 51 1
52 52 1
52 104 1
52 156 1
52 208 1
52 260 1
52 312 1
52 364 1
52 416 1
53 1 1
53 80 1
53 155 1
53 205 1
53 215 1
53 289 1
53 335 1
53 381 1
54 2 1
54 79 1
54 80 1
54 156 1
54 206 1
54 216 1
54 290 1
54 336 1
54 382 1
55 3 1
55 82 1
55 105 1
55 207 1
55 217 1
55 291 1
55 337 1
55 383 1
56 4 1
56 81 1
56 82 1
56 106 1
56 208 1
56 218 1
56 292 1
56 338 1
56 384 1
57 5 1
57 84 1
57 107 1
57 157 1
57 219 1
57 293 1
57 339 1
57 385 1
58 6 1
58 83 1
58 84 1
58 108 1
58 158 1
58 220 1
58 294 1
58 340 1
58 386 1
59 7 1
59 86 1
59 109 1
59 159 1
59 221 1
59 295 1
59 341 1
59 387 1
60 8 1
60 85 1
60 86 1
60 110 1
60 160 1
60 222 1
60 296 1
60 342 1
60 388 1
61 9 1
61 88 1
61 111 1
61 161 1
61 223 1
61 297 1
61 343 1
61 389 1
62 10 1
62 87 1
62 88 1
62 112 1
62 162 1
62 224 1
62 298 1
62 344 1
62 390 1
63 11 1
63 90 1
63 113 1
63 163 1
63 225 1
63 299 1
63 345 1
63 391 1
64 12 1
64 89 1
64 90 1
64 114 1
64 164 1
64 226 1
64 300 1
64 346 1
64 392 1
65 13 1
65 92 1
65 115 1
65 165 1
65 227 1
65 301 1
65 347 1
65 393 1
66 14 1
66 91 1
66 92 1
66 116 1
66 166 1
66 228 1
66 302 1
66 348 1
66 394 1
67 15 1
67 94 1
67 117 1
67 167 1
67 229 1
67 303 1
67 349 1
67 395 1
68 16 1
68 93 1
68 94 1
68 118 1
68 168 1
68 230 1
68 304 1
68 350 1
68 396 1
69 17 1
69 96 1
69 119 1
69 169 1
69 231 1
69 305 1
69 351 1
69 397 1
70 18 1
70 95 1
70 96 1
70 120 1
70 170 1
70 232 1
70 306 1
70 352 1
70 398 1
71 19 1
71 98 1
71 121 1
71 171 1
71 233 1
71 307 1
71 353 1
71 399 1
72 20 1
72 97 1
72 98 1
72 122 1
72 172 1
72 234 1
72 308 1
72 354 1
72 400 1
73 21 1
73 100 1
73 123 1
73 173 1
73 235 1
73 309 1
73 355 1
73 401 1
74 22 1
74 99 1
74 100 1
74 124 1
74 174 1
74 236 1
74 310 1
74 356 1
74 402 1
75 23 1
75 102 1
75 125 1
75 175 1
75 237 1
75 311 1
75 357 1
75 403 1
76 24 1
76 101 1
76 102 1
76 126 1
76 176 1
76 238 1
76 312 1
76 358 1
76 404 1
77 25 1
77 104 1
77 127 1
77 177 1
77 239 1
77 261 1
77 359 1
77 405 1
78 26 1
78 103 1
78 104 1
78 128 1
78 178 1
78 240 1
78 262 1
78 360 1
78 406 1
79 27 1
79 54 1
79 129 1
79 179 1
79 241 1
79 263 1
79 361 1
79 407 1
80 28 1
80 53 1
80 54 1
80 130 1
80 180 1
80 242 1
80 264 1
80 362 1
80 408 1
81 29 1
81 56 1
81 131 1
81 181 1
81 243 1
81 265 1
81 363 1
81 409 1
82 30 1
82 55 1
82 56 1
82 132 1
82 182 1
82 244 1
82 266 1
82 364 1
82 410 1
83 31 1
83 58 1
83 133 1
83 183 1
83 245 1
83 267 1
83 313 1
83 411 1
84 32 1
84 57 1
84 58 1
84 134 1
84 184 1
84 246 1
84 268 1
84 314 1
84 412 1
85 33 1
85 60 1
85 135 1
85 185 1
85 247 1
85 269 1
85 315 1
85 413 1
86 34 1
86 59 1
86 60 1
86 136 1
86 186 1
86 248 1
86 270 1
86 316 1
86 414 1
87 35 1
87 62 1
87 137 1
87 187 1
87 249 1
87 271 1
87 317 1
87 415 1
88 36 1
88 61 1
88 62 1
88 138 1
88 188 1
88 250 1
88 272 1
88 318 1
88 416 1
89 37 1
89 64 1
89 139 1
89 189 1
89 251 1
89 273 1
89 319 1
89 365 1
90 38 1
90 63 1
90 64 1
90 140 1
90 190 1
90 252 1
90 274 1
90 320 1
90 366 1
91 39 1
91 66 1
91 141 1
91 191 1
91 253 1
91 275 1
91 321 1
91 367 1
92 40 1
92 65 1
92 66 1
92 142 1
92 192 1
92 254 1
92 276 1
92 322 1
92 368 1
93 41 1
93 68 1
93 143 1
93 193 1
93 255 1
93 277 1
93 323 1
93 369 1
94 42 1
94 67 1
94 68 1
94 144 1
94 194 1
94 256 1
94 278 1
94 324 1
94 370 1
95 43 1
95 70 1
95 145 1
95 195 1
95 257 1
95 279 1
95 325 1
95 371 1
96 44 1
96 69 1
96 70 1
96 146 1
96 196 1
96 258 1
96 280 1
96 326 1
96 372 1
97 45 1
97 72 1
97 147 1
97 197 1
97 259 1
97 281 1
97 327 1
97 373 1
98 46 1
98 71 1
98 72 1
98 148 1
98 198 1
98 260 1
98 282 1
98 328 1
98 374 1
99 47 1
99 74 1
99 149 1
99 199 1
99 209 1
99 283 1
99 329 1
99 375 1
100 48 1
100 73 1
100 74 1
100 150 1
100 200 1
100 210 1
100 284 1
100 330 1
100 376 1
101 49 1
101 76 1
101 151 1
101 201 1
101 211 1
101 285 1
101 331 1
101 377 1
102 50 1
102 75 1
102 76 1
102 152 1
102 202 1
102 212 1
102 286 1
102 332 1
102 378 1
103 51 1
103 78 1
103 153 1
103 203 1
103 213 1
103 287 1
103 333 1
103 379 1
104 52 1
104 77 1
104 78 1
104 154 1
104 204 1
104 214 1
104 288 1
104 334 1
104 380 1
105 1 1
105 75 1
105 126 1
105 173 1
105 253 1
105 291 1
105 359 1
105 407 1
106 2 1
106 76 1
106 125 1
106 126 1
106 174 1
106 254 1
106 292 1
106 360 1
106 408 1
107 3 1
107 77 1
107 128 1
107 175 1
107 255 1
107 293 1
107 361 1
107 409 1
108 4 1
108 78 1
108 127 1
108 128 1
108 176 1
108 256 1
108 294 1
108 362 1
108 410 1
109 5 1
109 79 1
109 130 1
109 177 1
109 257 1
109 295 1
109 363 1
109 411 1
110 6 1
110 80 1
110 129 1
110 130 1
110 178 1
110 258 1
110 296 1
110 364 1
110 412 1
111 7 1
111 81 1
111 132 1
111 179 1
111 259 1
111 297 1
111 313 1
111 413 1
112 8 1
112 82 1
112 131 1
112 132 1
112 180 1
112 260 1
112 298 1
112 314 1
112 414 1
113 9 1
113 83 1
113 134 1
113 181 1
113 209 1
113 299 1
113 315 1
113 415 1
114 10 1
114 84 1
114 133 1
114 134 1
114 182 1
114 210 1
114 300 1
114 316 1
114 416 1
115 11 1
115 85 1
115 136 1
115 183 1
115 211 1
115 301 1
115 317 1
115 365 1
116 12 1
116 86 1
116 135 1
116 136 1
116 184 1
116 212 1
116 302 1
116 318 1
116 366 1
117 13 1
117 87 1
117 138 1
117 185 1
117 213 1
117 303 1
117 319 1
117 367 1
118 14 1
118 88 1
118 137 1
118 138 1
118 186 1
118 214 1
118 304 1
118 320 1
118 368 1
119 15 1
119 89 1
119 140 1
119 187 1
119 215 1
119 305 1
119 321 1
119 369 1
120 16 1
120 90 1
120 139 1
120 140 1
120 188 1
120 216 1
120 306 1
120 322 1
120 370 1
121 17 1
121 91 1
121 142 1
121 189 1
121 217 1
121 307 1
121 323 1
121 371 1
122 18 1
122 92 1
122 141 1
122 142 1
122 190 1
122 218 1
122 308 1
122 324 1
122 372 1
123 19 1
123 93 1
123 144 1
123 191 1
123 219 1
123 309 1
123 325 1
123 373 1
124 20 1
124 94 1
124 143 1
124 144 1
124 192 1
124 220 1
124 310 1
124 326 1
124 374 1
125 21 1
125 95 1
125 146 1
125 193 1
125 221 1
125 311 1
125 327 1
125 375 1
126 22 1
126 96 1
126 145 1
126 146 1
126 194 1
126 222 1
126 312 1
126 328 1
126 376 1
127 23 1
127 97 1
127 148 1
127 195 1
127 223 1
127 261 1
127 329 1
127 377 1
128 24 1
128 98 1
128 147 1
128 148 1
128 196 1
128 224 1
128 262 1
128 330 1
128 378 1
129 25 1
129 99 1
129 150 1
129 197 1
129 225 1
129 263 1
129 331 1
129 379 1
130 26 1
130 100 1
130 149 1
130 150 1
130 198 1
130 226 1
130 264 1
130 332 1
130 380 1
131 27 1
131 101 1
131 152 1
131 199 1
131 227 1
131 265 1
131 333 1
131 381 1
132 28 1
132 102 1
132 151 1
132 152 1
132 200 1
132 228 1
132 266 1
132 334 1
132 382 1
133 29 1
133 103 1
133 154 1
133 201 1
133 229 1
133 267 1
133 335 1
133 383 1
134 30 1
134 104 1
134 153 1
134 154 1
134 202 1
134 230 1
134 268 1
134 336 1
134 384 1
135 31 1
135 53 1
135 156 1
135 203 1
135 231 1
135 269 1
135 337 1
135 385 1
136 32 1
136 54 1
136 155 1
136 156 1
136 204 1
136 232 1
136 270 1
136 338 1
136 386 1
137 33 1
137 55 1
137 106 1
137 205 1
137 233 1
137 271 1
137 339 1
137 387 1
138 34 1
138 56 1
138 105 1
138 106 1
138 206 1
138 234 1
138 272 1
138 340 1
138 388 1
139 35 1
139 57 1
139 108 1
139 207 1
139 235 1
139 273 1
139 341 1
139 389 1
140 36 1
140 58 1
140 107 1
140 108 1
140 208 1
140 236 1
140 274 1
140 342 1
140 390 1
141 37 1
141 59 1
141 110 1
141 157 1
141 237 1
141 275 1
141 343 1
141 391 1
142 38 1
142 60 1
142 109 1
142 110 1
142 158 1
142 238 1
142 276 1
142 344 1
142 392 1
143 39 1
143 61 1
143 112 1
143 159 1
143 239 1
143 277 1
143 345 1
143 393 1
144 40 1
144 62 1
144 111 1
144 112 1
144 160 1
144 240 1
144 278 1
144 346 1
144 394 1
145 41 1
145 63 1
145 114 1
145 161 1
145 241 1
145 279 1
145 347 1
145 395 1
146 42 1
146 64 1
146 113 1
146 114 1
146 162 1
146 242 1
146 280 1
146 348 1
146 396 1
147 43 1
147 65 1
147 116 1
147 163 1
147 243 1
147 281 1
147 349 1
147 397 1
148 44 1
148 66 1
148 115 1
148 116 1
148 164 1
148 244 1
148 282 1
148 350 1
148 398 1
149 45 1
149 67 1
149 118 1
149 165 1
149 245 1
149 283 1
149 351 1
149 399 1
150 46 1
150 68 1
150 117 1
150 118 1
150 166 1
150 246 1
150 284 1
150 352 1
150 400 1
151 47 1
151 69 1
151 120 1
151 167 1
151 247 1
151 285 1
151 353 1
151 401 1
152 48 1
152 70 1
152 119 1
152 120 1
152 168 1
152 248 1
152 286 1
152 354 1
152 402 1
153 49 1
153 71 1
153 122 1
153 169 1
153 249 1
153 287 1
153 355 1
153 403 1
154 50 1
154 72 1
154 121 1
154 122 1
154 170 1
154 250 1
154 288 1
154 356 1
154 404 1
155 51 1
155 73 1
155 124 1
155 171 1
155 251 1
155 289 1
155 357 1
155 405 1
156 52 1
156 74 1
156 123 1
156 124 1
156 172 1
156 252 1
156 290 1
156 358 1
156 406 1
