%%MatrixMarket matrix coordinate integer general
% GF(4) labels 0,1,2=omega,3=omega+1; arithmetic is NOT integer arithmetic.
% Coordinate indices are 1-based; omitted entries are zero.
78 208 624
1 1 2
1 27 1
1 53 1
1 79 1
1 105 1
1 131 1
1 157 1
1 183 1
2 2 2
2 28 1
2 54 1
2 80 1
2 106 1
2 132 1
2 158 1
2 184 1
3 3 2
3 29 1
3 55 1
3 81 1
3 107 1
3 133 1
3 159 1
3 185 1
4 4 2
4 30 1
4 56 1
4 82 1
4 108 1
4 134 1
4 160 1
4 186 1
5 5 2
5 31 1
5 57 1
5 83 1
5 109 1
5 135 1
5 161 1
5 187 1
6 6 2
6 32 1
6 58 1
6 84 1
6 110 1
6 136 1
6 162 1
6 188 1
7 7 2
7 33 1
7 59 1
7 85 1
7 111 1
7 137 1
7 163 1
7 189 1
8 8 2
8 34 1
8 60 1
8 86 1
8 112 1
8 138 1
8 164 1
8 190 1
9 9 2
9 35 1
9 61 1
9 87 1
9 113 1
9 139 1
9 165 1
9 191 1
10 10 2
10 36 1
10 62 1
10 88 1
10 114 1
10 140 1
10 166 1
10 192 1
11 11 2
11 37 1
11 63 1
11 89 1
11 115 1
11 141 1
11 167 1
11 193 1
12 12 2
12 38 1
12 64 1
12 90 1
12 116 1
12 142 1
12 168 1
12 194 1
13 13 2
13 39 1
13 65 1
13 91 1
13 117 1
13 143 1
13 169 1
13 195 1
14 14 2
14 40 1
14 66 1
14 92 1
14 118 1
14 144 1
14 170 1
14 196 1
15 15 2
15 41 1
15 67 1
15 93 1
15 119 1
15 145 1
15 171 1
15 197 1
16 16 2
16 42 1
16 68 1
16 94 1
16 120 1
16 146 1
16 172 1
16 198 1
17 17 2
17 43 1
17 69 1
17 95 1
17 121 1
17 147 1
17 173 1
17 199 1
18 18 2
18 44 1
18 70 1
18 96 1
18 122 1
18 148 1
18 174 1
18 200 1
19 19 2
19 45 1
19 71 1
19 97 1
19 123 1
19 149 1
19 175 1
19 201 1
20 20 2
20 46 1
20 72 1
20 98 1
20 124 1
20 150 1
20 176 1
20 202 1
21 21 2
21 47 1
21 73 1
21 99 1
21 125 1
21 151 1
21 177 1
21 203 1
22 22 2
22 48 1
22 74 1
22 100 1
22 126 1
22 152 1
22 178 1
22 204 1
23 23 2
23 49 1
23 75 1
23 101 1
23 127 1
23 153 1
23 179 1
23 205 1
24 24 2
24 50 1
24 76 1
24 102 1
24 128 1
24 154 1
24 180 1
24 206 1
25 25 2
25 51 1
25 77 1
25 103 1
25 129 1
25 155 1
25 181 1
25 207 1
26 26 2
26 52 1
26 78 1
26 104 1
26 130 1
26 156 1
26 182 1
26 208 1
27 1 1
27 40 2
27 78 1
27 103 1
27 108 1
27 145 1
27 168 1
27 191 1
28 2 1
28 41 2
28 53 1
28 104 1
28 109 1
28 146 1
28 169 1
28 192 1
29 3 1
29 42 2
29 54 1
29 79 1
29 110 1
29 147 1
29 170 1
29 193 1
30 4 1
30 43 2
30 55 1
30 80 1
30 111 1
30 148 1
30 171 1
30 194 1
31 5 1
31 44 2
31 56 1
31 81 1
31 112 1
31 149 1
31 172 1
31 195 1
32 6 1
32 45 2
32 57 1
32 82 1
32 113 1
32 150 1
32 173 1
32 196 1
33 7 1
33 46 2
33 58 1
33 83 1
33 114 1
33 151 1
33 174 1
33 197 1
34 8 1
34 47 2
34 59 1
34 84 1
34 115 1
34 152 1
34 175 1
34 198 1
35 9 1
35 48 2
35 60 1
35 85 1
35 116 1
35 153 1
35 176 1
35 199 1
36 10 1
36 49 2
36 61 1
36 86 1
36 117 1
36 154 1
36 177 1
36 200 1
37 11 1
37 50 2
37 62 1
37 87 1
37 118 1
37 155 1
37 178 1
37 201 1
38 12 1
38 51 2
38 63 1
38 88 1
38 119 1
38 156 1
38 179 1
38 202 1
39 13 1
39 52 2
39 64 1
39 89 1
39 120 1
39 131 1
39 180 1
39 203 1
40 14 1
40 27 2
40 65 1
40 90 1
40 121 1
40 132 1
40 181 1
40 204 1
41 15 1
41 28 2
41 66 1
41 91 1
41 122 1
41 133 1
41 182 1
41 205 1
42 16 1
42 29 2
42 67 1
42 92 1
42 123 1
42 134 1
42 157 1
42 206 1
43 17 1
43 30 2
43 68 1
43 93 1
43 124 1
43 135 1
43 158 1
43 207 1
44 18 1
44 31 2
44 69 1
44 94 1
44 125 1
44 136 1
44 159 1
44 208 1
45 19 1
45 32 2
45 70 1
45 95 1
45 126 1
45 137 1
45 160 1
45 183 1
46 20 1
46 33 2
46 71 1
46 96 1
46 127 1
46 138 1
46 161 1
46 184 1
47 21 1
47 34 2
47 72 1
47 97 1
47 128 1
47 139 1
47 162 1
47 185 1
48 22 1
48 35 2
48 73 1
48 98 1
48 129 1
48 140 1
48 163 1
48 186 1
49 23 1
49 36 2
49 74 1
49 99 1
49 130 1
49 141 1
49 164 1
49 187 1
50 24 1
50 37 2
50 75 1
50 100 1
50 105 1
50 142 1
50 165 1
50 188 1
51 25 1
51 38 2
51 76 1
51 101 1
51 106 1
51 143 1
51 166 1
51 189 1
52 26 1
52 39 2
52 77 1
52 102 1
52 107 1
52 144 1
52 167 1
52 190 1
53 1 1
53 38 1
53 63 2
53 87 1
53 127 1
53 146 1
53 180 1
53 204 1
54 2 1
54 39 1
54 64 2
54 88 1
54 128 1
54 147 1
54 181 1
54 205 1
55 3 1
55 40 1
55 65 2
55 89 1
55 129 1
55 148 1
55 182 1
55 206 1
56 4 1
56 41 1
56 66 2
56 90 1
56 130 1
56 149 1
56 157 1
56 207 1
57 5 1
57 42 1
57 67 2
57 91 1
57 105 1
57 150 1
57 158 1
57 208 1
58 6 1
58 43 1
58 68 2
58 92 1
58 106 1
58 151 1
58 159 1
58 183 1
59 7 1
59 44 1
59 69 2
59 93 1
59 107 1
59 152 1
59 160 1
59 184 1
60 8 1
60 45 1
60 70 2
60 94 1
60 108 1
60 153 1
60 161 1
60 185 1
61 9 1
61 46 1
61 71 2
61 95 1
61 109 1
61 154 1
61 162 1
61 186 1
62 10 1
62 47 1
62 72 2
62 96 1
62 110 1
62 155 1
62 163 1
62 187 1
63 11 1
63 48 1
63 73 2
63 97 1
63 111 1
63 156 1
63 164 1
63 188 1
64 12 1
64 49 1
64 74 2
64 98 1
64 112 1
64 131 1
64 165 1
64 189 1
65 13 1
65 50 1
65 75 2
65 99 1
65 113 1
65 132 1
65 166 1
65 190 1
66 14 1
66 51 1
66 76 2
66 100 1
66 114 1
66 133 1
66 167 1
66 191 1
67 15 1
67 52 1
67 77 2
67 101 1
67 115 1
67 134 1
67 168 1
67 192 1
68 16 1
68 27 1
68 78 2
68 102 1
68 116 1
68 135 1
68 169 1
68 193 1
69 17 1
69 28 1
69 53 2
69 103 1
69 117 1
69 136 1
69 170 1
69 194 1
70 18 1
70 29 1
70 54 2
70 104 1
70 118 1
70 137 1
70 171 1
70 195 1
71 19 1
71 30 1
71 55 2
71 79 1
71 119 1
71 138 1
71 172 1
71 196 1
72 20 1
72 31 1
72 56 2
72 80 1
72 120 1
72 139 1
72 173 1
72 197 1
73 21 1
73 32 1
73 57 2
73 81 1
73 121 1
73 140 1
73 174 1
73 198 1
74 22 1
74 33 1
74 58 2
74 82 1
74 122 1
74 141 1
74 175 1
74 199 1
75 23 1
75 34 1
75 59 2
75 83 1
75 123 1
75 142 1
75 176 1
75 200 1
76 24 1
76 35 1
76 60 2
76 84 1
76 124 1
76 143 1
76 177 1
76 201 1
77 25 1
77 36 1
77 61 2
77 85 1
77 125 1
77 144 1
77 178 1
77 202 1
78 26 1
78 37 1
78 62 2
78 86 1
78 126 1
78 145 1
78 179 1
78 203 1
