%%MatrixMarket matrix coordinate integer general
% Binary matrix over GF(2).
% Coordinate indices are 1-based; omitted entries are zero.
156 416 1326
1 1 1
1 73 1
1 133 1
1 177 1
1 210 1
1 289 1
1 359 1
1 411 1
2 2 1
2 74 1
2 134 1
2 178 1
2 209 1
2 210 1
2 290 1
2 360 1
2 412 1
3 3 1
3 75 1
3 135 1
3 179 1
3 212 1
3 291 1
3 361 1
3 413 1
4 4 1
4 76 1
4 136 1
4 180 1
4 211 1
4 212 1
4 292 1
4 362 1
4 414 1
5 5 1
5 77 1
5 137 1
5 181 1
5 214 1
5 293 1
5 363 1
5 415 1
6 6 1
6 78 1
6 138 1
6 182 1
6 213 1
6 214 1
6 294 1
6 364 1
6 416 1
7 7 1
7 79 1
7 139 1
7 183 1
7 216 1
7 295 1
7 313 1
7 365 1
8 8 1
8 80 1
8 140 1
8 184 1
8 215 1
8 216 1
8 296 1
8 314 1
8 366 1
9 9 1
9 81 1
9 141 1
9 185 1
9 218 1
9 297 1
9 315 1
9 367 1
10 10 1
10 82 1
10 142 1
10 186 1
10 217 1
10 218 1
10 298 1
10 316 1
10 368 1
11 11 1
11 83 1
11 143 1
11 187 1
11 220 1
11 299 1
11 317 1
11 369 1
12 12 1
12 84 1
12 144 1
12 188 1
12 219 1
12 220 1
12 300 1
12 318 1
12 370 1
13 13 1
13 85 1
13 145 1
13 189 1
13 222 1
13 301 1
13 319 1
13 371 1
14 14 1
14 86 1
14 146 1
14 190 1
14 221 1
14 222 1
14 302 1
14 320 1
14 372 1
15 15 1
15 87 1
15 147 1
15 191 1
15 224 1
15 303 1
15 321 1
15 373 1
16 16 1
16 88 1
16 148 1
16 192 1
16 223 1
16 224 1
16 304 1
16 322 1
16 374 1
17 17 1
17 89 1
17 149 1
17 193 1
17 226 1
17 305 1
17 323 1
17 375 1
18 18 1
18 90 1
18 150 1
18 194 1
18 225 1
18 226 1
18 306 1
18 324 1
18 376 1
19 19 1
19 91 1
19 151 1
19 195 1
19 228 1
19 307 1
19 325 1
19 377 1
20 20 1
20 92 1
20 152 1
20 196 1
20 227 1
20 228 1
20 308 1
20 326 1
20 378 1
21 21 1
21 93 1
21 153 1
21 197 1
21 230 1
21 309 1
21 327 1
21 379 1
22 22 1
22 94 1
22 154 1
22 198 1
22 229 1
22 230 1
22 310 1
22 328 1
22 380 1
23 23 1
23 95 1
23 155 1
23 199 1
23 232 1
23 311 1
23 329 1
23 381 1
24 24 1
24 96 1
24 156 1
24 200 1
24 231 1
24 232 1
24 312 1
24 330 1
24 382 1
25 25 1
25 97 1
25 105 1
25 201 1
25 234 1
25 261 1
25 331 1
25 383 1
26 26 1
26 98 1
26 106 1
26 202 1
26 233 1
26 234 1
26 262 1
26 332 1
26 384 1
27 27 1
27 99 1
27 107 1
27 203 1
27 236 1
27 263 1
27 333 1
27 385 1
28 28 1
28 100 1
28 108 1
28 204 1
28 235 1
28 236 1
28 264 1
28 334 1
28 386 1
29 29 1
29 101 1
29 109 1
29 205 1
29 238 1
29 265 1
29 335 1
29 387 1
30 30 1
30 102 1
30 110 1
30 206 1
30 237 1
30 238 1
30 266 1
30 336 1
30 388 1
31 31 1
31 103 1
31 111 1
31 207 1
31 240 1
31 267 1
31 337 1
31 389 1
32 32 1
32 104 1
32 112 1
32 208 1
32 239 1
32 240 1
32 268 1
32 338 1
32 390 1
33 33 1
33 53 1
33 113 1
33 157 1
33 242 1
33 269 1
33 339 1
33 391 1
34 34 1
34 54 1
34 114 1
34 158 1
34 241 1
34 242 1
34 270 1
34 340 1
34 392 1
35 35 1
35 55 1
35 115 1
35 159 1
35 244 1
35 271 1
35 341 1
35 393 1
36 36 1
36 56 1
36 116 1
36 160 1
36 243 1
36 244 1
36 272 1
36 342 1
36 394 1
37 37 1
37 57 1
37 117 1
37 161 1
37 246 1
37 273 1
37 343 1
37 395 1
38 38 1
38 58 1
38 118 1
38 162 1
38 245 1
38 246 1
38 274 1
38 344 1
38 396 1
39 39 1
39 59 1
39 119 1
39 163 1
39 248 1
39 275 1
39 345 1
39 397 1
40 40 1
40 60 1
40 120 1
40 164 1
40 247 1
40 248 1
40 276 1
40 346 1
40 398 1
41 41 1
41 61 1
41 121 1
41 165 1
41 250 1
41 277 1
41 347 1
41 399 1
42 42 1
42 62 1
42 122 1
42 166 1
42 249 1
42 250 1
42 278 1
42 348 1
42 400 1
43 43 1
43 63 1
43 123 1
43 167 1
43 252 1
43 279 1
43 349 1
43 401 1
44 44 1
44 64 1
44 124 1
44 168 1
44 251 1
44 252 1
44 280 1
44 350 1
44 402 1
45 45 1
45 65 1
45 125 1
45 169 1
45 254 1
45 281 1
45 351 1
45 403 1
46 46 1
46 66 1
46 126 1
46 170 1
46 253 1
46 254 1
46 282 1
46 352 1
46 404 1
47 47 1
47 67 1
47 127 1
47 171 1
47 256 1
47 283 1
47 353 1
47 405 1
48 48 1
48 68 1
48 128 1
48 172 1
48 255 1
48 256 1
48 284 1
48 354 1
48 406 1
49 49 1
49 69 1
49 129 1
49 173 1
49 258 1
49 285 1
49 355 1
49 407 1
50 50 1
50 70 1
50 130 1
50 174 1
50 257 1
50 258 1
50 286 1
50 356 1
50 408 1
51 51 1
51 71 1
51 131 1
51 175 1
51 260 1
51 287 1
51 357 1
51 409 1
52 52 1
52 72 1
52 132 1
52 176 1
52 259 1
52 260 1
52 288 1
52 358 1
52 410 1
53 1 1
53 103 1
53 147 1
53 179 1
53 259 1
53 262 1
53 335 1
53 407 1
54 2 1
54 104 1
54 148 1
54 180 1
54 260 1
54 261 1
54 262 1
54 336 1
54 408 1
55 3 1
55 53 1
55 149 1
55 181 1
55 209 1
55 264 1
55 337 1
55 409 1
56 4 1
56 54 1
56 150 1
56 182 1
56 210 1
56 263 1
56 264 1
56 338 1
56 410 1
57 5 1
57 55 1
57 151 1
57 183 1
57 211 1
57 266 1
57 339 1
57 411 1
58 6 1
58 56 1
58 152 1
58 184 1
58 212 1
58 265 1
58 266 1
58 340 1
58 412 1
59 7 1
59 57 1
59 153 1
59 185 1
59 213 1
59 268 1
59 341 1
59 413 1
60 8 1
60 58 1
60 154 1
60 186 1
60 214 1
60 267 1
60 268 1
60 342 1
60 414 1
61 9 1
61 59 1
61 155 1
61 187 1
61 215 1
61 270 1
61 343 1
61 415 1
62 10 1
62 60 1
62 156 1
62 188 1
62 216 1
62 269 1
62 270 1
62 344 1
62 416 1
63 11 1
63 61 1
63 105 1
63 189 1
63 217 1
63 272 1
63 345 1
63 365 1
64 12 1
64 62 1
64 106 1
64 190 1
64 218 1
64 271 1
64 272 1
64 346 1
64 366 1
65 13 1
65 63 1
65 107 1
65 191 1
65 219 1
65 274 1
65 347 1
65 367 1
66 14 1
66 64 1
66 108 1
66 192 1
66 220 1
66 273 1
66 274 1
66 348 1
66 368 1
67 15 1
67 65 1
67 109 1
67 193 1
67 221 1
67 276 1
67 349 1
67 369 1
68 16 1
68 66 1
68 110 1
68 194 1
68 222 1
68 275 1
68 276 1
68 350 1
68 370 1
69 17 1
69 67 1
69 111 1
69 195 1
69 223 1
69 278 1
69 351 1
69 371 1
70 18 1
70 68 1
70 112 1
70 196 1
70 224 1
70 277 1
70 278 1
70 352 1
70 372 1
71 19 1
71 69 1
71 113 1
71 197 1
71 225 1
71 280 1
71 353 1
71 373 1
72 20 1
72 70 1
72 114 1
72 198 1
72 226 1
72 279 1
72 280 1
72 354 1
72 374 1
73 21 1
73 71 1
73 115 1
73 199 1
73 227 1
73 282 1
73 355 1
73 375 1
74 22 1
74 72 1
74 116 1
74 200 1
74 228 1
74 281 1
74 282 1
74 356 1
74 376 1
75 23 1
75 73 1
75 117 1
75 201 1
75 229 1
75 284 1
75 357 1
75 377 1
76 24 1
76 74 1
76 118 1
76 202 1
76 230 1
76 283 1
76 284 1
76 358 1
76 378 1
77 25 1
77 75 1
77 119 1
77 203 1
77 231 1
77 286 1
77 359 1
77 379 1
78 26 1
78 76 1
78 120 1
78 204 1
78 232 1
78 285 1
78 286 1
78 360 1
78 380 1
79 27 1
79 77 1
79 121 1
79 205 1
79 233 1
79 288 1
79 361 1
79 381 1
80 28 1
80 78 1
80 122 1
80 206 1
80 234 1
80 287 1
80 288 1
80 362 1
80 382 1
81 29 1
81 79 1
81 123 1
81 207 1
81 235 1
81 290 1
81 363 1
81 383 1
82 30 1
82 80 1
82 124 1
82 208 1
82 236 1
82 289 1
82 290 1
82 364 1
82 384 1
83 31 1
83 81 1
83 125 1
83 157 1
83 237 1
83 292 1
83 313 1
83 385 1
84 32 1
84 82 1
84 126 1
84 158 1
84 238 1
84 291 1
84 292 1
84 314 1
84 386 1
85 33 1
85 83 1
85 127 1
85 159 1
85 239 1
85 294 1
85 315 1
85 387 1
86 34 1
86 84 1
86 128 1
86 160 1
86 240 1
86 293 1
86 294 1
86 316 1
86 388 1
87 35 1
87 85 1
87 129 1
87 161 1
87 241 1
87 296 1
87 317 1
87 389 1
88 36 1
88 86 1
88 130 1
88 162 1
88 242 1
88 295 1
88 296 1
88 318 1
88 390 1
89 37 1
89 87 1
89 131 1
89 163 1
89 243 1
89 298 1
89 319 1
89 391 1
90 38 1
90 88 1
90 132 1
90 164 1
90 244 1
90 297 1
90 298 1
90 320 1
90 392 1
91 39 1
91 89 1
91 133 1
91 165 1
91 245 1
91 300 1
91 321 1
91 393 1
92 40 1
92 90 1
92 134 1
92 166 1
92 246 1
92 299 1
92 300 1
92 322 1
92 394 1
93 41 1
93 91 1
93 135 1
93 167 1
93 247 1
93 302 1
93 323 1
93 395 1
94 42 1
94 92 1
94 136 1
94 168 1
94 248 1
94 301 1
94 302 1
94 324 1
94 396 1
95 43 1
95 93 1
95 137 1
95 169 1
95 249 1
95 304 1
95 325 1
95 397 1
96 44 1
96 94 1
96 138 1
96 170 1
96 250 1
96 303 1
96 304 1
96 326 1
96 398 1
97 45 1
97 95 1
97 139 1
97 171 1
97 251 1
97 306 1
97 327 1
97 399 1
98 46 1
98 96 1
98 140 1
98 172 1
98 252 1
98 305 1
98 306 1
98 328 1
98 400 1
99 47 1
99 97 1
99 141 1
99 173 1
99 253 1
99 308 1
99 329 1
99 401 1
100 48 1
100 98 1
100 142 1
100 174 1
100 254 1
100 307 1
100 308 1
100 330 1
100 402 1
101 49 1
101 99 1
101 143 1
101 175 1
101 255 1
101 310 1
101 331 1
101 403 1
102 50 1
102 100 1
102 144 1
102 176 1
102 256 1
102 309 1
102 310 1
102 332 1
102 404 1
103 51 1
103 101 1
103 145 1
103 177 1
103 257 1
103 312 1
103 333 1
103 405 1
104 52 1
104 102 1
104 146 1
104 178 1
104 258 1
104 311 1
104 312 1
104 334 1
104 406 1
105 1 1
105 57 1
105 131 1
105 173 1
105 235 1
105 265 1
105 314 1
105 381 1
106 2 1
106 58 1
106 132 1
106 174 1
106 236 1
106 266 1
106 313 1
106 314 1
106 382 1
107 3 1
107 59 1
107 133 1
107 175 1
107 237 1
107 267 1
107 316 1
107 383 1
108 4 1
108 60 1
108 134 1
108 176 1
108 238 1
108 268 1
108 315 1
108 316 1
108 384 1
109 5 1
109 61 1
109 135 1
109 177 1
109 239 1
109 269 1
109 318 1
109 385 1
110 6 1
110 62 1
110 136 1
110 178 1
110 240 1
110 270 1
110 317 1
110 318 1
110 386 1
111 7 1
111 63 1
111 137 1
111 179 1
111 241 1
111 271 1
111 320 1
111 387 1
112 8 1
112 64 1
112 138 1
112 180 1
112 242 1
112 272 1
112 319 1
112 320 1
112 388 1
113 9 1
113 65 1
113 139 1
113 181 1
113 243 1
113 273 1
113 322 1
113 389 1
114 10 1
114 66 1
114 140 1
114 182 1
114 244 1
114 274 1
114 321 1
114 322 1
114 390 1
115 11 1
115 67 1
115 141 1
115 183 1
115 245 1
115 275 1
115 324 1
115 391 1
116 12 1
116 68 1
116 142 1
116 184 1
116 246 1
116 276 1
116 323 1
116 324 1
116 392 1
117 13 1
117 69 1
117 143 1
117 185 1
117 247 1
117 277 1
117 326 1
117 393 1
118 14 1
118 70 1
118 144 1
118 186 1
118 248 1
118 278 1
118 325 1
118 326 1
118 394 1
119 15 1
119 71 1
119 145 1
119 187 1
119 249 1
119 279 1
119 328 1
119 395 1
120 16 1
120 72 1
120 146 1
120 188 1
120 250 1
120 280 1
120 327 1
120 328 1
120 396 1
121 17 1
121 73 1
121 147 1
121 189 1
121 251 1
121 281 1
121 330 1
121 397 1
122 18 1
122 74 1
122 148 1
122 190 1
122 252 1
122 282 1
122 329 1
122 330 1
122 398 1
123 19 1
123 75 1
123 149 1
123 191 1
123 253 1
123 283 1
123 332 1
123 399 1
124 20 1
124 76 1
124 150 1
124 192 1
124 254 1
124 284 1
124 331 1
124 332 1
124 400 1
125 21 1
125 77 1
125 151 1
125 193 1
125 255 1
125 285 1
125 334 1
125 401 1
126 22 1
126 78 1
126 152 1
126 194 1
126 256 1
126 286 1
126 333 1
126 334 1
126 402 1
127 23 1
127 79 1
127 153 1
127 195 1
127 257 1
127 287 1
127 336 1
127 403 1
128 24 1
128 80 1
128 154 1
128 196 1
128 258 1
128 288 1
128 335 1
128 336 1
128 404 1
129 25 1
129 81 1
129 155 1
129 197 1
129 259 1
129 289 1
129 338 1
129 405 1
130 26 1
130 82 1
130 156 1
130 198 1
130 260 1
130 290 1
130 337 1
130 338 1
130 406 1
131 27 1
131 83 1
131 105 1
131 199 1
131 209 1
131 291 1
131 340 1
131 407 1
132 28 1
132 84 1
132 106 1
132 200 1
132 210 1
132 292 1
132 339 1
132 340 1
132 408 1
133 29 1
133 85 1
133 107 1
133 201 1
133 211 1
133 293 1
133 342 1
133 409 1
134 30 1
134 86 1
134 108 1
134 202 1
134 212 1
134 294 1
134 341 1
134 342 1
134 410 1
135 31 1
135 87 1
135 109 1
135 203 1
135 213 1
135 295 1
135 344 1
135 411 1
136 32 1
136 88 1
136 110 1
136 204 1
136 214 1
136 296 1
136 343 1
136 344 1
136 412 1
137 33 1
137 89 1
137 111 1
137 205 1
137 215 1
137 297 1
137 346 1
137 413 1
138 34 1
138 90 1
138 112 1
138 206 1
138 216 1
138 298 1
138 345 1
138 346 1
138 414 1
139 35 1
139 91 1
139 113 1
139 207 1
139 217 1
139 299 1
139 348 1
139 415 1
140 36 1
140 92 1
140 114 1
140 208 1
140 218 1
140 300 1
140 347 1
140 348 1
140 416 1
141 37 1
141 93 1
141 115 1
141 157 1
141 219 1
141 301 1
141 350 1
141 365 1
142 38 1
142 94 1
142 116 1
142 158 1
142 220 1
142 302 1
142 349 1
142 350 1
142 366 1
143 39 1
143 95 1
143 117 1
143 159 1
143 221 1
143 303 1
143 352 1
143 367 1
144 40 1
144 96 1
144 118 1
144 160 1
144 222 1
144 304 1
144 351 1
144 352 1
144 368 1
145 41 1
145 97 1
145 119 1
145 161 1
145 223 1
145 305 1
145 354 1
145 369 1
146 42 1
146 98 1
146 120 1
146 162 1
146 224 1
146 306 1
146 353 1
146 354 1
146 370 1
147 43 1
147 99 1
147 121 1
147 163 1
147 225 1
147 307 1
147 356 1
147 371 1
148 44 1
148 100 1
148 122 1
148 164 1
148 226 1
148 308 1
148 355 1
148 356 1
148 372 1
149 45 1
149 101 1
149 123 1
149 165 1
149 227 1
149 309 1
149 358 1
149 373 1
150 46 1
150 102 1
150 124 1
150 166 1
150 228 1
150 310 1
150 357 1
150 358 1
150 374 1
151 47 1
151 103 1
151 125 1
151 167 1
151 229 1
151 311 1
151 360 1
151 375 1
152 48 1
152 104 1
152 126 1
152 168 1
152 230 1
152 312 1
152 359 1
152 360 1
152 376 1
153 49 1
153 53 1
153 127 1
153 169 1
153 231 1
153 261 1
153 362 1
153 377 1
154 50 1
154 54 1
154 128 1
154 170 1
154 232 1
154 262 1
154 361 1
154 362 1
154 378 1
155 51 1
155 55 1
155 129 1
155 171 1
155 233 1
155 263 1
155 364 1
155 379 1
156 52 1
156 56 1
156 130 1
156 172 1
156 234 1
156 264 1
156 363 1
156 364 1
156 380 1
