%%MatrixMarket matrix coordinate integer general
% GF(4) labels 0,1,2=omega,3=omega+1; arithmetic is NOT integer arithmetic.
% Coordinate indices are 1-based; omitted entries are zero.
78 208 624
1 1 1
1 37 1
1 67 1
1 89 1
1 105 2
1 145 1
1 180 1
1 206 1
2 2 1
2 38 1
2 68 1
2 90 1
2 106 2
2 146 1
2 181 1
2 207 1
3 3 1
3 39 1
3 69 1
3 91 1
3 107 2
3 147 1
3 182 1
3 208 1
4 4 1
4 40 1
4 70 1
4 92 1
4 108 2
4 148 1
4 157 1
4 183 1
5 5 1
5 41 1
5 71 1
5 93 1
5 109 2
5 149 1
5 158 1
5 184 1
6 6 1
6 42 1
6 72 1
6 94 1
6 110 2
6 150 1
6 159 1
6 185 1
7 7 1
7 43 1
7 73 1
7 95 1
7 111 2
7 151 1
7 160 1
7 186 1
8 8 1
8 44 1
8 74 1
8 96 1
8 112 2
8 152 1
8 161 1
8 187 1
9 9 1
9 45 1
9 75 1
9 97 1
9 113 2
9 153 1
9 162 1
9 188 1
10 10 1
10 46 1
10 76 1
10 98 1
10 114 2
10 154 1
10 163 1
10 189 1
11 11 1
11 47 1
11 77 1
11 99 1
11 115 2
11 155 1
11 164 1
11 190 1
12 12 1
12 48 1
12 78 1
12 100 1
12 116 2
12 156 1
12 165 1
12 191 1
13 13 1
13 49 1
13 53 1
13 101 1
13 117 2
13 131 1
13 166 1
13 192 1
14 14 1
14 50 1
14 54 1
14 102 1
14 118 2
14 132 1
14 167 1
14 193 1
15 15 1
15 51 1
15 55 1
15 103 1
15 119 2
15 133 1
15 168 1
15 194 1
16 16 1
16 52 1
16 56 1
16 104 1
16 120 2
16 134 1
16 169 1
16 195 1
17 17 1
17 27 1
17 57 1
17 79 1
17 121 2
17 135 1
17 170 1
17 196 1
18 18 1
18 28 1
18 58 1
18 80 1
18 122 2
18 136 1
18 171 1
18 197 1
19 19 1
19 29 1
19 59 1
19 81 1
19 123 2
19 137 1
19 172 1
19 198 1
20 20 1
20 30 1
20 60 1
20 82 1
20 124 2
20 138 1
20 173 1
20 199 1
21 21 1
21 31 1
21 61 1
21 83 1
21 125 2
21 139 1
21 174 1
21 200 1
22 22 1
22 32 1
22 62 1
22 84 1
22 126 2
22 140 1
22 175 1
22 201 1
23 23 1
23 33 1
23 63 1
23 85 1
23 127 2
23 141 1
23 176 1
23 202 1
24 24 1
24 34 1
24 64 1
24 86 1
24 128 2
24 142 1
24 177 1
24 203 1
25 25 1
25 35 1
25 65 1
25 87 1
25 129 2
25 143 1
25 178 1
25 204 1
26 26 1
26 36 1
26 66 1
26 88 1
26 130 2
26 144 1
26 179 1
26 205 1
27 1 1
27 52 1
27 74 1
27 90 1
27 130 1
27 131 2
27 168 1
27 204 1
28 2 1
28 27 1
28 75 1
28 91 1
28 105 1
28 132 2
28 169 1
28 205 1
29 3 1
29 28 1
29 76 1
29 92 1
29 106 1
29 133 2
29 170 1
29 206 1
30 4 1
30 29 1
30 77 1
30 93 1
30 107 1
30 134 2
30 171 1
30 207 1
31 5 1
31 30 1
31 78 1
31 94 1
31 108 1
31 135 2
31 172 1
31 208 1
32 6 1
32 31 1
32 53 1
32 95 1
32 109 1
32 136 2
32 173 1
32 183 1
33 7 1
33 32 1
33 54 1
33 96 1
33 110 1
33 137 2
33 174 1
33 184 1
34 8 1
34 33 1
34 55 1
34 97 1
34 111 1
34 138 2
34 175 1
34 185 1
35 9 1
35 34 1
35 56 1
35 98 1
35 112 1
35 139 2
35 176 1
35 186 1
36 10 1
36 35 1
36 57 1
36 99 1
36 113 1
36 140 2
36 177 1
36 187 1
37 11 1
37 36 1
37 58 1
37 100 1
37 114 1
37 141 2
37 178 1
37 188 1
38 12 1
38 37 1
38 59 1
38 101 1
38 115 1
38 142 2
38 179 1
38 189 1
39 13 1
39 38 1
39 60 1
39 102 1
39 116 1
39 143 2
39 180 1
39 190 1
40 14 1
40 39 1
40 61 1
40 103 1
40 117 1
40 144 2
40 181 1
40 191 1
41 15 1
41 40 1
41 62 1
41 104 1
41 118 1
41 145 2
41 182 1
41 192 1
42 16 1
42 41 1
42 63 1
42 79 1
42 119 1
42 146 2
42 157 1
42 193 1
43 17 1
43 42 1
43 64 1
43 80 1
43 120 1
43 147 2
43 158 1
43 194 1
44 18 1
44 43 1
44 65 1
44 81 1
44 121 1
44 148 2
44 159 1
44 195 1
45 19 1
45 44 1
45 66 1
45 82 1
45 122 1
45 149 2
45 160 1
45 196 1
46 20 1
46 45 1
46 67 1
46 83 1
46 123 1
46 150 2
46 161 1
46 197 1
47 21 1
47 46 1
47 68 1
47 84 1
47 124 1
47 151 2
47 162 1
47 198 1
48 22 1
48 47 1
48 69 1
48 85 1
48 125 1
48 152 2
48 163 1
48 199 1
49 23 1
49 48 1
49 70 1
49 86 1
49 126 1
49 153 2
49 164 1
49 200 1
50 24 1
50 49 1
50 71 1
50 87 1
50 127 1
50 154 2
50 165 1
50 201 1
51 25 1
51 50 1
51 72 1
51 88 1
51 128 1
51 155 2
51 166 1
51 202 1
52 26 1
52 51 1
52 73 1
52 89 1
52 129 1
52 156 2
52 167 1
52 203 1
53 1 1
53 29 1
53 66 1
53 87 1
53 118 1
53 133 1
53 157 2
53 191 1
54 2 1
54 30 1
54 67 1
54 88 1
54 119 1
54 134 1
54 158 2
54 192 1
55 3 1
55 31 1
55 68 1
55 89 1
55 120 1
55 135 1
55 159 2
55 193 1
56 4 1
56 32 1
56 69 1
56 90 1
56 121 1
56 136 1
56 160 2
56 194 1
57 5 1
57 33 1
57 70 1
57 91 1
57 122 1
57 137 1
57 161 2
57 195 1
58 6 1
58 34 1
58 71 1
58 92 1
58 123 1
58 138 1
58 162 2
58 196 1
59 7 1
59 35 1
59 72 1
59 93 1
59 124 1
59 139 1
59 163 2
59 197 1
60 8 1
60 36 1
60 73 1
60 94 1
60 125 1
60 140 1
60 164 2
60 198 1
61 9 1
61 37 1
61 74 1
61 95 1
61 126 1
61 141 1
61 165 2
61 199 1
62 10 1
62 38 1
62 75 1
62 96 1
62 127 1
62 142 1
62 166 2
62 200 1
63 11 1
63 39 1
63 76 1
63 97 1
63 128 1
63 143 1
63 167 2
63 201 1
64 12 1
64 40 1
64 77 1
64 98 1
64 129 1
64 144 1
64 168 2
64 202 1
65 13 1
65 41 1
65 78 1
65 99 1
65 130 1
65 145 1
65 169 2
65 203 1
66 14 1
66 42 1
66 53 1
66 100 1
66 105 1
66 146 1
66 170 2
66 204 1
67 15 1
67 43 1
67 54 1
67 101 1
67 106 1
67 147 1
67 171 2
67 205 1
68 16 1
68 44 1
68 55 1
68 102 1
68 107 1
68 148 1
68 172 2
68 206 1
69 17 1
69 45 1
69 56 1
69 103 1
69 108 1
69 149 1
69 173 2
69 207 1
70 18 1
70 46 1
70 57 1
70 104 1
70 109 1
70 150 1
70 174 2
70 208 1
71 19 1
71 47 1
71 58 1
71 79 1
71 110 1
71 151 1
71 175 2
71 183 1
72 20 1
72 48 1
72 59 1
72 80 1
72 111 1
72 152 1
72 176 2
72 184 1
73 21 1
73 49 1
73 60 1
73 81 1
73 112 1
73 153 1
73 177 2
73 185 1
74 22 1
74 50 1
74 61 1
74 82 1
74 113 1
74 154 1
74 178 2
74 186 1
75 23 1
75 51 1
75 62 1
75 83 1
75 114 1
75 155 1
75 179 2
75 187 1
76 24 1
76 52 1
76 63 1
76 84 1
76 115 1
76 156 1
76 180 2
76 188 1
77 25 1
77 27 1
77 64 1
77 85 1
77 116 1
77 131 1
77 181 2
77 189 1
78 26 1
78 28 1
78 65 1
78 86 1
78 117 1
78 132 1
78 182 2
78 190 1
