%%MatrixMarket matrix coordinate integer general
% Binary matrix over GF(2).
% Coordinate indices are 1-based; omitted entries are zero.
104 416 2704
1 8 1
1 11 1
1 28 1
1 29 1
1 31 1
1 37 1
1 38 1
1 157 1
1 158 1
1 183 1
1 184 1
1 206 1
1 211 1
1 217 1
1 235 1
1 237 1
1 242 1
1 246 1
1 265 1
1 267 1
1 292 1
1 295 1
1 298 1
1 299 1
2 10 1
2 13 1
2 30 1
2 31 1
2 33 1
2 39 1
2 40 1
2 159 1
2 160 1
2 185 1
2 186 1
2 208 1
2 213 1
2 219 1
2 237 1
2 239 1
2 244 1
2 248 1
2 267 1
2 269 1
2 294 1
2 297 1
2 300 1
2 301 1
3 12 1
3 15 1
3 32 1
3 33 1
3 35 1
3 41 1
3 42 1
3 158 1
3 161 1
3 162 1
3 187 1
3 188 1
3 215 1
3 221 1
3 239 1
3 241 1
3 246 1
3 250 1
3 269 1
3 271 1
3 296 1
3 299 1
3 302 1
3 303 1
4 14 1
4 17 1
4 34 1
4 35 1
4 37 1
4 43 1
4 44 1
4 160 1
4 163 1
4 164 1
4 189 1
4 190 1
4 217 1
4 223 1
4 241 1
4 243 1
4 248 1
4 252 1
4 271 1
4 273 1
4 298 1
4 301 1
4 304 1
4 305 1
5 16 1
5 19 1
5 36 1
5 37 1
5 39 1
5 45 1
5 46 1
5 162 1
5 165 1
5 166 1
5 191 1
5 192 1
5 219 1
5 225 1
5 243 1
5 245 1
5 250 1
5 254 1
5 273 1
5 275 1
5 300 1
5 303 1
5 306 1
5 307 1
6 18 1
6 21 1
6 38 1
6 39 1
6 41 1
6 47 1
6 48 1
6 164 1
6 167 1
6 168 1
6 193 1
6 194 1
6 221 1
6 227 1
6 245 1
6 247 1
6 252 1
6 256 1
6 275 1
6 277 1
6 302 1
6 305 1
6 308 1
6 309 1
7 20 1
7 23 1
7 40 1
7 41 1
7 43 1
7 49 1
7 50 1
7 166 1
7 169 1
7 170 1
7 195 1
7 196 1
7 223 1
7 229 1
7 247 1
7 249 1
7 254 1
7 258 1
7 277 1
7 279 1
7 304 1
7 307 1
7 310 1
7 311 1
8 22 1
8 25 1
8 42 1
8 43 1
8 45 1
8 51 1
8 52 1
8 168 1
8 171 1
8 172 1
8 197 1
8 198 1
8 225 1
8 231 1
8 249 1
8 251 1
8 256 1
8 260 1
8 261 1
8 279 1
8 281 1
8 306 1
8 309 1
8 312 1
9 1 1
9 2 1
9 24 1
9 27 1
9 44 1
9 45 1
9 47 1
9 170 1
9 173 1
9 174 1
9 199 1
9 200 1
9 210 1
9 227 1
9 233 1
9 251 1
9 253 1
9 258 1
9 262 1
9 263 1
9 281 1
9 283 1
9 308 1
9 311 1
10 3 1
10 4 1
10 26 1
10 29 1
10 46 1
10 47 1
10 49 1
10 172 1
10 175 1
10 176 1
10 201 1
10 202 1
10 212 1
10 229 1
10 235 1
10 253 1
10 255 1
10 260 1
10 261 1
10 264 1
10 265 1
10 283 1
10 285 1
10 310 1
11 5 1
11 6 1
11 28 1
11 31 1
11 48 1
11 49 1
11 51 1
11 174 1
11 177 1
11 178 1
11 203 1
11 204 1
11 210 1
11 214 1
11 231 1
11 237 1
11 255 1
11 257 1
11 263 1
11 266 1
11 267 1
11 285 1
11 287 1
11 312 1
12 1 1
12 7 1
12 8 1
12 30 1
12 33 1
12 50 1
12 51 1
12 176 1
12 179 1
12 180 1
12 205 1
12 206 1
12 212 1
12 216 1
12 233 1
12 239 1
12 257 1
12 259 1
12 262 1
12 265 1
12 268 1
12 269 1
12 287 1
12 289 1
13 1 1
13 3 1
13 9 1
13 10 1
13 32 1
13 35 1
13 52 1
13 178 1
13 181 1
13 182 1
13 207 1
13 208 1
13 209 1
13 214 1
13 218 1
13 235 1
13 241 1
13 259 1
13 264 1
13 267 1
13 270 1
13 271 1
13 289 1
13 291 1
14 2 1
14 3 1
14 5 1
14 11 1
14 12 1
14 34 1
14 37 1
14 157 1
14 158 1
14 180 1
14 183 1
14 184 1
14 209 1
14 211 1
14 216 1
14 220 1
14 237 1
14 243 1
14 266 1
14 269 1
14 272 1
14 273 1
14 291 1
14 293 1
15 4 1
15 5 1
15 7 1
15 13 1
15 14 1
15 36 1
15 39 1
15 159 1
15 160 1
15 182 1
15 185 1
15 186 1
15 211 1
15 213 1
15 218 1
15 222 1
15 239 1
15 245 1
15 268 1
15 271 1
15 274 1
15 275 1
15 293 1
15 295 1
16 6 1
16 7 1
16 9 1
16 15 1
16 16 1
16 38 1
16 41 1
16 161 1
16 162 1
16 184 1
16 187 1
16 188 1
16 213 1
16 215 1
16 220 1
16 224 1
16 241 1
16 247 1
16 270 1
16 273 1
16 276 1
16 277 1
16 295 1
16 297 1
17 8 1
17 9 1
17 11 1
17 17 1
17 18 1
17 40 1
17 43 1
17 163 1
17 164 1
17 186 1
17 189 1
17 190 1
17 215 1
17 217 1
17 222 1
17 226 1
17 243 1
17 249 1
17 272 1
17 275 1
17 278 1
17 279 1
17 297 1
17 299 1
18 10 1
18 11 1
18 13 1
18 19 1
18 20 1
18 42 1
18 45 1
18 165 1
18 166 1
18 188 1
18 191 1
18 192 1
18 217 1
18 219 1
18 224 1
18 228 1
18 245 1
18 251 1
18 274 1
18 277 1
18 280 1
18 281 1
18 299 1
18 301 1
19 12 1
19 13 1
19 15 1
19 21 1
19 22 1
19 44 1
19 47 1
19 167 1
19 168 1
19 190 1
19 193 1
19 194 1
19 219 1
19 221 1
19 226 1
19 230 1
19 247 1
19 253 1
19 276 1
19 279 1
19 282 1
19 283 1
19 301 1
19 303 1
20 14 1
20 15 1
20 17 1
20 23 1
20 24 1
20 46 1
20 49 1
20 169 1
20 170 1
20 192 1
20 195 1
20 196 1
20 221 1
20 223 1
20 228 1
20 232 1
20 249 1
20 255 1
20 278 1
20 281 1
20 284 1
20 285 1
20 303 1
20 305 1
21 16 1
21 17 1
21 19 1
21 25 1
21 26 1
21 48 1
21 51 1
21 171 1
21 172 1
21 194 1
21 197 1
21 198 1
21 223 1
21 225 1
21 230 1
21 234 1
21 251 1
21 257 1
21 280 1
21 283 1
21 286 1
21 287 1
21 305 1
21 307 1
22 1 1
22 18 1
22 19 1
22 21 1
22 27 1
22 28 1
22 50 1
22 173 1
22 174 1
22 196 1
22 199 1
22 200 1
22 225 1
22 227 1
22 232 1
22 236 1
22 253 1
22 259 1
22 282 1
22 285 1
22 288 1
22 289 1
22 307 1
22 309 1
23 3 1
23 20 1
23 21 1
23 23 1
23 29 1
23 30 1
23 52 1
23 175 1
23 176 1
23 198 1
23 201 1
23 202 1
23 209 1
23 227 1
23 229 1
23 234 1
23 238 1
23 255 1
23 284 1
23 287 1
23 290 1
23 291 1
23 309 1
23 311 1
24 2 1
24 5 1
24 22 1
24 23 1
24 25 1
24 31 1
24 32 1
24 177 1
24 178 1
24 200 1
24 203 1
24 204 1
24 211 1
24 229 1
24 231 1
24 236 1
24 240 1
24 257 1
24 261 1
24 286 1
24 289 1
24 292 1
24 293 1
24 311 1
25 4 1
25 7 1
25 24 1
25 25 1
25 27 1
25 33 1
25 34 1
25 179 1
25 180 1
25 202 1
25 205 1
25 206 1
25 213 1
25 231 1
25 233 1
25 238 1
25 242 1
25 259 1
25 261 1
25 263 1
25 288 1
25 291 1
25 294 1
25 295 1
26 6 1
26 9 1
26 26 1
26 27 1
26 29 1
26 35 1
26 36 1
26 181 1
26 182 1
26 204 1
26 207 1
26 208 1
26 209 1
26 215 1
26 233 1
26 235 1
26 240 1
26 244 1
26 263 1
26 265 1
26 290 1
26 293 1
26 296 1
26 297 1
27 7 1
27 8 1
27 12 1
27 27 1
27 28 1
27 30 1
27 32 1
27 37 1
27 157 1
27 183 1
27 205 1
27 206 1
27 212 1
27 218 1
27 236 1
27 238 1
27 241 1
27 242 1
27 245 1
27 246 1
27 266 1
27 268 1
27 291 1
27 292 1
27 296 1
27 297 1
27 298 1
27 300 1
28 9 1
28 10 1
28 14 1
28 29 1
28 30 1
28 32 1
28 34 1
28 39 1
28 159 1
28 185 1
28 207 1
28 208 1
28 214 1
28 220 1
28 238 1
28 240 1
28 243 1
28 244 1
28 247 1
28 248 1
28 268 1
28 270 1
28 293 1
28 294 1
28 298 1
28 299 1
28 300 1
28 302 1
29 11 1
29 12 1
29 16 1
29 31 1
29 32 1
29 34 1
29 36 1
29 41 1
29 157 1
29 158 1
29 161 1
29 187 1
29 216 1
29 222 1
29 240 1
29 242 1
29 245 1
29 246 1
29 249 1
29 250 1
29 270 1
29 272 1
29 295 1
29 296 1
29 300 1
29 301 1
29 302 1
29 304 1
30 13 1
30 14 1
30 18 1
30 33 1
30 34 1
30 36 1
30 38 1
30 43 1
30 159 1
30 160 1
30 163 1
30 189 1
30 218 1
30 224 1
30 242 1
30 244 1
30 247 1
30 248 1
30 251 1
30 252 1
30 272 1
30 274 1
30 297 1
30 298 1
30 302 1
30 303 1
30 304 1
30 306 1
31 15 1
31 16 1
31 20 1
31 35 1
31 36 1
31 38 1
31 40 1
31 45 1
31 161 1
31 162 1
31 165 1
31 191 1
31 220 1
31 226 1
31 244 1
31 246 1
31 249 1
31 250 1
31 253 1
31 254 1
31 274 1
31 276 1
31 299 1
31 300 1
31 304 1
31 305 1
31 306 1
31 308 1
32 17 1
32 18 1
32 22 1
32 37 1
32 38 1
32 40 1
32 42 1
32 47 1
32 163 1
32 164 1
32 167 1
32 193 1
32 222 1
32 228 1
32 246 1
32 248 1
32 251 1
32 252 1
32 255 1
32 256 1
32 276 1
32 278 1
32 301 1
32 302 1
32 306 1
32 307 1
32 308 1
32 310 1
33 19 1
33 20 1
33 24 1
33 39 1
33 40 1
33 42 1
33 44 1
33 49 1
33 165 1
33 166 1
33 169 1
33 195 1
33 224 1
33 230 1
33 248 1
33 250 1
33 253 1
33 254 1
33 257 1
33 258 1
33 278 1
33 280 1
33 303 1
33 304 1
33 308 1
33 309 1
33 310 1
33 312 1
34 21 1
34 22 1
34 26 1
34 41 1
34 42 1
34 44 1
34 46 1
34 51 1
34 167 1
34 168 1
34 171 1
34 197 1
34 226 1
34 232 1
34 250 1
34 252 1
34 255 1
34 256 1
34 259 1
34 260 1
34 262 1
34 280 1
34 282 1
34 305 1
34 306 1
34 310 1
34 311 1
34 312 1
35 1 1
35 23 1
35 24 1
35 28 1
35 43 1
35 44 1
35 46 1
35 48 1
35 169 1
35 170 1
35 173 1
35 199 1
35 209 1
35 210 1
35 228 1
35 234 1
35 252 1
35 254 1
35 257 1
35 258 1
35 261 1
35 262 1
35 264 1
35 282 1
35 284 1
35 307 1
35 308 1
35 312 1
36 3 1
36 25 1
36 26 1
36 30 1
36 45 1
36 46 1
36 48 1
36 50 1
36 171 1
36 172 1
36 175 1
36 201 1
36 211 1
36 212 1
36 230 1
36 236 1
36 254 1
36 256 1
36 259 1
36 260 1
36 262 1
36 263 1
36 264 1
36 266 1
36 284 1
36 286 1
36 309 1
36 310 1
37 5 1
37 27 1
37 28 1
37 32 1
37 47 1
37 48 1
37 50 1
37 52 1
37 173 1
37 174 1
37 177 1
37 203 1
37 209 1
37 210 1
37 213 1
37 214 1
37 232 1
37 238 1
37 256 1
37 258 1
37 264 1
37 265 1
37 266 1
37 268 1
37 286 1
37 288 1
37 311 1
37 312 1
38 2 1
38 7 1
38 29 1
38 30 1
38 34 1
38 49 1
38 50 1
38 52 1
38 175 1
38 176 1
38 179 1
38 205 1
38 211 1
38 212 1
38 215 1
38 216 1
38 234 1
38 240 1
38 258 1
38 260 1
38 261 1
38 262 1
38 266 1
38 267 1
38 268 1
38 270 1
38 288 1
38 290 1
39 2 1
39 4 1
39 9 1
39 31 1
39 32 1
39 36 1
39 51 1
39 52 1
39 177 1
39 178 1
39 181 1
39 207 1
39 210 1
39 213 1
39 214 1
39 217 1
39 218 1
39 236 1
39 242 1
39 260 1
39 263 1
39 264 1
39 268 1
39 269 1
39 270 1
39 272 1
39 290 1
39 292 1
40 1 1
40 2 1
40 4 1
40 6 1
40 11 1
40 33 1
40 34 1
40 38 1
40 157 1
40 179 1
40 180 1
40 183 1
40 210 1
40 212 1
40 215 1
40 216 1
40 219 1
40 220 1
40 238 1
40 244 1
40 265 1
40 266 1
40 270 1
40 271 1
40 272 1
40 274 1
40 292 1
40 294 1
41 3 1
41 4 1
41 6 1
41 8 1
41 13 1
41 35 1
41 36 1
41 40 1
41 159 1
41 181 1
41 182 1
41 185 1
41 212 1
41 214 1
41 217 1
41 218 1
41 221 1
41 222 1
41 240 1
41 246 1
41 267 1
41 268 1
41 272 1
41 273 1
41 274 1
41 276 1
41 294 1
41 296 1
42 5 1
42 6 1
42 8 1
42 10 1
42 15 1
42 37 1
42 38 1
42 42 1
42 161 1
42 183 1
42 184 1
42 187 1
42 214 1
42 216 1
42 219 1
42 220 1
42 223 1
42 224 1
42 242 1
42 248 1
42 269 1
42 270 1
42 274 1
42 275 1
42 276 1
42 278 1
42 296 1
42 298 1
43 7 1
43 8 1
43 10 1
43 12 1
43 17 1
43 39 1
43 40 1
43 44 1
43 163 1
43 185 1
43 186 1
43 189 1
43 216 1
43 218 1
43 221 1
43 222 1
43 225 1
43 226 1
43 244 1
43 250 1
43 271 1
43 272 1
43 276 1
43 277 1
43 278 1
43 280 1
43 298 1
43 300 1
44 9 1
44 10 1
44 12 1
44 14 1
44 19 1
44 41 1
44 42 1
44 46 1
44 165 1
44 187 1
44 188 1
44 191 1
44 218 1
44 220 1
44 223 1
44 224 1
44 227 1
44 228 1
44 246 1
44 252 1
44 273 1
44 274 1
44 278 1
44 279 1
44 280 1
44 282 1
44 300 1
44 302 1
45 11 1
45 12 1
45 14 1
45 16 1
45 21 1
45 43 1
45 44 1
45 48 1
45 167 1
45 189 1
45 190 1
45 193 1
45 220 1
45 222 1
45 225 1
45 226 1
45 229 1
45 230 1
45 248 1
45 254 1
45 275 1
45 276 1
45 280 1
45 281 1
45 282 1
45 284 1
45 302 1
45 304 1
46 13 1
46 14 1
46 16 1
46 18 1
46 23 1
46 45 1
46 46 1
46 50 1
46 169 1
46 191 1
46 192 1
46 195 1
46 222 1
46 224 1
46 227 1
46 228 1
46 231 1
46 232 1
46 250 1
46 256 1
46 277 1
46 278 1
46 282 1
46 283 1
46 284 1
46 286 1
46 304 1
46 306 1
47 15 1
47 16 1
47 18 1
47 20 1
47 25 1
47 47 1
47 48 1
47 52 1
47 171 1
47 193 1
47 194 1
47 197 1
47 224 1
47 226 1
47 229 1
47 230 1
47 233 1
47 234 1
47 252 1
47 258 1
47 279 1
47 280 1
47 284 1
47 285 1
47 286 1
47 288 1
47 306 1
47 308 1
48 2 1
48 17 1
48 18 1
48 20 1
48 22 1
48 27 1
48 49 1
48 50 1
48 173 1
48 195 1
48 196 1
48 199 1
48 226 1
48 228 1
48 231 1
48 232 1
48 235 1
48 236 1
48 254 1
48 260 1
48 281 1
48 282 1
48 286 1
48 287 1
48 288 1
48 290 1
48 308 1
48 310 1
49 4 1
49 19 1
49 20 1
49 22 1
49 24 1
49 29 1
49 51 1
49 52 1
49 175 1
49 197 1
49 198 1
49 201 1
49 210 1
49 228 1
49 230 1
49 233 1
49 234 1
49 237 1
49 238 1
49 256 1
49 283 1
49 284 1
49 288 1
49 289 1
49 290 1
49 292 1
49 310 1
49 312 1
50 1 1
50 2 1
50 6 1
50 21 1
50 22 1
50 24 1
50 26 1
50 31 1
50 177 1
50 199 1
50 200 1
50 203 1
50 212 1
50 230 1
50 232 1
50 235 1
50 236 1
50 239 1
50 240 1
50 258 1
50 262 1
50 285 1
50 286 1
50 290 1
50 291 1
50 292 1
50 294 1
50 312 1
51 3 1
51 4 1
51 8 1
51 23 1
51 24 1
51 26 1
51 28 1
51 33 1
51 179 1
51 201 1
51 202 1
51 205 1
51 214 1
51 232 1
51 234 1
51 237 1
51 238 1
51 241 1
51 242 1
51 260 1
51 262 1
51 264 1
51 287 1
51 288 1
51 292 1
51 293 1
51 294 1
51 296 1
52 5 1
52 6 1
52 10 1
52 25 1
52 26 1
52 28 1
52 30 1
52 35 1
52 181 1
52 203 1
52 204 1
52 207 1
52 210 1
52 216 1
52 234 1
52 236 1
52 239 1
52 240 1
52 243 1
52 244 1
52 264 1
52 266 1
52 289 1
52 290 1
52 294 1
52 295 1
52 296 1
52 298 1
53 6 1
53 7 1
53 8 1
53 10 1
53 12 1
53 33 1
53 34 1
53 37 1
53 212 1
53 215 1
53 218 1
53 244 1
53 245 1
53 246 1
53 270 1
53 271 1
53 272 1
53 294 1
53 297 1
53 300 1
53 365 1
53 391 1
53 413 1
53 414 1
54 8 1
54 9 1
54 10 1
54 12 1
54 14 1
54 35 1
54 36 1
54 39 1
54 214 1
54 217 1
54 220 1
54 246 1
54 247 1
54 248 1
54 272 1
54 273 1
54 274 1
54 296 1
54 299 1
54 302 1
54 367 1
54 393 1
54 415 1
54 416 1
55 10 1
55 11 1
55 12 1
55 14 1
55 16 1
55 37 1
55 38 1
55 41 1
55 216 1
55 219 1
55 222 1
55 248 1
55 249 1
55 250 1
55 274 1
55 275 1
55 276 1
55 298 1
55 301 1
55 304 1
55 365 1
55 366 1
55 369 1
55 395 1
56 12 1
56 13 1
56 14 1
56 16 1
56 18 1
56 39 1
56 40 1
56 43 1
56 218 1
56 221 1
56 224 1
56 250 1
56 251 1
56 252 1
56 276 1
56 277 1
56 278 1
56 300 1
56 303 1
56 306 1
56 367 1
56 368 1
56 371 1
56 397 1
57 14 1
57 15 1
57 16 1
57 18 1
57 20 1
57 41 1
57 42 1
57 45 1
57 220 1
57 223 1
57 226 1
57 252 1
57 253 1
57 254 1
57 278 1
57 279 1
57 280 1
57 302 1
57 305 1
57 308 1
57 369 1
57 370 1
57 373 1
57 399 1
58 16 1
58 17 1
58 18 1
58 20 1
58 22 1
58 43 1
58 44 1
58 47 1
58 222 1
58 225 1
58 228 1
58 254 1
58 255 1
58 256 1
58 280 1
58 281 1
58 282 1
58 304 1
58 307 1
58 310 1
58 371 1
58 372 1
58 375 1
58 401 1
59 18 1
59 19 1
59 20 1
59 22 1
59 24 1
59 45 1
59 46 1
59 49 1
59 224 1
59 227 1
59 230 1
59 256 1
59 257 1
59 258 1
59 282 1
59 283 1
59 284 1
59 306 1
59 309 1
59 312 1
59 373 1
59 374 1
59 377 1
59 403 1
60 20 1
60 21 1
60 22 1
60 24 1
60 26 1
60 47 1
60 48 1
60 51 1
60 226 1
60 229 1
60 232 1
60 258 1
60 259 1
60 260 1
60 262 1
60 284 1
60 285 1
60 286 1
60 308 1
60 311 1
60 375 1
60 376 1
60 379 1
60 405 1
61 1 1
61 22 1
61 23 1
61 24 1
61 26 1
61 28 1
61 49 1
61 50 1
61 209 1
61 210 1
61 228 1
61 231 1
61 234 1
61 260 1
61 261 1
61 264 1
61 286 1
61 287 1
61 288 1
61 310 1
61 377 1
61 378 1
61 381 1
61 407 1
62 3 1
62 24 1
62 25 1
62 26 1
62 28 1
62 30 1
62 51 1
62 52 1
62 210 1
62 211 1
62 212 1
62 230 1
62 233 1
62 236 1
62 263 1
62 266 1
62 288 1
62 289 1
62 290 1
62 312 1
62 379 1
62 380 1
62 383 1
62 409 1
63 1 1
63 2 1
63 5 1
63 26 1
63 27 1
63 28 1
63 30 1
63 32 1
63 212 1
63 213 1
63 214 1
63 232 1
63 235 1
63 238 1
63 262 1
63 265 1
63 268 1
63 290 1
63 291 1
63 292 1
63 381 1
63 382 1
63 385 1
63 411 1
64 3 1
64 4 1
64 7 1
64 28 1
64 29 1
64 30 1
64 32 1
64 34 1
64 214 1
64 215 1
64 216 1
64 234 1
64 237 1
64 240 1
64 264 1
64 267 1
64 270 1
64 292 1
64 293 1
64 294 1
64 383 1
64 384 1
64 387 1
64 413 1
65 5 1
65 6 1
65 9 1
65 30 1
65 31 1
65 32 1
65 34 1
65 36 1
65 216 1
65 217 1
65 218 1
65 236 1
65 239 1
65 242 1
65 266 1
65 269 1
65 272 1
65 294 1
65 295 1
65 296 1
65 385 1
65 386 1
65 389 1
65 415 1
66 7 1
66 8 1
66 11 1
66 32 1
66 33 1
66 34 1
66 36 1
66 38 1
66 218 1
66 219 1
66 220 1
66 238 1
66 241 1
66 244 1
66 268 1
66 271 1
66 274 1
66 296 1
66 297 1
66 298 1
66 365 1
66 387 1
66 388 1
66 391 1
67 9 1
67 10 1
67 13 1
67 34 1
67 35 1
67 36 1
67 38 1
67 40 1
67 220 1
67 221 1
67 222 1
67 240 1
67 243 1
67 246 1
67 270 1
67 273 1
67 276 1
67 298 1
67 299 1
67 300 1
67 367 1
67 389 1
67 390 1
67 393 1
68 11 1
68 12 1
68 15 1
68 36 1
68 37 1
68 38 1
68 40 1
68 42 1
68 222 1
68 223 1
68 224 1
68 242 1
68 245 1
68 248 1
68 272 1
68 275 1
68 278 1
68 300 1
68 301 1
68 302 1
68 369 1
68 391 1
68 392 1
68 395 1
69 13 1
69 14 1
69 17 1
69 38 1
69 39 1
69 40 1
69 42 1
69 44 1
69 224 1
69 225 1
69 226 1
69 244 1
69 247 1
69 250 1
69 274 1
69 277 1
69 280 1
69 302 1
69 303 1
69 304 1
69 371 1
69 393 1
69 394 1
69 397 1
70 15 1
70 16 1
70 19 1
70 40 1
70 41 1
70 42 1
70 44 1
70 46 1
70 226 1
70 227 1
70 228 1
70 246 1
70 249 1
70 252 1
70 276 1
70 279 1
70 282 1
70 304 1
70 305 1
70 306 1
70 373 1
70 395 1
70 396 1
70 399 1
71 17 1
71 18 1
71 21 1
71 42 1
71 43 1
71 44 1
71 46 1
71 48 1
71 228 1
71 229 1
71 230 1
71 248 1
71 251 1
71 254 1
71 278 1
71 281 1
71 284 1
71 306 1
71 307 1
71 308 1
71 375 1
71 397 1
71 398 1
71 401 1
72 19 1
72 20 1
72 23 1
72 44 1
72 45 1
72 46 1
72 48 1
72 50 1
72 230 1
72 231 1
72 232 1
72 250 1
72 253 1
72 256 1
72 280 1
72 283 1
72 286 1
72 308 1
72 309 1
72 310 1
72 377 1
72 399 1
72 400 1
72 403 1
73 21 1
73 22 1
73 25 1
73 46 1
73 47 1
73 48 1
73 50 1
73 52 1
73 232 1
73 233 1
73 234 1
73 252 1
73 255 1
73 258 1
73 282 1
73 285 1
73 288 1
73 310 1
73 311 1
73 312 1
73 379 1
73 401 1
73 402 1
73 405 1
74 2 1
74 23 1
74 24 1
74 27 1
74 48 1
74 49 1
74 50 1
74 52 1
74 234 1
74 235 1
74 236 1
74 254 1
74 257 1
74 260 1
74 261 1
74 262 1
74 284 1
74 287 1
74 290 1
74 312 1
74 381 1
74 403 1
74 404 1
74 407 1
75 2 1
75 4 1
75 25 1
75 26 1
75 29 1
75 50 1
75 51 1
75 52 1
75 210 1
75 236 1
75 237 1
75 238 1
75 256 1
75 259 1
75 262 1
75 263 1
75 264 1
75 286 1
75 289 1
75 292 1
75 383 1
75 405 1
75 406 1
75 409 1
76 1 1
76 2 1
76 4 1
76 6 1
76 27 1
76 28 1
76 31 1
76 52 1
76 209 1
76 212 1
76 238 1
76 239 1
76 240 1
76 258 1
76 264 1
76 265 1
76 266 1
76 288 1
76 291 1
76 294 1
76 385 1
76 407 1
76 408 1
76 411 1
77 2 1
77 3 1
77 4 1
77 6 1
77 8 1
77 29 1
77 30 1
77 33 1
77 211 1
77 214 1
77 240 1
77 241 1
77 242 1
77 260 1
77 266 1
77 267 1
77 268 1
77 290 1
77 293 1
77 296 1
77 387 1
77 409 1
77 410 1
77 413 1
78 4 1
78 5 1
78 6 1
78 8 1
78 10 1
78 31 1
78 32 1
78 35 1
78 210 1
78 213 1
78 216 1
78 242 1
78 243 1
78 244 1
78 268 1
78 269 1
78 270 1
78 292 1
78 295 1
78 298 1
78 389 1
78 411 1
78 412 1
78 415 1
79 5 1
79 6 1
79 7 1
79 9 1
79 10 1
79 11 1
79 12 1
79 33 1
79 38 1
79 211 1
79 212 1
79 216 1
79 217 1
79 218 1
79 243 1
79 244 1
79 245 1
79 269 1
79 270 1
79 271 1
79 293 1
79 294 1
79 298 1
79 299 1
79 300 1
79 366 1
79 392 1
79 413 1
80 7 1
80 8 1
80 9 1
80 11 1
80 12 1
80 13 1
80 14 1
80 35 1
80 40 1
80 213 1
80 214 1
80 218 1
80 219 1
80 220 1
80 245 1
80 246 1
80 247 1
80 271 1
80 272 1
80 273 1
80 295 1
80 296 1
80 300 1
80 301 1
80 302 1
80 368 1
80 394 1
80 415 1
81 9 1
81 10 1
81 11 1
81 13 1
81 14 1
81 15 1
81 16 1
81 37 1
81 42 1
81 215 1
81 216 1
81 220 1
81 221 1
81 222 1
81 247 1
81 248 1
81 249 1
81 273 1
81 274 1
81 275 1
81 297 1
81 298 1
81 302 1
81 303 1
81 304 1
81 365 1
81 370 1
81 396 1
82 11 1
82 12 1
82 13 1
82 15 1
82 16 1
82 17 1
82 18 1
82 39 1
82 44 1
82 217 1
82 218 1
82 222 1
82 223 1
82 224 1
82 249 1
82 250 1
82 251 1
82 275 1
82 276 1
82 277 1
82 299 1
82 300 1
82 304 1
82 305 1
82 306 1
82 367 1
82 372 1
82 398 1
83 13 1
83 14 1
83 15 1
83 17 1
83 18 1
83 19 1
83 20 1
83 41 1
83 46 1
83 219 1
83 220 1
83 224 1
83 225 1
83 226 1
83 251 1
83 252 1
83 253 1
83 277 1
83 278 1
83 279 1
83 301 1
83 302 1
83 306 1
83 307 1
83 308 1
83 369 1
83 374 1
83 400 1
84 15 1
84 16 1
84 17 1
84 19 1
84 20 1
84 21 1
84 22 1
84 43 1
84 48 1
84 221 1
84 222 1
84 226 1
84 227 1
84 228 1
84 253 1
84 254 1
84 255 1
84 279 1
84 280 1
84 281 1
84 303 1
84 304 1
84 308 1
84 309 1
84 310 1
84 371 1
84 376 1
84 402 1
85 17 1
85 18 1
85 19 1
85 21 1
85 22 1
85 23 1
85 24 1
85 45 1
85 50 1
85 223 1
85 224 1
85 228 1
85 229 1
85 230 1
85 255 1
85 256 1
85 257 1
85 281 1
85 282 1
85 283 1
85 305 1
85 306 1
85 310 1
85 311 1
85 312 1
85 373 1
85 378 1
85 404 1
86 19 1
86 20 1
86 21 1
86 23 1
86 24 1
86 25 1
86 26 1
86 47 1
86 52 1
86 225 1
86 226 1
86 230 1
86 231 1
86 232 1
86 257 1
86 258 1
86 259 1
86 261 1
86 262 1
86 283 1
86 284 1
86 285 1
86 307 1
86 308 1
86 312 1
86 375 1
86 380 1
86 406 1
87 2 1
87 21 1
87 22 1
87 23 1
87 25 1
87 26 1
87 27 1
87 28 1
87 49 1
87 209 1
87 227 1
87 228 1
87 232 1
87 233 1
87 234 1
87 259 1
87 260 1
87 262 1
87 263 1
87 264 1
87 285 1
87 286 1
87 287 1
87 309 1
87 310 1
87 377 1
87 382 1
87 408 1
88 4 1
88 23 1
88 24 1
88 25 1
88 27 1
88 28 1
88 29 1
88 30 1
88 51 1
88 209 1
88 210 1
88 211 1
88 229 1
88 230 1
88 234 1
88 235 1
88 236 1
88 264 1
88 265 1
88 266 1
88 287 1
88 288 1
88 289 1
88 311 1
88 312 1
88 379 1
88 384 1
88 410 1
89 1 1
89 6 1
89 25 1
89 26 1
89 27 1
89 29 1
89 30 1
89 31 1
89 32 1
89 211 1
89 212 1
89 213 1
89 231 1
89 232 1
89 236 1
89 237 1
89 238 1
89 261 1
89 262 1
89 266 1
89 267 1
89 268 1
89 289 1
89 290 1
89 291 1
89 381 1
89 386 1
89 412 1
90 3 1
90 8 1
90 27 1
90 28 1
90 29 1
90 31 1
90 32 1
90 33 1
90 34 1
90 213 1
90 214 1
90 215 1
90 233 1
90 234 1
90 238 1
90 239 1
90 240 1
90 263 1
90 264 1
90 268 1
90 269 1
90 270 1
90 291 1
90 292 1
90 293 1
90 383 1
90 388 1
90 414 1
91 5 1
91 10 1
91 29 1
91 30 1
91 31 1
91 33 1
91 34 1
91 35 1
91 36 1
91 215 1
91 216 1
91 217 1
91 235 1
91 236 1
91 240 1
91 241 1
91 242 1
91 265 1
91 266 1
91 270 1
91 271 1
91 272 1
91 293 1
91 294 1
91 295 1
91 385 1
91 390 1
91 416 1
92 7 1
92 12 1
92 31 1
92 32 1
92 33 1
92 35 1
92 36 1
92 37 1
92 38 1
92 217 1
92 218 1
92 219 1
92 237 1
92 238 1
92 242 1
92 243 1
92 244 1
92 267 1
92 268 1
92 272 1
92 273 1
92 274 1
92 295 1
92 296 1
92 297 1
92 366 1
92 387 1
92 392 1
93 9 1
93 14 1
93 33 1
93 34 1
93 35 1
93 37 1
93 38 1
93 39 1
93 40 1
93 219 1
93 220 1
93 221 1
93 239 1
93 240 1
93 244 1
93 245 1
93 246 1
93 269 1
93 270 1
93 274 1
93 275 1
93 276 1
93 297 1
93 298 1
93 299 1
93 368 1
93 389 1
93 394 1
94 11 1
94 16 1
94 35 1
94 36 1
94 37 1
94 39 1
94 40 1
94 41 1
94 42 1
94 221 1
94 222 1
94 223 1
94 241 1
94 242 1
94 246 1
94 247 1
94 248 1
94 271 1
94 272 1
94 276 1
94 277 1
94 278 1
94 299 1
94 300 1
94 301 1
94 370 1
94 391 1
94 396 1
95 13 1
95 18 1
95 37 1
95 38 1
95 39 1
95 41 1
95 42 1
95 43 1
95 44 1
95 223 1
95 224 1
95 225 1
95 243 1
95 244 1
95 248 1
95 249 1
95 250 1
95 273 1
95 274 1
95 278 1
95 279 1
95 280 1
95 301 1
95 302 1
95 303 1
95 372 1
95 393 1
95 398 1
96 15 1
96 20 1
96 39 1
96 40 1
96 41 1
96 43 1
96 44 1
96 45 1
96 46 1
96 225 1
96 226 1
96 227 1
96 245 1
96 246 1
96 250 1
96 251 1
96 252 1
96 275 1
96 276 1
96 280 1
96 281 1
96 282 1
96 303 1
96 304 1
96 305 1
96 374 1
96 395 1
96 400 1
97 17 1
97 22 1
97 41 1
97 42 1
97 43 1
97 45 1
97 46 1
97 47 1
97 48 1
97 227 1
97 228 1
97 229 1
97 247 1
97 248 1
97 252 1
97 253 1
97 254 1
97 277 1
97 278 1
97 282 1
97 283 1
97 284 1
97 305 1
97 306 1
97 307 1
97 376 1
97 397 1
97 402 1
98 19 1
98 24 1
98 43 1
98 44 1
98 45 1
98 47 1
98 48 1
98 49 1
98 50 1
98 229 1
98 230 1
98 231 1
98 249 1
98 250 1
98 254 1
98 255 1
98 256 1
98 279 1
98 280 1
98 284 1
98 285 1
98 286 1
98 307 1
98 308 1
98 309 1
98 378 1
98 399 1
98 404 1
99 21 1
99 26 1
99 45 1
99 46 1
99 47 1
99 49 1
99 50 1
99 51 1
99 52 1
99 231 1
99 232 1
99 233 1
99 251 1
99 252 1
99 256 1
99 257 1
99 258 1
99 281 1
99 282 1
99 286 1
99 287 1
99 288 1
99 309 1
99 310 1
99 311 1
99 380 1
99 401 1
99 406 1
100 1 1
100 2 1
100 23 1
100 28 1
100 47 1
100 48 1
100 49 1
100 51 1
100 52 1
100 233 1
100 234 1
100 235 1
100 253 1
100 254 1
100 258 1
100 259 1
100 260 1
100 261 1
100 283 1
100 284 1
100 288 1
100 289 1
100 290 1
100 311 1
100 312 1
100 382 1
100 403 1
100 408 1
101 1 1
101 2 1
101 3 1
101 4 1
101 25 1
101 30 1
101 49 1
101 50 1
101 51 1
101 209 1
101 210 1
101 235 1
101 236 1
101 237 1
101 255 1
101 256 1
101 260 1
101 261 1
101 262 1
101 263 1
101 285 1
101 286 1
101 290 1
101 291 1
101 292 1
101 384 1
101 405 1
101 410 1
102 1 1
102 3 1
102 4 1
102 5 1
102 6 1
102 27 1
102 32 1
102 51 1
102 52 1
102 210 1
102 211 1
102 212 1
102 237 1
102 238 1
102 239 1
102 257 1
102 258 1
102 263 1
102 264 1
102 265 1
102 287 1
102 288 1
102 292 1
102 293 1
102 294 1
102 386 1
102 407 1
102 412 1
103 1 1
103 2 1
103 3 1
103 5 1
103 6 1
103 7 1
103 8 1
103 29 1
103 34 1
103 212 1
103 213 1
103 214 1
103 239 1
103 240 1
103 241 1
103 259 1
103 260 1
103 265 1
103 266 1
103 267 1
103 289 1
103 290 1
103 294 1
103 295 1
103 296 1
103 388 1
103 409 1
103 414 1
104 3 1
104 4 1
104 5 1
104 7 1
104 8 1
104 9 1
104 10 1
104 31 1
104 36 1
104 209 1
104 210 1
104 214 1
104 215 1
104 216 1
104 241 1
104 242 1
104 243 1
104 267 1
104 268 1
104 269 1
104 291 1
104 292 1
104 296 1
104 297 1
104 298 1
104 390 1
104 411 1
104 416 1
