%%MatrixMarket matrix coordinate integer general
% GF(4) labels 0,1,2=omega,3=omega+1; arithmetic is NOT integer arithmetic.
% Coordinate indices are 1-based; omitted entries are zero.
52 208 1040
1 4 2
1 6 1
1 14 2
1 15 1
1 16 1
1 19 3
1 79 3
1 92 3
1 103 2
1 106 1
1 109 1
1 118 1
1 119 1
1 121 2
1 123 2
1 133 1
1 134 1
1 146 2
1 148 1
1 149 2
1 150 1
2 5 2
2 7 1
2 15 2
2 16 1
2 17 1
2 20 3
2 80 3
2 93 3
2 104 2
2 107 1
2 110 1
2 119 1
2 120 1
2 122 2
2 124 2
2 134 1
2 135 1
2 147 2
2 149 1
2 150 2
2 151 1
3 6 2
3 8 1
3 16 2
3 17 1
3 18 1
3 21 3
3 79 2
3 81 3
3 94 3
3 108 1
3 111 1
3 120 1
3 121 1
3 123 2
3 125 2
3 135 1
3 136 1
3 148 2
3 150 1
3 151 2
3 152 1
4 7 2
4 9 1
4 17 2
4 18 1
4 19 1
4 22 3
4 80 2
4 82 3
4 95 3
4 109 1
4 112 1
4 121 1
4 122 1
4 124 2
4 126 2
4 136 1
4 137 1
4 149 2
4 151 1
4 152 2
4 153 1
5 8 2
5 10 1
5 18 2
5 19 1
5 20 1
5 23 3
5 81 2
5 83 3
5 96 3
5 110 1
5 113 1
5 122 1
5 123 1
5 125 2
5 127 2
5 137 1
5 138 1
5 150 2
5 152 1
5 153 2
5 154 1
6 9 2
6 11 1
6 19 2
6 20 1
6 21 1
6 24 3
6 82 2
6 84 3
6 97 3
6 111 1
6 114 1
6 123 1
6 124 1
6 126 2
6 128 2
6 138 1
6 139 1
6 151 2
6 153 1
6 154 2
6 155 1
7 10 2
7 12 1
7 20 2
7 21 1
7 22 1
7 25 3
7 83 2
7 85 3
7 98 3
7 112 1
7 115 1
7 124 1
7 125 1
7 127 2
7 129 2
7 139 1
7 140 1
7 152 2
7 154 1
7 155 2
7 156 1
8 11 2
8 13 1
8 21 2
8 22 1
8 23 1
8 26 3
8 84 2
8 86 3
8 99 3
8 113 1
8 116 1
8 125 1
8 126 1
8 128 2
8 130 2
8 131 1
8 140 1
8 141 1
8 153 2
8 155 1
8 156 2
9 1 3
9 12 2
9 14 1
9 22 2
9 23 1
9 24 1
9 85 2
9 87 3
9 100 3
9 105 2
9 114 1
9 117 1
9 126 1
9 127 1
9 129 2
9 131 2
9 132 1
9 141 1
9 142 1
9 154 2
9 156 1
10 2 3
10 13 2
10 15 1
10 23 2
10 24 1
10 25 1
10 86 2
10 88 3
10 101 3
10 106 2
10 115 1
10 118 1
10 127 1
10 128 1
10 130 2
10 131 1
10 132 2
10 133 1
10 142 1
10 143 1
10 155 2
11 3 3
11 14 2
11 16 1
11 24 2
11 25 1
11 26 1
11 87 2
11 89 3
11 102 3
11 105 2
11 107 2
11 116 1
11 119 1
11 128 1
11 129 1
11 132 1
11 133 2
11 134 1
11 143 1
11 144 1
11 156 2
12 1 1
12 4 3
12 15 2
12 17 1
12 25 2
12 26 1
12 88 2
12 90 3
12 103 3
12 106 2
12 108 2
12 117 1
12 120 1
12 129 1
12 130 1
12 131 2
12 133 1
12 134 2
12 135 1
12 144 1
12 145 1
13 1 1
13 2 1
13 5 3
13 16 2
13 18 1
13 26 2
13 89 2
13 91 3
13 104 3
13 105 1
13 107 2
13 109 2
13 118 1
13 121 1
13 130 1
13 132 2
13 134 1
13 135 2
13 136 1
13 145 1
13 146 1
14 1 2
14 2 1
14 3 1
14 6 3
14 17 2
14 19 1
14 79 3
14 90 2
14 92 3
14 105 1
14 106 1
14 108 2
14 110 2
14 119 1
14 122 1
14 133 2
14 135 1
14 136 2
14 137 1
14 146 1
14 147 1
15 2 2
15 3 1
15 4 1
15 7 3
15 18 2
15 20 1
15 80 3
15 91 2
15 93 3
15 106 1
15 107 1
15 109 2
15 111 2
15 120 1
15 123 1
15 134 2
15 136 1
15 137 2
15 138 1
15 147 1
15 148 1
16 3 2
16 4 1
16 5 1
16 8 3
16 19 2
16 21 1
16 81 3
16 92 2
16 94 3
16 107 1
16 108 1
16 110 2
16 112 2
16 121 1
16 124 1
16 135 2
16 137 1
16 138 2
16 139 1
16 148 1
16 149 1
17 4 2
17 5 1
17 6 1
17 9 3
17 20 2
17 22 1
17 82 3
17 93 2
17 95 3
17 108 1
17 109 1
17 111 2
17 113 2
17 122 1
17 125 1
17 136 2
17 138 1
17 139 2
17 140 1
17 149 1
17 150 1
18 5 2
18 6 1
18 7 1
18 10 3
18 21 2
18 23 1
18 83 3
18 94 2
18 96 3
18 109 1
18 110 1
18 112 2
18 114 2
18 123 1
18 126 1
18 137 2
18 139 1
18 140 2
18 141 1
18 150 1
18 151 1
19 6 2
19 7 1
19 8 1
19 11 3
19 22 2
19 24 1
19 84 3
19 95 2
19 97 3
19 110 1
19 111 1
19 113 2
19 115 2
19 124 1
19 127 1
19 138 2
19 140 1
19 141 2
19 142 1
19 151 1
19 152 1
20 7 2
20 8 1
20 9 1
20 12 3
20 23 2
20 25 1
20 85 3
20 96 2
20 98 3
20 111 1
20 112 1
20 114 2
20 116 2
20 125 1
20 128 1
20 139 2
20 141 1
20 142 2
20 143 1
20 152 1
20 153 1
21 8 2
21 9 1
21 10 1
21 13 3
21 24 2
21 26 1
21 86 3
21 97 2
21 99 3
21 112 1
21 113 1
21 115 2
21 117 2
21 126 1
21 129 1
21 140 2
21 142 1
21 143 2
21 144 1
21 153 1
21 154 1
22 1 1
22 9 2
22 10 1
22 11 1
22 14 3
22 25 2
22 87 3
22 98 2
22 100 3
22 113 1
22 114 1
22 116 2
22 118 2
22 127 1
22 130 1
22 141 2
22 143 1
22 144 2
22 145 1
22 154 1
22 155 1
23 2 1
23 10 2
23 11 1
23 12 1
23 15 3
23 26 2
23 88 3
23 99 2
23 101 3
23 105 1
23 114 1
23 115 1
23 117 2
23 119 2
23 128 1
23 142 2
23 144 1
23 145 2
23 146 1
23 155 1
23 156 1
24 1 2
24 3 1
24 11 2
24 12 1
24 13 1
24 16 3
24 89 3
24 100 2
24 102 3
24 106 1
24 115 1
24 116 1
24 118 2
24 120 2
24 129 1
24 131 1
24 143 2
24 145 1
24 146 2
24 147 1
24 156 1
25 2 2
25 4 1
25 12 2
25 13 1
25 14 1
25 17 3
25 90 3
25 101 2
25 103 3
25 107 1
25 116 1
25 117 1
25 119 2
25 121 2
25 130 1
25 131 1
25 132 1
25 144 2
25 146 1
25 147 2
25 148 1
26 3 2
26 5 1
26 13 2
26 14 1
26 15 1
26 18 3
26 91 3
26 102 2
26 104 3
26 105 1
26 108 1
26 117 1
26 118 1
26 120 2
26 122 2
26 132 1
26 133 1
26 145 2
26 147 1
26 148 2
26 149 1
27 3 2
27 4 3
27 5 2
27 6 2
27 17 3
27 19 1
27 106 2
27 108 1
27 109 2
27 122 2
27 123 3
27 135 2
27 136 3
27 147 2
27 149 1
27 150 2
27 183 1
27 196 1
27 207 3
28 4 2
28 5 3
28 6 2
28 7 2
28 18 3
28 20 1
28 107 2
28 109 1
28 110 2
28 123 2
28 124 3
28 136 2
28 137 3
28 148 2
28 150 1
28 151 2
28 184 1
28 197 1
28 208 3
29 5 2
29 6 3
29 7 2
29 8 2
29 19 3
29 21 1
29 108 2
29 110 1
29 111 2
29 124 2
29 125 3
29 137 2
29 138 3
29 149 2
29 151 1
29 152 2
29 183 3
29 185 1
29 198 1
30 6 2
30 7 3
30 8 2
30 9 2
30 20 3
30 22 1
30 109 2
30 111 1
30 112 2
30 125 2
30 126 3
30 138 2
30 139 3
30 150 2
30 152 1
30 153 2
30 184 3
30 186 1
30 199 1
31 7 2
31 8 3
31 9 2
31 10 2
31 21 3
31 23 1
31 110 2
31 112 1
31 113 2
31 126 2
31 127 3
31 139 2
31 140 3
31 151 2
31 153 1
31 154 2
31 185 3
31 187 1
31 200 1
32 8 2
32 9 3
32 10 2
32 11 2
32 22 3
32 24 1
32 111 2
32 113 1
32 114 2
32 127 2
32 128 3
32 140 2
32 141 3
32 152 2
32 154 1
32 155 2
32 186 3
32 188 1
32 201 1
33 9 2
33 10 3
33 11 2
33 12 2
33 23 3
33 25 1
33 112 2
33 114 1
33 115 2
33 128 2
33 129 3
33 141 2
33 142 3
33 153 2
33 155 1
33 156 2
33 187 3
33 189 1
33 202 1
34 10 2
34 11 3
34 12 2
34 13 2
34 24 3
34 26 1
34 113 2
34 115 1
34 116 2
34 129 2
34 130 3
34 131 2
34 142 2
34 143 3
34 154 2
34 156 1
34 188 3
34 190 1
34 203 1
35 1 1
35 11 2
35 12 3
35 13 2
35 14 2
35 25 3
35 105 3
35 114 2
35 116 1
35 117 2
35 130 2
35 131 1
35 132 2
35 143 2
35 144 3
35 155 2
35 189 3
35 191 1
35 204 1
36 2 1
36 12 2
36 13 3
36 14 2
36 15 2
36 26 3
36 105 2
36 106 3
36 115 2
36 117 1
36 118 2
36 132 1
36 133 2
36 144 2
36 145 3
36 156 2
36 190 3
36 192 1
36 205 1
37 1 3
37 3 1
37 13 2
37 14 3
37 15 2
37 16 2
37 106 2
37 107 3
37 116 2
37 118 1
37 119 2
37 131 2
37 133 1
37 134 2
37 145 2
37 146 3
37 191 3
37 193 1
37 206 1
38 2 3
38 4 1
38 14 2
38 15 3
38 16 2
38 17 2
38 107 2
38 108 3
38 117 2
38 119 1
38 120 2
38 132 2
38 134 1
38 135 2
38 146 2
38 147 3
38 192 3
38 194 1
38 207 1
39 3 3
39 5 1
39 15 2
39 16 3
39 17 2
39 18 2
39 108 2
39 109 3
39 118 2
39 120 1
39 121 2
39 133 2
39 135 1
39 136 2
39 147 2
39 148 3
39 193 3
39 195 1
39 208 1
40 4 3
40 6 1
40 16 2
40 17 3
40 18 2
40 19 2
40 109 2
40 110 3
40 119 2
40 121 1
40 122 2
40 134 2
40 136 1
40 137 2
40 148 2
40 149 3
40 183 1
40 194 3
40 196 1
41 5 3
41 7 1
41 17 2
41 18 3
41 19 2
41 20 2
41 110 2
41 111 3
41 120 2
41 122 1
41 123 2
41 135 2
41 137 1
41 138 2
41 149 2
41 150 3
41 184 1
41 195 3
41 197 1
42 6 3
42 8 1
42 18 2
42 19 3
42 20 2
42 21 2
42 111 2
42 112 3
42 121 2
42 123 1
42 124 2
42 136 2
42 138 1
42 139 2
42 150 2
42 151 3
42 185 1
42 196 3
42 198 1
43 7 3
43 9 1
43 19 2
43 20 3
43 21 2
43 22 2
43 112 2
43 113 3
43 122 2
43 124 1
43 125 2
43 137 2
43 139 1
43 140 2
43 151 2
43 152 3
43 186 1
43 197 3
43 199 1
44 8 3
44 10 1
44 20 2
44 21 3
44 22 2
44 23 2
44 113 2
44 114 3
44 123 2
44 125 1
44 126 2
44 138 2
44 140 1
44 141 2
44 152 2
44 153 3
44 187 1
44 198 3
44 200 1
45 9 3
45 11 1
45 21 2
45 22 3
45 23 2
45 24 2
45 114 2
45 115 3
45 124 2
45 126 1
45 127 2
45 139 2
45 141 1
45 142 2
45 153 2
45 154 3
45 188 1
45 199 3
45 201 1
46 10 3
46 12 1
46 22 2
46 23 3
46 24 2
46 25 2
46 115 2
46 116 3
46 125 2
46 127 1
46 128 2
46 140 2
46 142 1
46 143 2
46 154 2
46 155 3
46 189 1
46 200 3
46 202 1
47 11 3
47 13 1
47 23 2
47 24 3
47 25 2
47 26 2
47 116 2
47 117 3
47 126 2
47 128 1
47 129 2
47 141 2
47 143 1
47 144 2
47 155 2
47 156 3
47 190 1
47 201 3
47 203 1
48 1 2
48 12 3
48 14 1
48 24 2
48 25 3
48 26 2
48 117 2
48 118 3
48 127 2
48 129 1
48 130 2
48 131 3
48 142 2
48 144 1
48 145 2
48 156 2
48 191 1
48 202 3
48 204 1
49 1 2
49 2 2
49 13 3
49 15 1
49 25 2
49 26 3
49 105 2
49 118 2
49 119 3
49 128 2
49 130 1
49 131 2
49 132 3
49 143 2
49 145 1
49 146 2
49 192 1
49 203 3
49 205 1
50 1 3
50 2 2
50 3 2
50 14 3
50 16 1
50 26 2
50 105 1
50 106 2
50 119 2
50 120 3
50 129 2
50 132 2
50 133 3
50 144 2
50 146 1
50 147 2
50 193 1
50 204 3
50 206 1
51 1 2
51 2 3
51 3 2
51 4 2
51 15 3
51 17 1
51 106 1
51 107 2
51 120 2
51 121 3
51 130 2
51 133 2
51 134 3
51 145 2
51 147 1
51 148 2
51 194 1
51 205 3
51 207 1
52 2 2
52 3 3
52 4 2
52 5 2
52 16 3
52 18 1
52 105 2
52 107 1
52 108 2
52 121 2
52 122 3
52 134 2
52 135 3
52 146 2
52 148 1
52 149 2
52 195 1
52 206 3
52 208 1
