%%MatrixMarket matrix coordinate integer general
% Binary matrix over GF(2).
% Coordinate indices are 1-based; omitted entries are zero.
104 416 2704
1 54 1
1 75 1
1 76 1
1 78 1
1 100 1
1 101 1
1 106 1
1 123 1
1 124 1
1 126 1
1 152 1
1 153 1
1 175 1
1 201 1
1 205 1
1 206 1
1 332 1
1 334 1
1 335 1
1 336 1
1 338 1
1 357 1
1 361 1
1 362 1
2 56 1
2 77 1
2 78 1
2 80 1
2 102 1
2 103 1
2 108 1
2 125 1
2 126 1
2 128 1
2 154 1
2 155 1
2 177 1
2 203 1
2 207 1
2 208 1
2 334 1
2 336 1
2 337 1
2 338 1
2 340 1
2 359 1
2 363 1
2 364 1
3 53 1
3 58 1
3 79 1
3 80 1
3 82 1
3 104 1
3 105 1
3 110 1
3 127 1
3 128 1
3 130 1
3 156 1
3 157 1
3 158 1
3 179 1
3 205 1
3 313 1
3 314 1
3 336 1
3 338 1
3 339 1
3 340 1
3 342 1
3 361 1
4 54 1
4 55 1
4 60 1
4 81 1
4 82 1
4 84 1
4 106 1
4 107 1
4 112 1
4 129 1
4 130 1
4 132 1
4 159 1
4 160 1
4 181 1
4 207 1
4 315 1
4 316 1
4 338 1
4 340 1
4 341 1
4 342 1
4 344 1
4 363 1
5 56 1
5 57 1
5 62 1
5 83 1
5 84 1
5 86 1
5 108 1
5 109 1
5 114 1
5 131 1
5 132 1
5 134 1
5 157 1
5 161 1
5 162 1
5 183 1
5 313 1
5 317 1
5 318 1
5 340 1
5 342 1
5 343 1
5 344 1
5 346 1
6 58 1
6 59 1
6 64 1
6 85 1
6 86 1
6 88 1
6 110 1
6 111 1
6 116 1
6 133 1
6 134 1
6 136 1
6 159 1
6 163 1
6 164 1
6 185 1
6 315 1
6 319 1
6 320 1
6 342 1
6 344 1
6 345 1
6 346 1
6 348 1
7 60 1
7 61 1
7 66 1
7 87 1
7 88 1
7 90 1
7 112 1
7 113 1
7 118 1
7 135 1
7 136 1
7 138 1
7 161 1
7 165 1
7 166 1
7 187 1
7 317 1
7 321 1
7 322 1
7 344 1
7 346 1
7 347 1
7 348 1
7 350 1
8 62 1
8 63 1
8 68 1
8 89 1
8 90 1
8 92 1
8 114 1
8 115 1
8 120 1
8 137 1
8 138 1
8 140 1
8 163 1
8 167 1
8 168 1
8 189 1
8 319 1
8 323 1
8 324 1
8 346 1
8 348 1
8 349 1
8 350 1
8 352 1
9 64 1
9 65 1
9 70 1
9 91 1
9 92 1
9 94 1
9 116 1
9 117 1
9 122 1
9 139 1
9 140 1
9 142 1
9 165 1
9 169 1
9 170 1
9 191 1
9 321 1
9 325 1
9 326 1
9 348 1
9 350 1
9 351 1
9 352 1
9 354 1
10 66 1
10 67 1
10 72 1
10 93 1
10 94 1
10 96 1
10 118 1
10 119 1
10 124 1
10 141 1
10 142 1
10 144 1
10 167 1
10 171 1
10 172 1
10 193 1
10 323 1
10 327 1
10 328 1
10 350 1
10 352 1
10 353 1
10 354 1
10 356 1
11 68 1
11 69 1
11 74 1
11 95 1
11 96 1
11 98 1
11 120 1
11 121 1
11 126 1
11 143 1
11 144 1
11 146 1
11 169 1
11 173 1
11 174 1
11 195 1
11 325 1
11 329 1
11 330 1
11 352 1
11 354 1
11 355 1
11 356 1
11 358 1
12 70 1
12 71 1
12 76 1
12 97 1
12 98 1
12 100 1
12 122 1
12 123 1
12 128 1
12 145 1
12 146 1
12 148 1
12 171 1
12 175 1
12 176 1
12 197 1
12 327 1
12 331 1
12 332 1
12 354 1
12 356 1
12 357 1
12 358 1
12 360 1
13 72 1
13 73 1
13 78 1
13 99 1
13 100 1
13 102 1
13 124 1
13 125 1
13 130 1
13 147 1
13 148 1
13 150 1
13 173 1
13 177 1
13 178 1
13 199 1
13 329 1
13 333 1
13 334 1
13 356 1
13 358 1
13 359 1
13 360 1
13 362 1
14 74 1
14 75 1
14 80 1
14 101 1
14 102 1
14 104 1
14 126 1
14 127 1
14 132 1
14 149 1
14 150 1
14 152 1
14 175 1
14 179 1
14 180 1
14 201 1
14 331 1
14 335 1
14 336 1
14 358 1
14 360 1
14 361 1
14 362 1
14 364 1
15 54 1
15 76 1
15 77 1
15 82 1
15 103 1
15 104 1
15 128 1
15 129 1
15 134 1
15 151 1
15 152 1
15 154 1
15 177 1
15 181 1
15 182 1
15 203 1
15 314 1
15 333 1
15 337 1
15 338 1
15 360 1
15 362 1
15 363 1
15 364 1
16 53 1
16 54 1
16 56 1
16 78 1
16 79 1
16 84 1
16 130 1
16 131 1
16 136 1
16 153 1
16 154 1
16 156 1
16 179 1
16 183 1
16 184 1
16 205 1
16 313 1
16 314 1
16 316 1
16 335 1
16 339 1
16 340 1
16 362 1
16 364 1
17 55 1
17 56 1
17 58 1
17 80 1
17 81 1
17 86 1
17 106 1
17 132 1
17 133 1
17 138 1
17 155 1
17 156 1
17 181 1
17 185 1
17 186 1
17 207 1
17 314 1
17 315 1
17 316 1
17 318 1
17 337 1
17 341 1
17 342 1
17 364 1
18 57 1
18 58 1
18 60 1
18 82 1
18 83 1
18 88 1
18 105 1
18 106 1
18 108 1
18 134 1
18 135 1
18 140 1
18 157 1
18 183 1
18 187 1
18 188 1
18 314 1
18 316 1
18 317 1
18 318 1
18 320 1
18 339 1
18 343 1
18 344 1
19 59 1
19 60 1
19 62 1
19 84 1
19 85 1
19 90 1
19 107 1
19 108 1
19 110 1
19 136 1
19 137 1
19 142 1
19 159 1
19 185 1
19 189 1
19 190 1
19 316 1
19 318 1
19 319 1
19 320 1
19 322 1
19 341 1
19 345 1
19 346 1
20 61 1
20 62 1
20 64 1
20 86 1
20 87 1
20 92 1
20 109 1
20 110 1
20 112 1
20 138 1
20 139 1
20 144 1
20 161 1
20 187 1
20 191 1
20 192 1
20 318 1
20 320 1
20 321 1
20 322 1
20 324 1
20 343 1
20 347 1
20 348 1
21 63 1
21 64 1
21 66 1
21 88 1
21 89 1
21 94 1
21 111 1
21 112 1
21 114 1
21 140 1
21 141 1
21 146 1
21 163 1
21 189 1
21 193 1
21 194 1
21 320 1
21 322 1
21 323 1
21 324 1
21 326 1
21 345 1
21 349 1
21 350 1
22 65 1
22 66 1
22 68 1
22 90 1
22 91 1
22 96 1
22 113 1
22 114 1
22 116 1
22 142 1
22 143 1
22 148 1
22 165 1
22 191 1
22 195 1
22 196 1
22 322 1
22 324 1
22 325 1
22 326 1
22 328 1
22 347 1
22 351 1
22 352 1
23 67 1
23 68 1
23 70 1
23 92 1
23 93 1
23 98 1
23 115 1
23 116 1
23 118 1
23 144 1
23 145 1
23 150 1
23 167 1
23 193 1
23 197 1
23 198 1
23 324 1
23 326 1
23 327 1
23 328 1
23 330 1
23 349 1
23 353 1
23 354 1
24 69 1
24 70 1
24 72 1
24 94 1
24 95 1
24 100 1
24 117 1
24 118 1
24 120 1
24 146 1
24 147 1
24 152 1
24 169 1
24 195 1
24 199 1
24 200 1
24 326 1
24 328 1
24 329 1
24 330 1
24 332 1
24 351 1
24 355 1
24 356 1
25 71 1
25 72 1
25 74 1
25 96 1
25 97 1
25 102 1
25 119 1
25 120 1
25 122 1
25 148 1
25 149 1
25 154 1
25 171 1
25 197 1
25 201 1
25 202 1
25 328 1
25 330 1
25 331 1
25 332 1
25 334 1
25 353 1
25 357 1
25 358 1
26 73 1
26 74 1
26 76 1
26 98 1
26 99 1
26 104 1
26 121 1
26 122 1
26 124 1
26 150 1
26 151 1
26 156 1
26 173 1
26 199 1
26 203 1
26 204 1
26 330 1
26 332 1
26 333 1
26 334 1
26 336 1
26 355 1
26 359 1
26 360 1
27 53 1
27 54 1
27 75 1
27 77 1
27 78 1
27 99 1
27 100 1
27 102 1
27 105 1
27 106 1
27 123 1
27 125 1
27 126 1
27 151 1
27 152 1
27 154 1
27 176 1
27 202 1
27 205 1
27 331 1
27 332 1
27 333 1
27 334 1
27 335 1
27 337 1
27 338 1
27 358 1
27 361 1
28 55 1
28 56 1
28 77 1
28 79 1
28 80 1
28 101 1
28 102 1
28 104 1
28 107 1
28 108 1
28 125 1
28 127 1
28 128 1
28 153 1
28 154 1
28 156 1
28 178 1
28 204 1
28 207 1
28 333 1
28 334 1
28 335 1
28 336 1
28 337 1
28 339 1
28 340 1
28 360 1
28 363 1
29 54 1
29 57 1
29 58 1
29 79 1
29 81 1
29 82 1
29 103 1
29 104 1
29 106 1
29 109 1
29 110 1
29 127 1
29 129 1
29 130 1
29 155 1
29 156 1
29 157 1
29 180 1
29 206 1
29 313 1
29 335 1
29 336 1
29 337 1
29 338 1
29 339 1
29 341 1
29 342 1
29 362 1
30 53 1
30 54 1
30 56 1
30 59 1
30 60 1
30 81 1
30 83 1
30 84 1
30 105 1
30 106 1
30 108 1
30 111 1
30 112 1
30 129 1
30 131 1
30 132 1
30 159 1
30 182 1
30 208 1
30 315 1
30 337 1
30 338 1
30 339 1
30 340 1
30 341 1
30 343 1
30 344 1
30 364 1
31 55 1
31 56 1
31 58 1
31 61 1
31 62 1
31 83 1
31 85 1
31 86 1
31 107 1
31 108 1
31 110 1
31 113 1
31 114 1
31 131 1
31 133 1
31 134 1
31 158 1
31 161 1
31 184 1
31 314 1
31 317 1
31 339 1
31 340 1
31 341 1
31 342 1
31 343 1
31 345 1
31 346 1
32 57 1
32 58 1
32 60 1
32 63 1
32 64 1
32 85 1
32 87 1
32 88 1
32 109 1
32 110 1
32 112 1
32 115 1
32 116 1
32 133 1
32 135 1
32 136 1
32 160 1
32 163 1
32 186 1
32 316 1
32 319 1
32 341 1
32 342 1
32 343 1
32 344 1
32 345 1
32 347 1
32 348 1
33 59 1
33 60 1
33 62 1
33 65 1
33 66 1
33 87 1
33 89 1
33 90 1
33 111 1
33 112 1
33 114 1
33 117 1
33 118 1
33 135 1
33 137 1
33 138 1
33 162 1
33 165 1
33 188 1
33 318 1
33 321 1
33 343 1
33 344 1
33 345 1
33 346 1
33 347 1
33 349 1
33 350 1
34 61 1
34 62 1
34 64 1
34 67 1
34 68 1
34 89 1
34 91 1
34 92 1
34 113 1
34 114 1
34 116 1
34 119 1
34 120 1
34 137 1
34 139 1
34 140 1
34 164 1
34 167 1
34 190 1
34 320 1
34 323 1
34 345 1
34 346 1
34 347 1
34 348 1
34 349 1
34 351 1
34 352 1
35 63 1
35 64 1
35 66 1
35 69 1
35 70 1
35 91 1
35 93 1
35 94 1
35 115 1
35 116 1
35 118 1
35 121 1
35 122 1
35 139 1
35 141 1
35 142 1
35 166 1
35 169 1
35 192 1
35 322 1
35 325 1
35 347 1
35 348 1
35 349 1
35 350 1
35 351 1
35 353 1
35 354 1
36 65 1
36 66 1
36 68 1
36 71 1
36 72 1
36 93 1
36 95 1
36 96 1
36 117 1
36 118 1
36 120 1
36 123 1
36 124 1
36 141 1
36 143 1
36 144 1
36 168 1
36 171 1
36 194 1
36 324 1
36 327 1
36 349 1
36 350 1
36 351 1
36 352 1
36 353 1
36 355 1
36 356 1
37 67 1
37 68 1
37 70 1
37 73 1
37 74 1
37 95 1
37 97 1
37 98 1
37 119 1
37 120 1
37 122 1
37 125 1
37 126 1
37 143 1
37 145 1
37 146 1
37 170 1
37 173 1
37 196 1
37 326 1
37 329 1
37 351 1
37 352 1
37 353 1
37 354 1
37 355 1
37 357 1
37 358 1
38 69 1
38 70 1
38 72 1
38 75 1
38 76 1
38 97 1
38 99 1
38 100 1
38 121 1
38 122 1
38 124 1
38 127 1
38 128 1
38 145 1
38 147 1
38 148 1
38 172 1
38 175 1
38 198 1
38 328 1
38 331 1
38 353 1
38 354 1
38 355 1
38 356 1
38 357 1
38 359 1
38 360 1
39 71 1
39 72 1
39 74 1
39 77 1
39 78 1
39 99 1
39 101 1
39 102 1
39 123 1
39 124 1
39 126 1
39 129 1
39 130 1
39 147 1
39 149 1
39 150 1
39 174 1
39 177 1
39 200 1
39 330 1
39 333 1
39 355 1
39 356 1
39 357 1
39 358 1
39 359 1
39 361 1
39 362 1
40 73 1
40 74 1
40 76 1
40 79 1
40 80 1
40 101 1
40 103 1
40 104 1
40 125 1
40 126 1
40 128 1
40 131 1
40 132 1
40 149 1
40 151 1
40 152 1
40 176 1
40 179 1
40 202 1
40 332 1
40 335 1
40 357 1
40 358 1
40 359 1
40 360 1
40 361 1
40 363 1
40 364 1
41 53 1
41 54 1
41 75 1
41 76 1
41 78 1
41 81 1
41 82 1
41 103 1
41 127 1
41 128 1
41 130 1
41 133 1
41 134 1
41 151 1
41 153 1
41 154 1
41 178 1
41 181 1
41 204 1
41 313 1
41 314 1
41 334 1
41 337 1
41 359 1
41 360 1
41 361 1
41 362 1
41 363 1
42 53 1
42 55 1
42 56 1
42 77 1
42 78 1
42 80 1
42 83 1
42 84 1
42 129 1
42 130 1
42 132 1
42 135 1
42 136 1
42 153 1
42 155 1
42 156 1
42 180 1
42 183 1
42 206 1
42 313 1
42 315 1
42 316 1
42 336 1
42 339 1
42 361 1
42 362 1
42 363 1
42 364 1
43 55 1
43 57 1
43 58 1
43 79 1
43 80 1
43 82 1
43 85 1
43 86 1
43 105 1
43 106 1
43 131 1
43 132 1
43 134 1
43 137 1
43 138 1
43 155 1
43 182 1
43 185 1
43 208 1
43 313 1
43 314 1
43 315 1
43 317 1
43 318 1
43 338 1
43 341 1
43 363 1
43 364 1
44 57 1
44 59 1
44 60 1
44 81 1
44 82 1
44 84 1
44 87 1
44 88 1
44 105 1
44 107 1
44 108 1
44 133 1
44 134 1
44 136 1
44 139 1
44 140 1
44 158 1
44 184 1
44 187 1
44 313 1
44 314 1
44 315 1
44 316 1
44 317 1
44 319 1
44 320 1
44 340 1
44 343 1
45 59 1
45 61 1
45 62 1
45 83 1
45 84 1
45 86 1
45 89 1
45 90 1
45 107 1
45 109 1
45 110 1
45 135 1
45 136 1
45 138 1
45 141 1
45 142 1
45 160 1
45 186 1
45 189 1
45 315 1
45 316 1
45 317 1
45 318 1
45 319 1
45 321 1
45 322 1
45 342 1
45 345 1
46 61 1
46 63 1
46 64 1
46 85 1
46 86 1
46 88 1
46 91 1
46 92 1
46 109 1
46 111 1
46 112 1
46 137 1
46 138 1
46 140 1
46 143 1
46 144 1
46 162 1
46 188 1
46 191 1
46 317 1
46 318 1
46 319 1
46 320 1
46 321 1
46 323 1
46 324 1
46 344 1
46 347 1
47 63 1
47 65 1
47 66 1
47 87 1
47 88 1
47 90 1
47 93 1
47 94 1
47 111 1
47 113 1
47 114 1
47 139 1
47 140 1
47 142 1
47 145 1
47 146 1
47 164 1
47 190 1
47 193 1
47 319 1
47 320 1
47 321 1
47 322 1
47 323 1
47 325 1
47 326 1
47 346 1
47 349 1
48 65 1
48 67 1
48 68 1
48 89 1
48 90 1
48 92 1
48 95 1
48 96 1
48 113 1
48 115 1
48 116 1
48 141 1
48 142 1
48 144 1
48 147 1
48 148 1
48 166 1
48 192 1
48 195 1
48 321 1
48 322 1
48 323 1
48 324 1
48 325 1
48 327 1
48 328 1
48 348 1
48 351 1
49 67 1
49 69 1
49 70 1
49 91 1
49 92 1
49 94 1
49 97 1
49 98 1
49 115 1
49 117 1
49 118 1
49 143 1
49 144 1
49 146 1
49 149 1
49 150 1
49 168 1
49 194 1
49 197 1
49 323 1
49 324 1
49 325 1
49 326 1
49 327 1
49 329 1
49 330 1
49 350 1
49 353 1
50 69 1
50 71 1
50 72 1
50 93 1
50 94 1
50 96 1
50 99 1
50 100 1
50 117 1
50 119 1
50 120 1
50 145 1
50 146 1
50 148 1
50 151 1
50 152 1
50 170 1
50 196 1
50 199 1
50 325 1
50 326 1
50 327 1
50 328 1
50 329 1
50 331 1
50 332 1
50 352 1
50 355 1
51 71 1
51 73 1
51 74 1
51 95 1
51 96 1
51 98 1
51 101 1
51 102 1
51 119 1
51 121 1
51 122 1
51 147 1
51 148 1
51 150 1
51 153 1
51 154 1
51 172 1
51 198 1
51 201 1
51 327 1
51 328 1
51 329 1
51 330 1
51 331 1
51 333 1
51 334 1
51 354 1
51 357 1
52 73 1
52 75 1
52 76 1
52 97 1
52 98 1
52 100 1
52 103 1
52 104 1
52 121 1
52 123 1
52 124 1
52 149 1
52 150 1
52 152 1
52 155 1
52 156 1
52 174 1
52 200 1
52 203 1
52 329 1
52 330 1
52 331 1
52 332 1
52 333 1
52 335 1
52 336 1
52 356 1
52 359 1
53 56 1
53 79 1
53 81 1
53 99 1
53 102 1
53 103 1
53 105 1
53 124 1
53 128 1
53 131 1
53 133 1
53 151 1
53 313 1
53 316 1
53 331 1
53 336 1
53 357 1
53 358 1
53 363 1
53 383 1
53 384 1
53 409 1
53 410 1
53 414 1
54 53 1
54 58 1
54 81 1
54 83 1
54 101 1
54 104 1
54 107 1
54 126 1
54 130 1
54 133 1
54 135 1
54 153 1
54 313 1
54 315 1
54 318 1
54 333 1
54 338 1
54 359 1
54 360 1
54 385 1
54 386 1
54 411 1
54 412 1
54 416 1
55 54 1
55 55 1
55 60 1
55 83 1
55 85 1
55 103 1
55 109 1
55 128 1
55 132 1
55 135 1
55 137 1
55 155 1
55 315 1
55 317 1
55 320 1
55 335 1
55 340 1
55 361 1
55 362 1
55 366 1
55 387 1
55 388 1
55 413 1
55 414 1
56 53 1
56 56 1
56 57 1
56 62 1
56 85 1
56 87 1
56 105 1
56 111 1
56 130 1
56 134 1
56 137 1
56 139 1
56 317 1
56 319 1
56 322 1
56 337 1
56 342 1
56 363 1
56 364 1
56 368 1
56 389 1
56 390 1
56 415 1
56 416 1
57 55 1
57 58 1
57 59 1
57 64 1
57 87 1
57 89 1
57 107 1
57 113 1
57 132 1
57 136 1
57 139 1
57 141 1
57 313 1
57 314 1
57 319 1
57 321 1
57 324 1
57 339 1
57 344 1
57 365 1
57 366 1
57 370 1
57 391 1
57 392 1
58 57 1
58 60 1
58 61 1
58 66 1
58 89 1
58 91 1
58 109 1
58 115 1
58 134 1
58 138 1
58 141 1
58 143 1
58 315 1
58 316 1
58 321 1
58 323 1
58 326 1
58 341 1
58 346 1
58 367 1
58 368 1
58 372 1
58 393 1
58 394 1
59 59 1
59 62 1
59 63 1
59 68 1
59 91 1
59 93 1
59 111 1
59 117 1
59 136 1
59 140 1
59 143 1
59 145 1
59 317 1
59 318 1
59 323 1
59 325 1
59 328 1
59 343 1
59 348 1
59 369 1
59 370 1
59 374 1
59 395 1
59 396 1
60 61 1
60 64 1
60 65 1
60 70 1
60 93 1
60 95 1
60 113 1
60 119 1
60 138 1
60 142 1
60 145 1
60 147 1
60 319 1
60 320 1
60 325 1
60 327 1
60 330 1
60 345 1
60 350 1
60 371 1
60 372 1
60 376 1
60 397 1
60 398 1
61 63 1
61 66 1
61 67 1
61 72 1
61 95 1
61 97 1
61 115 1
61 121 1
61 140 1
61 144 1
61 147 1
61 149 1
61 321 1
61 322 1
61 327 1
61 329 1
61 332 1
61 347 1
61 352 1
61 373 1
61 374 1
61 378 1
61 399 1
61 400 1
62 65 1
62 68 1
62 69 1
62 74 1
62 97 1
62 99 1
62 117 1
62 123 1
62 142 1
62 146 1
62 149 1
62 151 1
62 323 1
62 324 1
62 329 1
62 331 1
62 334 1
62 349 1
62 354 1
62 375 1
62 376 1
62 380 1
62 401 1
62 402 1
63 67 1
63 70 1
63 71 1
63 76 1
63 99 1
63 101 1
63 119 1
63 125 1
63 144 1
63 148 1
63 151 1
63 153 1
63 325 1
63 326 1
63 331 1
63 333 1
63 336 1
63 351 1
63 356 1
63 377 1
63 378 1
63 382 1
63 403 1
63 404 1
64 69 1
64 72 1
64 73 1
64 78 1
64 101 1
64 103 1
64 121 1
64 127 1
64 146 1
64 150 1
64 153 1
64 155 1
64 327 1
64 328 1
64 333 1
64 335 1
64 338 1
64 353 1
64 358 1
64 379 1
64 380 1
64 384 1
64 405 1
64 406 1
65 53 1
65 71 1
65 74 1
65 75 1
65 80 1
65 103 1
65 105 1
65 123 1
65 129 1
65 148 1
65 152 1
65 155 1
65 329 1
65 330 1
65 335 1
65 337 1
65 340 1
65 355 1
65 360 1
65 381 1
65 382 1
65 386 1
65 407 1
65 408 1
66 53 1
66 55 1
66 73 1
66 76 1
66 77 1
66 82 1
66 105 1
66 107 1
66 125 1
66 131 1
66 150 1
66 154 1
66 331 1
66 332 1
66 337 1
66 339 1
66 342 1
66 357 1
66 362 1
66 383 1
66 384 1
66 388 1
66 409 1
66 410 1
67 55 1
67 57 1
67 75 1
67 78 1
67 79 1
67 84 1
67 107 1
67 109 1
67 127 1
67 133 1
67 152 1
67 156 1
67 333 1
67 334 1
67 339 1
67 341 1
67 344 1
67 359 1
67 364 1
67 385 1
67 386 1
67 390 1
67 411 1
67 412 1
68 57 1
68 59 1
68 77 1
68 80 1
68 81 1
68 86 1
68 106 1
68 109 1
68 111 1
68 129 1
68 135 1
68 154 1
68 314 1
68 335 1
68 336 1
68 341 1
68 343 1
68 346 1
68 361 1
68 387 1
68 388 1
68 392 1
68 413 1
68 414 1
69 59 1
69 61 1
69 79 1
69 82 1
69 83 1
69 88 1
69 108 1
69 111 1
69 113 1
69 131 1
69 137 1
69 156 1
69 316 1
69 337 1
69 338 1
69 343 1
69 345 1
69 348 1
69 363 1
69 389 1
69 390 1
69 394 1
69 415 1
69 416 1
70 61 1
70 63 1
70 81 1
70 84 1
70 85 1
70 90 1
70 106 1
70 110 1
70 113 1
70 115 1
70 133 1
70 139 1
70 313 1
70 318 1
70 339 1
70 340 1
70 345 1
70 347 1
70 350 1
70 365 1
70 366 1
70 391 1
70 392 1
70 396 1
71 63 1
71 65 1
71 83 1
71 86 1
71 87 1
71 92 1
71 108 1
71 112 1
71 115 1
71 117 1
71 135 1
71 141 1
71 315 1
71 320 1
71 341 1
71 342 1
71 347 1
71 349 1
71 352 1
71 367 1
71 368 1
71 393 1
71 394 1
71 398 1
72 65 1
72 67 1
72 85 1
72 88 1
72 89 1
72 94 1
72 110 1
72 114 1
72 117 1
72 119 1
72 137 1
72 143 1
72 317 1
72 322 1
72 343 1
72 344 1
72 349 1
72 351 1
72 354 1
72 369 1
72 370 1
72 395 1
72 396 1
72 400 1
73 67 1
73 69 1
73 87 1
73 90 1
73 91 1
73 96 1
73 112 1
73 116 1
73 119 1
73 121 1
73 139 1
73 145 1
73 319 1
73 324 1
73 345 1
73 346 1
73 351 1
73 353 1
73 356 1
73 371 1
73 372 1
73 397 1
73 398 1
73 402 1
74 69 1
74 71 1
74 89 1
74 92 1
74 93 1
74 98 1
74 114 1
74 118 1
74 121 1
74 123 1
74 141 1
74 147 1
74 321 1
74 326 1
74 347 1
74 348 1
74 353 1
74 355 1
74 358 1
74 373 1
74 374 1
74 399 1
74 400 1
74 404 1
75 71 1
75 73 1
75 91 1
75 94 1
75 95 1
75 100 1
75 116 1
75 120 1
75 123 1
75 125 1
75 143 1
75 149 1
75 323 1
75 328 1
75 349 1
75 350 1
75 355 1
75 357 1
75 360 1
75 375 1
75 376 1
75 401 1
75 402 1
75 406 1
76 73 1
76 75 1
76 93 1
76 96 1
76 97 1
76 102 1
76 118 1
76 122 1
76 125 1
76 127 1
76 145 1
76 151 1
76 325 1
76 330 1
76 351 1
76 352 1
76 357 1
76 359 1
76 362 1
76 377 1
76 378 1
76 403 1
76 404 1
76 408 1
77 75 1
77 77 1
77 95 1
77 98 1
77 99 1
77 104 1
77 120 1
77 124 1
77 127 1
77 129 1
77 147 1
77 153 1
77 327 1
77 332 1
77 353 1
77 354 1
77 359 1
77 361 1
77 364 1
77 379 1
77 380 1
77 405 1
77 406 1
77 410 1
78 54 1
78 77 1
78 79 1
78 97 1
78 100 1
78 101 1
78 122 1
78 126 1
78 129 1
78 131 1
78 149 1
78 155 1
78 314 1
78 329 1
78 334 1
78 355 1
78 356 1
78 361 1
78 363 1
78 381 1
78 382 1
78 407 1
78 408 1
78 412 1
79 55 1
79 56 1
79 80 1
79 82 1
79 100 1
79 101 1
79 102 1
79 104 1
79 106 1
79 123 1
79 124 1
79 127 1
79 128 1
79 132 1
79 134 1
79 152 1
79 314 1
79 315 1
79 316 1
79 332 1
79 335 1
79 336 1
79 357 1
79 364 1
79 383 1
79 409 1
79 413 1
79 414 1
80 54 1
80 57 1
80 58 1
80 82 1
80 84 1
80 102 1
80 103 1
80 104 1
80 108 1
80 125 1
80 126 1
80 129 1
80 130 1
80 134 1
80 136 1
80 154 1
80 314 1
80 316 1
80 317 1
80 318 1
80 334 1
80 337 1
80 338 1
80 359 1
80 385 1
80 411 1
80 415 1
80 416 1
81 53 1
81 54 1
81 56 1
81 59 1
81 60 1
81 84 1
81 86 1
81 104 1
81 110 1
81 127 1
81 128 1
81 131 1
81 132 1
81 136 1
81 138 1
81 156 1
81 316 1
81 318 1
81 319 1
81 320 1
81 336 1
81 339 1
81 340 1
81 361 1
81 365 1
81 366 1
81 387 1
81 413 1
82 54 1
82 55 1
82 56 1
82 58 1
82 61 1
82 62 1
82 86 1
82 88 1
82 106 1
82 112 1
82 129 1
82 130 1
82 133 1
82 134 1
82 138 1
82 140 1
82 318 1
82 320 1
82 321 1
82 322 1
82 338 1
82 341 1
82 342 1
82 363 1
82 367 1
82 368 1
82 389 1
82 415 1
83 56 1
83 57 1
83 58 1
83 60 1
83 63 1
83 64 1
83 88 1
83 90 1
83 108 1
83 114 1
83 131 1
83 132 1
83 135 1
83 136 1
83 140 1
83 142 1
83 313 1
83 320 1
83 322 1
83 323 1
83 324 1
83 340 1
83 343 1
83 344 1
83 365 1
83 369 1
83 370 1
83 391 1
84 58 1
84 59 1
84 60 1
84 62 1
84 65 1
84 66 1
84 90 1
84 92 1
84 110 1
84 116 1
84 133 1
84 134 1
84 137 1
84 138 1
84 142 1
84 144 1
84 315 1
84 322 1
84 324 1
84 325 1
84 326 1
84 342 1
84 345 1
84 346 1
84 367 1
84 371 1
84 372 1
84 393 1
85 60 1
85 61 1
85 62 1
85 64 1
85 67 1
85 68 1
85 92 1
85 94 1
85 112 1
85 118 1
85 135 1
85 136 1
85 139 1
85 140 1
85 144 1
85 146 1
85 317 1
85 324 1
85 326 1
85 327 1
85 328 1
85 344 1
85 347 1
85 348 1
85 369 1
85 373 1
85 374 1
85 395 1
86 62 1
86 63 1
86 64 1
86 66 1
86 69 1
86 70 1
86 94 1
86 96 1
86 114 1
86 120 1
86 137 1
86 138 1
86 141 1
86 142 1
86 146 1
86 148 1
86 319 1
86 326 1
86 328 1
86 329 1
86 330 1
86 346 1
86 349 1
86 350 1
86 371 1
86 375 1
86 376 1
86 397 1
87 64 1
87 65 1
87 66 1
87 68 1
87 71 1
87 72 1
87 96 1
87 98 1
87 116 1
87 122 1
87 139 1
87 140 1
87 143 1
87 144 1
87 148 1
87 150 1
87 321 1
87 328 1
87 330 1
87 331 1
87 332 1
87 348 1
87 351 1
87 352 1
87 373 1
87 377 1
87 378 1
87 399 1
88 66 1
88 67 1
88 68 1
88 70 1
88 73 1
88 74 1
88 98 1
88 100 1
88 118 1
88 124 1
88 141 1
88 142 1
88 145 1
88 146 1
88 150 1
88 152 1
88 323 1
88 330 1
88 332 1
88 333 1
88 334 1
88 350 1
88 353 1
88 354 1
88 375 1
88 379 1
88 380 1
88 401 1
89 68 1
89 69 1
89 70 1
89 72 1
89 75 1
89 76 1
89 100 1
89 102 1
89 120 1
89 126 1
89 143 1
89 144 1
89 147 1
89 148 1
89 152 1
89 154 1
89 325 1
89 332 1
89 334 1
89 335 1
89 336 1
89 352 1
89 355 1
89 356 1
89 377 1
89 381 1
89 382 1
89 403 1
90 70 1
90 71 1
90 72 1
90 74 1
90 77 1
90 78 1
90 102 1
90 104 1
90 122 1
90 128 1
90 145 1
90 146 1
90 149 1
90 150 1
90 154 1
90 156 1
90 327 1
90 334 1
90 336 1
90 337 1
90 338 1
90 354 1
90 357 1
90 358 1
90 379 1
90 383 1
90 384 1
90 405 1
91 54 1
91 72 1
91 73 1
91 74 1
91 76 1
91 79 1
91 80 1
91 104 1
91 106 1
91 124 1
91 130 1
91 147 1
91 148 1
91 151 1
91 152 1
91 156 1
91 329 1
91 336 1
91 338 1
91 339 1
91 340 1
91 356 1
91 359 1
91 360 1
91 381 1
91 385 1
91 386 1
91 407 1
92 54 1
92 56 1
92 74 1
92 75 1
92 76 1
92 78 1
92 81 1
92 82 1
92 106 1
92 108 1
92 126 1
92 132 1
92 149 1
92 150 1
92 153 1
92 154 1
92 331 1
92 338 1
92 340 1
92 341 1
92 342 1
92 358 1
92 361 1
92 362 1
92 383 1
92 387 1
92 388 1
92 409 1
93 56 1
93 58 1
93 76 1
93 77 1
93 78 1
93 80 1
93 83 1
93 84 1
93 108 1
93 110 1
93 128 1
93 134 1
93 151 1
93 152 1
93 155 1
93 156 1
93 333 1
93 340 1
93 342 1
93 343 1
93 344 1
93 360 1
93 363 1
93 364 1
93 385 1
93 389 1
93 390 1
93 411 1
94 58 1
94 60 1
94 78 1
94 79 1
94 80 1
94 82 1
94 85 1
94 86 1
94 105 1
94 106 1
94 110 1
94 112 1
94 130 1
94 136 1
94 153 1
94 154 1
94 313 1
94 314 1
94 335 1
94 342 1
94 344 1
94 345 1
94 346 1
94 362 1
94 387 1
94 391 1
94 392 1
94 413 1
95 60 1
95 62 1
95 80 1
95 81 1
95 82 1
95 84 1
95 87 1
95 88 1
95 107 1
95 108 1
95 112 1
95 114 1
95 132 1
95 138 1
95 155 1
95 156 1
95 315 1
95 316 1
95 337 1
95 344 1
95 346 1
95 347 1
95 348 1
95 364 1
95 389 1
95 393 1
95 394 1
95 415 1
96 62 1
96 64 1
96 82 1
96 83 1
96 84 1
96 86 1
96 89 1
96 90 1
96 105 1
96 106 1
96 109 1
96 110 1
96 114 1
96 116 1
96 134 1
96 140 1
96 314 1
96 317 1
96 318 1
96 339 1
96 346 1
96 348 1
96 349 1
96 350 1
96 365 1
96 391 1
96 395 1
96 396 1
97 64 1
97 66 1
97 84 1
97 85 1
97 86 1
97 88 1
97 91 1
97 92 1
97 107 1
97 108 1
97 111 1
97 112 1
97 116 1
97 118 1
97 136 1
97 142 1
97 316 1
97 319 1
97 320 1
97 341 1
97 348 1
97 350 1
97 351 1
97 352 1
97 367 1
97 393 1
97 397 1
97 398 1
98 66 1
98 68 1
98 86 1
98 87 1
98 88 1
98 90 1
98 93 1
98 94 1
98 109 1
98 110 1
98 113 1
98 114 1
98 118 1
98 120 1
98 138 1
98 144 1
98 318 1
98 321 1
98 322 1
98 343 1
98 350 1
98 352 1
98 353 1
98 354 1
98 369 1
98 395 1
98 399 1
98 400 1
99 68 1
99 70 1
99 88 1
99 89 1
99 90 1
99 92 1
99 95 1
99 96 1
99 111 1
99 112 1
99 115 1
99 116 1
99 120 1
99 122 1
99 140 1
99 146 1
99 320 1
99 323 1
99 324 1
99 345 1
99 352 1
99 354 1
99 355 1
99 356 1
99 371 1
99 397 1
99 401 1
99 402 1
100 70 1
100 72 1
100 90 1
100 91 1
100 92 1
100 94 1
100 97 1
100 98 1
100 113 1
100 114 1
100 117 1
100 118 1
100 122 1
100 124 1
100 142 1
100 148 1
100 322 1
100 325 1
100 326 1
100 347 1
100 354 1
100 356 1
100 357 1
100 358 1
100 373 1
100 399 1
100 403 1
100 404 1
101 72 1
101 74 1
101 92 1
101 93 1
101 94 1
101 96 1
101 99 1
101 100 1
101 115 1
101 116 1
101 119 1
101 120 1
101 124 1
101 126 1
101 144 1
101 150 1
101 324 1
101 327 1
101 328 1
101 349 1
101 356 1
101 358 1
101 359 1
101 360 1
101 375 1
101 401 1
101 405 1
101 406 1
102 74 1
102 76 1
102 94 1
102 95 1
102 96 1
102 98 1
102 101 1
102 102 1
102 117 1
102 118 1
102 121 1
102 122 1
102 126 1
102 128 1
102 146 1
102 152 1
102 326 1
102 329 1
102 330 1
102 351 1
102 358 1
102 360 1
102 361 1
102 362 1
102 377 1
102 403 1
102 407 1
102 408 1
103 76 1
103 78 1
103 96 1
103 97 1
103 98 1
103 100 1
103 103 1
103 104 1
103 119 1
103 120 1
103 123 1
103 124 1
103 128 1
103 130 1
103 148 1
103 154 1
103 328 1
103 331 1
103 332 1
103 353 1
103 360 1
103 362 1
103 363 1
103 364 1
103 379 1
103 405 1
103 409 1
103 410 1
104 53 1
104 54 1
104 78 1
104 80 1
104 98 1
104 99 1
104 100 1
104 102 1
104 121 1
104 122 1
104 125 1
104 126 1
104 130 1
104 132 1
104 150 1
104 156 1
104 313 1
104 314 1
104 330 1
104 333 1
104 334 1
104 355 1
104 362 1
104 364 1
104 381 1
104 407 1
104 411 1
104 412 1
