%%MatrixMarket matrix coordinate integer general
% GF(4) labels 0,1,2=omega,3=omega+1; arithmetic is NOT integer arithmetic.
% Coordinate indices are 1-based; omitted entries are zero.
52 208 1040
1 27 2
1 38 3
1 39 2
1 50 2
1 51 1
1 53 2
1 62 3
1 63 2
1 76 2
1 77 1
1 88 1
1 101 1
1 103 3
1 166 2
1 167 2
1 168 3
1 169 2
1 179 1
1 181 3
2 28 2
2 39 3
2 40 2
2 51 2
2 52 1
2 54 2
2 63 3
2 64 2
2 77 2
2 78 1
2 89 1
2 102 1
2 104 3
2 167 2
2 168 2
2 169 3
2 170 2
2 180 1
2 182 3
3 27 1
3 29 2
3 40 3
3 41 2
3 52 2
3 53 1
3 55 2
3 64 3
3 65 2
3 78 2
3 79 3
3 90 1
3 103 1
3 157 3
3 168 2
3 169 2
3 170 3
3 171 2
3 181 1
4 27 2
4 28 1
4 30 2
4 41 3
4 42 2
4 53 2
4 54 1
4 56 2
4 65 3
4 66 2
4 80 3
4 91 1
4 104 1
4 158 3
4 169 2
4 170 2
4 171 3
4 172 2
4 182 1
5 28 2
5 29 1
5 31 2
5 42 3
5 43 2
5 54 2
5 55 1
5 57 2
5 66 3
5 67 2
5 79 1
5 81 3
5 92 1
5 157 1
5 159 3
5 170 2
5 171 2
5 172 3
5 173 2
6 29 2
6 30 1
6 32 2
6 43 3
6 44 2
6 55 2
6 56 1
6 58 2
6 67 3
6 68 2
6 80 1
6 82 3
6 93 1
6 158 1
6 160 3
6 171 2
6 172 2
6 173 3
6 174 2
7 30 2
7 31 1
7 33 2
7 44 3
7 45 2
7 56 2
7 57 1
7 59 2
7 68 3
7 69 2
7 81 1
7 83 3
7 94 1
7 159 1
7 161 3
7 172 2
7 173 2
7 174 3
7 175 2
8 31 2
8 32 1
8 34 2
8 45 3
8 46 2
8 57 2
8 58 1
8 60 2
8 69 3
8 70 2
8 82 1
8 84 3
8 95 1
8 160 1
8 162 3
8 173 2
8 174 2
8 175 3
8 176 2
9 32 2
9 33 1
9 35 2
9 46 3
9 47 2
9 58 2
9 59 1
9 61 2
9 70 3
9 71 2
9 83 1
9 85 3
9 96 1
9 161 1
9 163 3
9 174 2
9 175 2
9 176 3
9 177 2
10 33 2
10 34 1
10 36 2
10 47 3
10 48 2
10 59 2
10 60 1
10 62 2
10 71 3
10 72 2
10 84 1
10 86 3
10 97 1
10 162 1
10 164 3
10 175 2
10 176 2
10 177 3
10 178 2
11 34 2
11 35 1
11 37 2
11 48 3
11 49 2
11 60 2
11 61 1
11 63 2
11 72 3
11 73 2
11 85 1
11 87 3
11 98 1
11 163 1
11 165 3
11 176 2
11 177 2
11 178 3
11 179 2
12 35 2
12 36 1
12 38 2
12 49 3
12 50 2
12 61 2
12 62 1
12 64 2
12 73 3
12 74 2
12 86 1
12 88 3
12 99 1
12 164 1
12 166 3
12 177 2
12 178 2
12 179 3
12 180 2
13 36 2
13 37 1
13 39 2
13 50 3
13 51 2
13 62 2
13 63 1
13 65 2
13 74 3
13 75 2
13 87 1
13 89 3
13 100 1
13 165 1
13 167 3
13 178 2
13 179 2
13 180 3
13 181 2
14 37 2
14 38 1
14 40 2
14 51 3
14 52 2
14 63 2
14 64 1
14 66 2
14 75 3
14 76 2
14 88 1
14 90 3
14 101 1
14 166 1
14 168 3
14 179 2
14 180 2
14 181 3
14 182 2
15 27 2
15 38 2
15 39 1
15 41 2
15 52 3
15 64 2
15 65 1
15 67 2
15 76 3
15 77 2
15 89 1
15 91 3
15 102 1
15 157 2
15 167 1
15 169 3
15 180 2
15 181 2
15 182 3
16 27 3
16 28 2
16 39 2
16 40 1
16 42 2
16 65 2
16 66 1
16 68 2
16 77 3
16 78 2
16 90 1
16 92 3
16 103 1
16 157 3
16 158 2
16 168 1
16 170 3
16 181 2
16 182 2
17 28 3
17 29 2
17 40 2
17 41 1
17 43 2
17 53 2
17 66 2
17 67 1
17 69 2
17 78 3
17 91 1
17 93 3
17 104 1
17 157 2
17 158 3
17 159 2
17 169 1
17 171 3
17 182 2
18 29 3
18 30 2
18 41 2
18 42 1
18 44 2
18 53 3
18 54 2
18 67 2
18 68 1
18 70 2
18 79 1
18 92 1
18 94 3
18 157 2
18 158 2
18 159 3
18 160 2
18 170 1
18 172 3
19 30 3
19 31 2
19 42 2
19 43 1
19 45 2
19 54 3
19 55 2
19 68 2
19 69 1
19 71 2
19 80 1
19 93 1
19 95 3
19 158 2
19 159 2
19 160 3
19 161 2
19 171 1
19 173 3
20 31 3
20 32 2
20 43 2
20 44 1
20 46 2
20 55 3
20 56 2
20 69 2
20 70 1
20 72 2
20 81 1
20 94 1
20 96 3
20 159 2
20 160 2
20 161 3
20 162 2
20 172 1
20 174 3
21 32 3
21 33 2
21 44 2
21 45 1
21 47 2
21 56 3
21 57 2
21 70 2
21 71 1
21 73 2
21 82 1
21 95 1
21 97 3
21 160 2
21 161 2
21 162 3
21 163 2
21 173 1
21 175 3
22 33 3
22 34 2
22 45 2
22 46 1
22 48 2
22 57 3
22 58 2
22 71 2
22 72 1
22 74 2
22 83 1
22 96 1
22 98 3
22 161 2
22 162 2
22 163 3
22 164 2
22 174 1
22 176 3
23 34 3
23 35 2
23 46 2
23 47 1
23 49 2
23 58 3
23 59 2
23 72 2
23 73 1
23 75 2
23 84 1
23 97 1
23 99 3
23 162 2
23 163 2
23 164 3
23 165 2
23 175 1
23 177 3
24 35 3
24 36 2
24 47 2
24 48 1
24 50 2
24 59 3
24 60 2
24 73 2
24 74 1
24 76 2
24 85 1
24 98 1
24 100 3
24 163 2
24 164 2
24 165 3
24 166 2
24 176 1
24 178 3
25 36 3
25 37 2
25 48 2
25 49 1
25 51 2
25 60 3
25 61 2
25 74 2
25 75 1
25 77 2
25 86 1
25 99 1
25 101 3
25 164 2
25 165 2
25 166 3
25 167 2
25 177 1
25 179 3
26 37 3
26 38 2
26 49 2
26 50 1
26 52 2
26 61 3
26 62 2
26 75 2
26 76 1
26 78 2
26 87 1
26 100 1
26 102 3
26 165 2
26 166 2
26 167 3
26 168 2
26 178 1
26 180 3
27 28 2
27 40 1
27 41 1
27 50 1
27 51 2
27 52 1
27 53 1
27 62 2
27 64 2
27 66 1
27 67 1
27 76 1
27 157 1
27 158 2
27 166 1
27 168 2
27 179 3
27 182 1
27 192 3
27 205 3
27 207 2
28 27 1
28 29 2
28 41 1
28 42 1
28 51 1
28 52 2
28 54 1
28 63 2
28 65 2
28 67 1
28 68 1
28 77 1
28 157 1
28 158 1
28 159 2
28 167 1
28 169 2
28 180 3
28 193 3
28 206 3
28 208 2
29 27 2
29 28 1
29 30 2
29 42 1
29 43 1
29 52 1
29 55 1
29 64 2
29 66 2
29 68 1
29 69 1
29 78 1
29 158 1
29 159 1
29 160 2
29 168 1
29 170 2
29 181 3
29 183 2
29 194 3
29 207 3
30 27 1
30 28 2
30 29 1
30 31 2
30 43 1
30 44 1
30 53 1
30 56 1
30 65 2
30 67 2
30 69 1
30 70 1
30 159 1
30 160 1
30 161 2
30 169 1
30 171 2
30 182 3
30 184 2
30 195 3
30 208 3
31 28 1
31 29 2
31 30 1
31 32 2
31 44 1
31 45 1
31 54 1
31 57 1
31 66 2
31 68 2
31 70 1
31 71 1
31 157 3
31 160 1
31 161 1
31 162 2
31 170 1
31 172 2
31 183 3
31 185 2
31 196 3
32 29 1
32 30 2
32 31 1
32 33 2
32 45 1
32 46 1
32 55 1
32 58 1
32 67 2
32 69 2
32 71 1
32 72 1
32 158 3
32 161 1
32 162 1
32 163 2
32 171 1
32 173 2
32 184 3
32 186 2
32 197 3
33 30 1
33 31 2
33 32 1
33 34 2
33 46 1
33 47 1
33 56 1
33 59 1
33 68 2
33 70 2
33 72 1
33 73 1
33 159 3
33 162 1
33 163 1
33 164 2
33 172 1
33 174 2
33 185 3
33 187 2
33 198 3
34 31 1
34 32 2
34 33 1
34 35 2
34 47 1
34 48 1
34 57 1
34 60 1
34 69 2
34 71 2
34 73 1
34 74 1
34 160 3
34 163 1
34 164 1
34 165 2
34 173 1
34 175 2
34 186 3
34 188 2
34 199 3
35 32 1
35 33 2
35 34 1
35 36 2
35 48 1
35 49 1
35 58 1
35 61 1
35 70 2
35 72 2
35 74 1
35 75 1
35 161 3
35 164 1
35 165 1
35 166 2
35 174 1
35 176 2
35 187 3
35 189 2
35 200 3
36 33 1
36 34 2
36 35 1
36 37 2
36 49 1
36 50 1
36 59 1
36 62 1
36 71 2
36 73 2
36 75 1
36 76 1
36 162 3
36 165 1
36 166 1
36 167 2
36 175 1
36 177 2
36 188 3
36 190 2
36 201 3
37 34 1
37 35 2
37 36 1
37 38 2
37 50 1
37 51 1
37 60 1
37 63 1
37 72 2
37 74 2
37 76 1
37 77 1
37 163 3
37 166 1
37 167 1
37 168 2
37 176 1
37 178 2
37 189 3
37 191 2
37 202 3
38 35 1
38 36 2
38 37 1
38 39 2
38 51 1
38 52 1
38 61 1
38 64 1
38 73 2
38 75 2
38 77 1
38 78 1
38 164 3
38 167 1
38 168 1
38 169 2
38 177 1
38 179 2
38 190 3
38 192 2
38 203 3
39 27 1
39 36 1
39 37 2
39 38 1
39 40 2
39 52 1
39 53 1
39 62 1
39 65 1
39 74 2
39 76 2
39 78 1
39 165 3
39 168 1
39 169 1
39 170 2
39 178 1
39 180 2
39 191 3
39 193 2
39 204 3
40 27 1
40 28 1
40 37 1
40 38 2
40 39 1
40 41 2
40 53 1
40 54 1
40 63 1
40 66 1
40 75 2
40 77 2
40 166 3
40 169 1
40 170 1
40 171 2
40 179 1
40 181 2
40 192 3
40 194 2
40 205 3
41 28 1
41 29 1
41 38 1
41 39 2
41 40 1
41 42 2
41 54 1
41 55 1
41 64 1
41 67 1
41 76 2
41 78 2
41 167 3
41 170 1
41 171 1
41 172 2
41 180 1
41 182 2
41 193 3
41 195 2
41 206 3
42 29 1
42 30 1
42 39 1
42 40 2
42 41 1
42 43 2
42 53 2
42 55 1
42 56 1
42 65 1
42 68 1
42 77 2
42 157 2
42 168 3
42 171 1
42 172 1
42 173 2
42 181 1
42 194 3
42 196 2
42 207 3
43 30 1
43 31 1
43 40 1
43 41 2
43 42 1
43 44 2
43 54 2
43 56 1
43 57 1
43 66 1
43 69 1
43 78 2
43 158 2
43 169 3
43 172 1
43 173 1
43 174 2
43 182 1
43 195 3
43 197 2
43 208 3
44 31 1
44 32 1
44 41 1
44 42 2
44 43 1
44 45 2
44 53 2
44 55 2
44 57 1
44 58 1
44 67 1
44 70 1
44 157 1
44 159 2
44 170 3
44 173 1
44 174 1
44 175 2
44 183 3
44 196 3
44 198 2
45 32 1
45 33 1
45 42 1
45 43 2
45 44 1
45 46 2
45 54 2
45 56 2
45 58 1
45 59 1
45 68 1
45 71 1
45 158 1
45 160 2
45 171 3
45 174 1
45 175 1
45 176 2
45 184 3
45 197 3
45 199 2
46 33 1
46 34 1
46 43 1
46 44 2
46 45 1
46 47 2
46 55 2
46 57 2
46 59 1
46 60 1
46 69 1
46 72 1
46 159 1
46 161 2
46 172 3
46 175 1
46 176 1
46 177 2
46 185 3
46 198 3
46 200 2
47 34 1
47 35 1
47 44 1
47 45 2
47 46 1
47 48 2
47 56 2
47 58 2
47 60 1
47 61 1
47 70 1
47 73 1
47 160 1
47 162 2
47 173 3
47 176 1
47 177 1
47 178 2
47 186 3
47 199 3
47 201 2
48 35 1
48 36 1
48 45 1
48 46 2
48 47 1
48 49 2
48 57 2
48 59 2
48 61 1
48 62 1
48 71 1
48 74 1
48 161 1
48 163 2
48 174 3
48 177 1
48 178 1
48 179 2
48 187 3
48 200 3
48 202 2
49 36 1
49 37 1
49 46 1
49 47 2
49 48 1
49 50 2
49 58 2
49 60 2
49 62 1
49 63 1
49 72 1
49 75 1
49 162 1
49 164 2
49 175 3
49 178 1
49 179 1
49 180 2
49 188 3
49 201 3
49 203 2
50 37 1
50 38 1
50 47 1
50 48 2
50 49 1
50 51 2
50 59 2
50 61 2
50 63 1
50 64 1
50 73 1
50 76 1
50 163 1
50 165 2
50 176 3
50 179 1
50 180 1
50 181 2
50 189 3
50 202 3
50 204 2
51 38 1
51 39 1
51 48 1
51 49 2
51 50 1
51 52 2
51 60 2
51 62 2
51 64 1
51 65 1
51 74 1
51 77 1
51 164 1
51 166 2
51 177 3
51 180 1
51 181 1
51 182 2
51 190 3
51 203 3
51 205 2
52 27 2
52 39 1
52 40 1
52 49 1
52 50 2
52 51 1
52 61 2
52 63 2
52 65 1
52 66 1
52 75 1
52 78 1
52 157 2
52 165 1
52 167 2
52 178 3
52 181 1
52 182 1
52 191 3
52 204 3
52 206 2
