%%MatrixMarket matrix coordinate integer general
% Binary matrix over GF(2).
% Coordinate indices are 1-based; omitted entries are zero.
384 1024 3264
1 2 1
1 129 1
1 257 1
1 385 1
1 513 1
1 641 1
1 769 1
1 897 1
2 1 1
2 2 1
2 130 1
2 258 1
2 386 1
2 514 1
2 642 1
2 770 1
2 898 1
3 4 1
3 131 1
3 259 1
3 387 1
3 515 1
3 643 1
3 771 1
3 899 1
4 3 1
4 4 1
4 132 1
4 260 1
4 388 1
4 516 1
4 644 1
4 772 1
4 900 1
5 6 1
5 133 1
5 261 1
5 389 1
5 517 1
5 645 1
5 773 1
5 901 1
6 5 1
6 6 1
6 134 1
6 262 1
6 390 1
6 518 1
6 646 1
6 774 1
6 902 1
7 8 1
7 135 1
7 263 1
7 391 1
7 519 1
7 647 1
7 775 1
7 903 1
8 7 1
8 8 1
8 136 1
8 264 1
8 392 1
8 520 1
8 648 1
8 776 1
8 904 1
9 10 1
9 137 1
9 265 1
9 393 1
9 521 1
9 649 1
9 777 1
9 905 1
10 9 1
10 10 1
10 138 1
10 266 1
10 394 1
10 522 1
10 650 1
10 778 1
10 906 1
11 12 1
11 139 1
11 267 1
11 395 1
11 523 1
11 651 1
11 779 1
11 907 1
12 11 1
12 12 1
12 140 1
12 268 1
12 396 1
12 524 1
12 652 1
12 780 1
12 908 1
13 14 1
13 141 1
13 269 1
13 397 1
13 525 1
13 653 1
13 781 1
13 909 1
14 13 1
14 14 1
14 142 1
14 270 1
14 398 1
14 526 1
14 654 1
14 782 1
14 910 1
15 16 1
15 143 1
15 271 1
15 399 1
15 527 1
15 655 1
15 783 1
15 911 1
16 15 1
16 16 1
16 144 1
16 272 1
16 400 1
16 528 1
16 656 1
16 784 1
16 912 1
17 18 1
17 145 1
17 273 1
17 401 1
17 529 1
17 657 1
17 785 1
17 913 1
18 17 1
18 18 1
18 146 1
18 274 1
18 402 1
18 530 1
18 658 1
18 786 1
18 914 1
19 20 1
19 147 1
19 275 1
19 403 1
19 531 1
19 659 1
19 787 1
19 915 1
20 19 1
20 20 1
20 148 1
20 276 1
20 404 1
20 532 1
20 660 1
20 788 1
20 916 1
21 22 1
21 149 1
21 277 1
21 405 1
21 533 1
21 661 1
21 789 1
21 917 1
22 21 1
22 22 1
22 150 1
22 278 1
22 406 1
22 534 1
22 662 1
22 790 1
22 918 1
23 24 1
23 151 1
23 279 1
23 407 1
23 535 1
23 663 1
23 791 1
23 919 1
24 23 1
24 24 1
24 152 1
24 280 1
24 408 1
24 536 1
24 664 1
24 792 1
24 920 1
25 26 1
25 153 1
25 281 1
25 409 1
25 537 1
25 665 1
25 793 1
25 921 1
26 25 1
26 26 1
26 154 1
26 282 1
26 410 1
26 538 1
26 666 1
26 794 1
26 922 1
27 28 1
27 155 1
27 283 1
27 411 1
27 539 1
27 667 1
27 795 1
27 923 1
28 27 1
28 28 1
28 156 1
28 284 1
28 412 1
28 540 1
28 668 1
28 796 1
28 924 1
29 30 1
29 157 1
29 285 1
29 413 1
29 541 1
29 669 1
29 797 1
29 925 1
30 29 1
30 30 1
30 158 1
30 286 1
30 414 1
30 542 1
30 670 1
30 798 1
30 926 1
31 32 1
31 159 1
31 287 1
31 415 1
31 543 1
31 671 1
31 799 1
31 927 1
32 31 1
32 32 1
32 160 1
32 288 1
32 416 1
32 544 1
32 672 1
32 800 1
32 928 1
33 34 1
33 161 1
33 289 1
33 417 1
33 545 1
33 673 1
33 801 1
33 929 1
34 33 1
34 34 1
34 162 1
34 290 1
34 418 1
34 546 1
34 674 1
34 802 1
34 930 1
35 36 1
35 163 1
35 291 1
35 419 1
35 547 1
35 675 1
35 803 1
35 931 1
36 35 1
36 36 1
36 164 1
36 292 1
36 420 1
36 548 1
36 676 1
36 804 1
36 932 1
37 38 1
37 165 1
37 293 1
37 421 1
37 549 1
37 677 1
37 805 1
37 933 1
38 37 1
38 38 1
38 166 1
38 294 1
38 422 1
38 550 1
38 678 1
38 806 1
38 934 1
39 40 1
39 167 1
39 295 1
39 423 1
39 551 1
39 679 1
39 807 1
39 935 1
40 39 1
40 40 1
40 168 1
40 296 1
40 424 1
40 552 1
40 680 1
40 808 1
40 936 1
41 42 1
41 169 1
41 297 1
41 425 1
41 553 1
41 681 1
41 809 1
41 937 1
42 41 1
42 42 1
42 170 1
42 298 1
42 426 1
42 554 1
42 682 1
42 810 1
42 938 1
43 44 1
43 171 1
43 299 1
43 427 1
43 555 1
43 683 1
43 811 1
43 939 1
44 43 1
44 44 1
44 172 1
44 300 1
44 428 1
44 556 1
44 684 1
44 812 1
44 940 1
45 46 1
45 173 1
45 301 1
45 429 1
45 557 1
45 685 1
45 813 1
45 941 1
46 45 1
46 46 1
46 174 1
46 302 1
46 430 1
46 558 1
46 686 1
46 814 1
46 942 1
47 48 1
47 175 1
47 303 1
47 431 1
47 559 1
47 687 1
47 815 1
47 943 1
48 47 1
48 48 1
48 176 1
48 304 1
48 432 1
48 560 1
48 688 1
48 816 1
48 944 1
49 50 1
49 177 1
49 305 1
49 433 1
49 561 1
49 689 1
49 817 1
49 945 1
50 49 1
50 50 1
50 178 1
50 306 1
50 434 1
50 562 1
50 690 1
50 818 1
50 946 1
51 52 1
51 179 1
51 307 1
51 435 1
51 563 1
51 691 1
51 819 1
51 947 1
52 51 1
52 52 1
52 180 1
52 308 1
52 436 1
52 564 1
52 692 1
52 820 1
52 948 1
53 54 1
53 181 1
53 309 1
53 437 1
53 565 1
53 693 1
53 821 1
53 949 1
54 53 1
54 54 1
54 182 1
54 310 1
54 438 1
54 566 1
54 694 1
54 822 1
54 950 1
55 56 1
55 183 1
55 311 1
55 439 1
55 567 1
55 695 1
55 823 1
55 951 1
56 55 1
56 56 1
56 184 1
56 312 1
56 440 1
56 568 1
56 696 1
56 824 1
56 952 1
57 58 1
57 185 1
57 313 1
57 441 1
57 569 1
57 697 1
57 825 1
57 953 1
58 57 1
58 58 1
58 186 1
58 314 1
58 442 1
58 570 1
58 698 1
58 826 1
58 954 1
59 60 1
59 187 1
59 315 1
59 443 1
59 571 1
59 699 1
59 827 1
59 955 1
60 59 1
60 60 1
60 188 1
60 316 1
60 444 1
60 572 1
60 700 1
60 828 1
60 956 1
61 62 1
61 189 1
61 317 1
61 445 1
61 573 1
61 701 1
61 829 1
61 957 1
62 61 1
62 62 1
62 190 1
62 318 1
62 446 1
62 574 1
62 702 1
62 830 1
62 958 1
63 64 1
63 191 1
63 319 1
63 447 1
63 575 1
63 703 1
63 831 1
63 959 1
64 63 1
64 64 1
64 192 1
64 320 1
64 448 1
64 576 1
64 704 1
64 832 1
64 960 1
65 66 1
65 193 1
65 321 1
65 449 1
65 577 1
65 705 1
65 833 1
65 961 1
66 65 1
66 66 1
66 194 1
66 322 1
66 450 1
66 578 1
66 706 1
66 834 1
66 962 1
67 68 1
67 195 1
67 323 1
67 451 1
67 579 1
67 707 1
67 835 1
67 963 1
68 67 1
68 68 1
68 196 1
68 324 1
68 452 1
68 580 1
68 708 1
68 836 1
68 964 1
69 70 1
69 197 1
69 325 1
69 453 1
69 581 1
69 709 1
69 837 1
69 965 1
70 69 1
70 70 1
70 198 1
70 326 1
70 454 1
70 582 1
70 710 1
70 838 1
70 966 1
71 72 1
71 199 1
71 327 1
71 455 1
71 583 1
71 711 1
71 839 1
71 967 1
72 71 1
72 72 1
72 200 1
72 328 1
72 456 1
72 584 1
72 712 1
72 840 1
72 968 1
73 74 1
73 201 1
73 329 1
73 457 1
73 585 1
73 713 1
73 841 1
73 969 1
74 73 1
74 74 1
74 202 1
74 330 1
74 458 1
74 586 1
74 714 1
74 842 1
74 970 1
75 76 1
75 203 1
75 331 1
75 459 1
75 587 1
75 715 1
75 843 1
75 971 1
76 75 1
76 76 1
76 204 1
76 332 1
76 460 1
76 588 1
76 716 1
76 844 1
76 972 1
77 78 1
77 205 1
77 333 1
77 461 1
77 589 1
77 717 1
77 845 1
77 973 1
78 77 1
78 78 1
78 206 1
78 334 1
78 462 1
78 590 1
78 718 1
78 846 1
78 974 1
79 80 1
79 207 1
79 335 1
79 463 1
79 591 1
79 719 1
79 847 1
79 975 1
80 79 1
80 80 1
80 208 1
80 336 1
80 464 1
80 592 1
80 720 1
80 848 1
80 976 1
81 82 1
81 209 1
81 337 1
81 465 1
81 593 1
81 721 1
81 849 1
81 977 1
82 81 1
82 82 1
82 210 1
82 338 1
82 466 1
82 594 1
82 722 1
82 850 1
82 978 1
83 84 1
83 211 1
83 339 1
83 467 1
83 595 1
83 723 1
83 851 1
83 979 1
84 83 1
84 84 1
84 212 1
84 340 1
84 468 1
84 596 1
84 724 1
84 852 1
84 980 1
85 86 1
85 213 1
85 341 1
85 469 1
85 597 1
85 725 1
85 853 1
85 981 1
86 85 1
86 86 1
86 214 1
86 342 1
86 470 1
86 598 1
86 726 1
86 854 1
86 982 1
87 88 1
87 215 1
87 343 1
87 471 1
87 599 1
87 727 1
87 855 1
87 983 1
88 87 1
88 88 1
88 216 1
88 344 1
88 472 1
88 600 1
88 728 1
88 856 1
88 984 1
89 90 1
89 217 1
89 345 1
89 473 1
89 601 1
89 729 1
89 857 1
89 985 1
90 89 1
90 90 1
90 218 1
90 346 1
90 474 1
90 602 1
90 730 1
90 858 1
90 986 1
91 92 1
91 219 1
91 347 1
91 475 1
91 603 1
91 731 1
91 859 1
91 987 1
92 91 1
92 92 1
92 220 1
92 348 1
92 476 1
92 604 1
92 732 1
92 860 1
92 988 1
93 94 1
93 221 1
93 349 1
93 477 1
93 605 1
93 733 1
93 861 1
93 989 1
94 93 1
94 94 1
94 222 1
94 350 1
94 478 1
94 606 1
94 734 1
94 862 1
94 990 1
95 96 1
95 223 1
95 351 1
95 479 1
95 607 1
95 735 1
95 863 1
95 991 1
96 95 1
96 96 1
96 224 1
96 352 1
96 480 1
96 608 1
96 736 1
96 864 1
96 992 1
97 98 1
97 225 1
97 353 1
97 481 1
97 609 1
97 737 1
97 865 1
97 993 1
98 97 1
98 98 1
98 226 1
98 354 1
98 482 1
98 610 1
98 738 1
98 866 1
98 994 1
99 100 1
99 227 1
99 355 1
99 483 1
99 611 1
99 739 1
99 867 1
99 995 1
100 99 1
100 100 1
100 228 1
100 356 1
100 484 1
100 612 1
100 740 1
100 868 1
100 996 1
101 102 1
101 229 1
101 357 1
101 485 1
101 613 1
101 741 1
101 869 1
101 997 1
102 101 1
102 102 1
102 230 1
102 358 1
102 486 1
102 614 1
102 742 1
102 870 1
102 998 1
103 104 1
103 231 1
103 359 1
103 487 1
103 615 1
103 743 1
103 871 1
103 999 1
104 103 1
104 104 1
104 232 1
104 360 1
104 488 1
104 616 1
104 744 1
104 872 1
104 1000 1
105 106 1
105 233 1
105 361 1
105 489 1
105 617 1
105 745 1
105 873 1
105 1001 1
106 105 1
106 106 1
106 234 1
106 362 1
106 490 1
106 618 1
106 746 1
106 874 1
106 1002 1
107 108 1
107 235 1
107 363 1
107 491 1
107 619 1
107 747 1
107 875 1
107 1003 1
108 107 1
108 108 1
108 236 1
108 364 1
108 492 1
108 620 1
108 748 1
108 876 1
108 1004 1
109 110 1
109 237 1
109 365 1
109 493 1
109 621 1
109 749 1
109 877 1
109 1005 1
110 109 1
110 110 1
110 238 1
110 366 1
110 494 1
110 622 1
110 750 1
110 878 1
110 1006 1
111 112 1
111 239 1
111 367 1
111 495 1
111 623 1
111 751 1
111 879 1
111 1007 1
112 111 1
112 112 1
112 240 1
112 368 1
112 496 1
112 624 1
112 752 1
112 880 1
112 1008 1
113 114 1
113 241 1
113 369 1
113 497 1
113 625 1
113 753 1
113 881 1
113 1009 1
114 113 1
114 114 1
114 242 1
114 370 1
114 498 1
114 626 1
114 754 1
114 882 1
114 1010 1
115 116 1
115 243 1
115 371 1
115 499 1
115 627 1
115 755 1
115 883 1
115 1011 1
116 115 1
116 116 1
116 244 1
116 372 1
116 500 1
116 628 1
116 756 1
116 884 1
116 1012 1
117 118 1
117 245 1
117 373 1
117 501 1
117 629 1
117 757 1
117 885 1
117 1013 1
118 117 1
118 118 1
118 246 1
118 374 1
118 502 1
118 630 1
118 758 1
118 886 1
118 1014 1
119 120 1
119 247 1
119 375 1
119 503 1
119 631 1
119 759 1
119 887 1
119 1015 1
120 119 1
120 120 1
120 248 1
120 376 1
120 504 1
120 632 1
120 760 1
120 888 1
120 1016 1
121 122 1
121 249 1
121 377 1
121 505 1
121 633 1
121 761 1
121 889 1
121 1017 1
122 121 1
122 122 1
122 250 1
122 378 1
122 506 1
122 634 1
122 762 1
122 890 1
122 1018 1
123 124 1
123 251 1
123 379 1
123 507 1
123 635 1
123 763 1
123 891 1
123 1019 1
124 123 1
124 124 1
124 252 1
124 380 1
124 508 1
124 636 1
124 764 1
124 892 1
124 1020 1
125 126 1
125 253 1
125 381 1
125 509 1
125 637 1
125 765 1
125 893 1
125 1021 1
126 125 1
126 126 1
126 254 1
126 382 1
126 510 1
126 638 1
126 766 1
126 894 1
126 1022 1
127 128 1
127 255 1
127 383 1
127 511 1
127 639 1
127 767 1
127 895 1
127 1023 1
128 127 1
128 128 1
128 256 1
128 384 1
128 512 1
128 640 1
128 768 1
128 896 1
128 1024 1
129 1 1
129 194 1
129 383 1
129 447 1
129 637 1
129 727 1
129 783 1
129 993 1
130 2 1
130 193 1
130 194 1
130 384 1
130 448 1
130 638 1
130 728 1
130 784 1
130 994 1
131 3 1
131 196 1
131 257 1
131 449 1
131 639 1
131 729 1
131 785 1
131 995 1
132 4 1
132 195 1
132 196 1
132 258 1
132 450 1
132 640 1
132 730 1
132 786 1
132 996 1
133 5 1
133 198 1
133 259 1
133 451 1
133 513 1
133 731 1
133 787 1
133 997 1
134 6 1
134 197 1
134 198 1
134 260 1
134 452 1
134 514 1
134 732 1
134 788 1
134 998 1
135 7 1
135 200 1
135 261 1
135 453 1
135 515 1
135 733 1
135 789 1
135 999 1
136 8 1
136 199 1
136 200 1
136 262 1
136 454 1
136 516 1
136 734 1
136 790 1
136 1000 1
137 9 1
137 202 1
137 263 1
137 455 1
137 517 1
137 735 1
137 791 1
137 1001 1
138 10 1
138 201 1
138 202 1
138 264 1
138 456 1
138 518 1
138 736 1
138 792 1
138 1002 1
139 11 1
139 204 1
139 265 1
139 457 1
139 519 1
139 737 1
139 793 1
139 1003 1
140 12 1
140 203 1
140 204 1
140 266 1
140 458 1
140 520 1
140 738 1
140 794 1
140 1004 1
141 13 1
141 206 1
141 267 1
141 459 1
141 521 1
141 739 1
141 795 1
141 1005 1
142 14 1
142 205 1
142 206 1
142 268 1
142 460 1
142 522 1
142 740 1
142 796 1
142 1006 1
143 15 1
143 208 1
143 269 1
143 461 1
143 523 1
143 741 1
143 797 1
143 1007 1
144 16 1
144 207 1
144 208 1
144 270 1
144 462 1
144 524 1
144 742 1
144 798 1
144 1008 1
145 17 1
145 210 1
145 271 1
145 463 1
145 525 1
145 743 1
145 799 1
145 1009 1
146 18 1
146 209 1
146 210 1
146 272 1
146 464 1
146 526 1
146 744 1
146 800 1
146 1010 1
147 19 1
147 212 1
147 273 1
147 465 1
147 527 1
147 745 1
147 801 1
147 1011 1
148 20 1
148 211 1
148 212 1
148 274 1
148 466 1
148 528 1
148 746 1
148 802 1
148 1012 1
149 21 1
149 214 1
149 275 1
149 467 1
149 529 1
149 747 1
149 803 1
149 1013 1
150 22 1
150 213 1
150 214 1
150 276 1
150 468 1
150 530 1
150 748 1
150 804 1
150 1014 1
151 23 1
151 216 1
151 277 1
151 469 1
151 531 1
151 749 1
151 805 1
151 1015 1
152 24 1
152 215 1
152 216 1
152 278 1
152 470 1
152 532 1
152 750 1
152 806 1
152 1016 1
153 25 1
153 218 1
153 279 1
153 471 1
153 533 1
153 751 1
153 807 1
153 1017 1
154 26 1
154 217 1
154 218 1
154 280 1
154 472 1
154 534 1
154 752 1
154 808 1
154 1018 1
155 27 1
155 220 1
155 281 1
155 473 1
155 535 1
155 753 1
155 809 1
155 1019 1
156 28 1
156 219 1
156 220 1
156 282 1
156 474 1
156 536 1
156 754 1
156 810 1
156 1020 1
157 29 1
157 222 1
157 283 1
157 475 1
157 537 1
157 755 1
157 811 1
157 1021 1
158 30 1
158 221 1
158 222 1
158 284 1
158 476 1
158 538 1
158 756 1
158 812 1
158 1022 1
159 31 1
159 224 1
159 285 1
159 477 1
159 539 1
159 757 1
159 813 1
159 1023 1
160 32 1
160 223 1
160 224 1
160 286 1
160 478 1
160 540 1
160 758 1
160 814 1
160 1024 1
161 33 1
161 226 1
161 287 1
161 479 1
161 541 1
161 759 1
161 815 1
161 897 1
162 34 1
162 225 1
162 226 1
162 288 1
162 480 1
162 542 1
162 760 1
162 816 1
162 898 1
163 35 1
163 228 1
163 289 1
163 481 1
163 543 1
163 761 1
163 817 1
163 899 1
164 36 1
164 227 1
164 228 1
164 290 1
164 482 1
164 544 1
164 762 1
164 818 1
164 900 1
165 37 1
165 230 1
165 291 1
165 483 1
165 545 1
165 763 1
165 819 1
165 901 1
166 38 1
166 229 1
166 230 1
166 292 1
166 484 1
166 546 1
166 764 1
166 820 1
166 902 1
167 39 1
167 232 1
167 293 1
167 485 1
167 547 1
167 765 1
167 821 1
167 903 1
168 40 1
168 231 1
168 232 1
168 294 1
168 486 1
168 548 1
168 766 1
168 822 1
168 904 1
169 41 1
169 234 1
169 295 1
169 487 1
169 549 1
169 767 1
169 823 1
169 905 1
170 42 1
170 233 1
170 234 1
170 296 1
170 488 1
170 550 1
170 768 1
170 824 1
170 906 1
171 43 1
171 236 1
171 297 1
171 489 1
171 551 1
171 641 1
171 825 1
171 907 1
172 44 1
172 235 1
172 236 1
172 298 1
172 490 1
172 552 1
172 642 1
172 826 1
172 908 1
173 45 1
173 238 1
173 299 1
173 491 1
173 553 1
173 643 1
173 827 1
173 909 1
174 46 1
174 237 1
174 238 1
174 300 1
174 492 1
174 554 1
174 644 1
174 828 1
174 910 1
175 47 1
175 240 1
175 301 1
175 493 1
175 555 1
175 645 1
175 829 1
175 911 1
176 48 1
176 239 1
176 240 1
176 302 1
176 494 1
176 556 1
176 646 1
176 830 1
176 912 1
177 49 1
177 242 1
177 303 1
177 495 1
177 557 1
177 647 1
177 831 1
177 913 1
178 50 1
178 241 1
178 242 1
178 304 1
178 496 1
178 558 1
178 648 1
178 832 1
178 914 1
179 51 1
179 244 1
179 305 1
179 497 1
179 559 1
179 649 1
179 833 1
179 915 1
180 52 1
180 243 1
180 244 1
180 306 1
180 498 1
180 560 1
180 650 1
180 834 1
180 916 1
181 53 1
181 246 1
181 307 1
181 499 1
181 561 1
181 651 1
181 835 1
181 917 1
182 54 1
182 245 1
182 246 1
182 308 1
182 500 1
182 562 1
182 652 1
182 836 1
182 918 1
183 55 1
183 248 1
183 309 1
183 501 1
183 563 1
183 653 1
183 837 1
183 919 1
184 56 1
184 247 1
184 248 1
184 310 1
184 502 1
184 564 1
184 654 1
184 838 1
184 920 1
185 57 1
185 250 1
185 311 1
185 503 1
185 565 1
185 655 1
185 839 1
185 921 1
186 58 1
186 249 1
186 250 1
186 312 1
186 504 1
186 566 1
186 656 1
186 840 1
186 922 1
187 59 1
187 252 1
187 313 1
187 505 1
187 567 1
187 657 1
187 841 1
187 923 1
188 60 1
188 251 1
188 252 1
188 314 1
188 506 1
188 568 1
188 658 1
188 842 1
188 924 1
189 61 1
189 254 1
189 315 1
189 507 1
189 569 1
189 659 1
189 843 1
189 925 1
190 62 1
190 253 1
190 254 1
190 316 1
190 508 1
190 570 1
190 660 1
190 844 1
190 926 1
191 63 1
191 256 1
191 317 1
191 509 1
191 571 1
191 661 1
191 845 1
191 927 1
192 64 1
192 255 1
192 256 1
192 318 1
192 510 1
192 572 1
192 662 1
192 846 1
192 928 1
193 65 1
193 130 1
193 319 1
193 511 1
193 573 1
193 663 1
193 847 1
193 929 1
194 66 1
194 129 1
194 130 1
194 320 1
194 512 1
194 574 1
194 664 1
194 848 1
194 930 1
195 67 1
195 132 1
195 321 1
195 385 1
195 575 1
195 665 1
195 849 1
195 931 1
196 68 1
196 131 1
196 132 1
196 322 1
196 386 1
196 576 1
196 666 1
196 850 1
196 932 1
197 69 1
197 134 1
197 323 1
197 387 1
197 577 1
197 667 1
197 851 1
197 933 1
198 70 1
198 133 1
198 134 1
198 324 1
198 388 1
198 578 1
198 668 1
198 852 1
198 934 1
199 71 1
199 136 1
199 325 1
199 389 1
199 579 1
199 669 1
199 853 1
199 935 1
200 72 1
200 135 1
200 136 1
200 326 1
200 390 1
200 580 1
200 670 1
200 854 1
200 936 1
201 73 1
201 138 1
201 327 1
201 391 1
201 581 1
201 671 1
201 855 1
201 937 1
202 74 1
202 137 1
202 138 1
202 328 1
202 392 1
202 582 1
202 672 1
202 856 1
202 938 1
203 75 1
203 140 1
203 329 1
203 393 1
203 583 1
203 673 1
203 857 1
203 939 1
204 76 1
204 139 1
204 140 1
204 330 1
204 394 1
204 584 1
204 674 1
204 858 1
204 940 1
205 77 1
205 142 1
205 331 1
205 395 1
205 585 1
205 675 1
205 859 1
205 941 1
206 78 1
206 141 1
206 142 1
206 332 1
206 396 1
206 586 1
206 676 1
206 860 1
206 942 1
207 79 1
207 144 1
207 333 1
207 397 1
207 587 1
207 677 1
207 861 1
207 943 1
208 80 1
208 143 1
208 144 1
208 334 1
208 398 1
208 588 1
208 678 1
208 862 1
208 944 1
209 81 1
209 146 1
209 335 1
209 399 1
209 589 1
209 679 1
209 863 1
209 945 1
210 82 1
210 145 1
210 146 1
210 336 1
210 400 1
210 590 1
210 680 1
210 864 1
210 946 1
211 83 1
211 148 1
211 337 1
211 401 1
211 591 1
211 681 1
211 865 1
211 947 1
212 84 1
212 147 1
212 148 1
212 338 1
212 402 1
212 592 1
212 682 1
212 866 1
212 948 1
213 85 1
213 150 1
213 339 1
213 403 1
213 593 1
213 683 1
213 867 1
213 949 1
214 86 1
214 149 1
214 150 1
214 340 1
214 404 1
214 594 1
214 684 1
214 868 1
214 950 1
215 87 1
215 152 1
215 341 1
215 405 1
215 595 1
215 685 1
215 869 1
215 951 1
216 88 1
216 151 1
216 152 1
216 342 1
216 406 1
216 596 1
216 686 1
216 870 1
216 952 1
217 89 1
217 154 1
217 343 1
217 407 1
217 597 1
217 687 1
217 871 1
217 953 1
218 90 1
218 153 1
218 154 1
218 344 1
218 408 1
218 598 1
218 688 1
218 872 1
218 954 1
219 91 1
219 156 1
219 345 1
219 409 1
219 599 1
219 689 1
219 873 1
219 955 1
220 92 1
220 155 1
220 156 1
220 346 1
220 410 1
220 600 1
220 690 1
220 874 1
220 956 1
221 93 1
221 158 1
221 347 1
221 411 1
221 601 1
221 691 1
221 875 1
221 957 1
222 94 1
222 157 1
222 158 1
222 348 1
222 412 1
222 602 1
222 692 1
222 876 1
222 958 1
223 95 1
223 160 1
223 349 1
223 413 1
223 603 1
223 693 1
223 877 1
223 959 1
224 96 1
224 159 1
224 160 1
224 350 1
224 414 1
224 604 1
224 694 1
224 878 1
224 960 1
225 97 1
225 162 1
225 351 1
225 415 1
225 605 1
225 695 1
225 879 1
225 961 1
226 98 1
226 161 1
226 162 1
226 352 1
226 416 1
226 606 1
226 696 1
226 880 1
226 962 1
227 99 1
227 164 1
227 353 1
227 417 1
227 607 1
227 697 1
227 881 1
227 963 1
228 100 1
228 163 1
228 164 1
228 354 1
228 418 1
228 608 1
228 698 1
228 882 1
228 964 1
229 101 1
229 166 1
229 355 1
229 419 1
229 609 1
229 699 1
229 883 1
229 965 1
230 102 1
230 165 1
230 166 1
230 356 1
230 420 1
230 610 1
230 700 1
230 884 1
230 966 1
231 103 1
231 168 1
231 357 1
231 421 1
231 611 1
231 701 1
231 885 1
231 967 1
232 104 1
232 167 1
232 168 1
232 358 1
232 422 1
232 612 1
232 702 1
232 886 1
232 968 1
233 105 1
233 170 1
233 359 1
233 423 1
233 613 1
233 703 1
233 887 1
233 969 1
234 106 1
234 169 1
234 170 1
234 360 1
234 424 1
234 614 1
234 704 1
234 888 1
234 970 1
235 107 1
235 172 1
235 361 1
235 425 1
235 615 1
235 705 1
235 889 1
235 971 1
236 108 1
236 171 1
236 172 1
236 362 1
236 426 1
236 616 1
236 706 1
236 890 1
236 972 1
237 109 1
237 174 1
237 363 1
237 427 1
237 617 1
237 707 1
237 891 1
237 973 1
238 110 1
238 173 1
238 174 1
238 364 1
238 428 1
238 618 1
238 708 1
238 892 1
238 974 1
239 111 1
239 176 1
239 365 1
239 429 1
239 619 1
239 709 1
239 893 1
239 975 1
240 112 1
240 175 1
240 176 1
240 366 1
240 430 1
240 620 1
240 710 1
240 894 1
240 976 1
241 113 1
241 178 1
241 367 1
241 431 1
241 621 1
241 711 1
241 895 1
241 977 1
242 114 1
242 177 1
242 178 1
242 368 1
242 432 1
242 622 1
242 712 1
242 896 1
242 978 1
243 115 1
243 180 1
243 369 1
243 433 1
243 623 1
243 713 1
243 769 1
243 979 1
244 116 1
244 179 1
244 180 1
244 370 1
244 434 1
244 624 1
244 714 1
244 770 1
244 980 1
245 117 1
245 182 1
245 371 1
245 435 1
245 625 1
245 715 1
245 771 1
245 981 1
246 118 1
246 181 1
246 182 1
246 372 1
246 436 1
246 626 1
246 716 1
246 772 1
246 982 1
247 119 1
247 184 1
247 373 1
247 437 1
247 627 1
247 717 1
247 773 1
247 983 1
248 120 1
248 183 1
248 184 1
248 374 1
248 438 1
248 628 1
248 718 1
248 774 1
248 984 1
249 121 1
249 186 1
249 375 1
249 439 1
249 629 1
249 719 1
249 775 1
249 985 1
250 122 1
250 185 1
250 186 1
250 376 1
250 440 1
250 630 1
250 720 1
250 776 1
250 986 1
251 123 1
251 188 1
251 377 1
251 441 1
251 631 1
251 721 1
251 777 1
251 987 1
252 124 1
252 187 1
252 188 1
252 378 1
252 442 1
252 632 1
252 722 1
252 778 1
252 988 1
253 125 1
253 190 1
253 379 1
253 443 1
253 633 1
253 723 1
253 779 1
253 989 1
254 126 1
254 189 1
254 190 1
254 380 1
254 444 1
254 634 1
254 724 1
254 780 1
254 990 1
255 127 1
255 192 1
255 381 1
255 445 1
255 635 1
255 725 1
255 781 1
255 991 1
256 128 1
256 191 1
256 192 1
256 382 1
256 446 1
256 636 1
256 726 1
256 782 1
256 992 1
257 1 1
257 161 1
257 322 1
257 389 1
257 619 1
257 691 1
257 807 1
257 999 1
258 2 1
258 162 1
258 321 1
258 322 1
258 390 1
258 620 1
258 692 1
258 808 1
258 1000 1
259 3 1
259 163 1
259 324 1
259 391 1
259 621 1
259 693 1
259 809 1
259 1001 1
260 4 1
260 164 1
260 323 1
260 324 1
260 392 1
260 622 1
260 694 1
260 810 1
260 1002 1
261 5 1
261 165 1
261 326 1
261 393 1
261 623 1
261 695 1
261 811 1
261 1003 1
262 6 1
262 166 1
262 325 1
262 326 1
262 394 1
262 624 1
262 696 1
262 812 1
262 1004 1
263 7 1
263 167 1
263 328 1
263 395 1
263 625 1
263 697 1
263 813 1
263 1005 1
264 8 1
264 168 1
264 327 1
264 328 1
264 396 1
264 626 1
264 698 1
264 814 1
264 1006 1
265 9 1
265 169 1
265 330 1
265 397 1
265 627 1
265 699 1
265 815 1
265 1007 1
266 10 1
266 170 1
266 329 1
266 330 1
266 398 1
266 628 1
266 700 1
266 816 1
266 1008 1
267 11 1
267 171 1
267 332 1
267 399 1
267 629 1
267 701 1
267 817 1
267 1009 1
268 12 1
268 172 1
268 331 1
268 332 1
268 400 1
268 630 1
268 702 1
268 818 1
268 1010 1
269 13 1
269 173 1
269 334 1
269 401 1
269 631 1
269 703 1
269 819 1
269 1011 1
270 14 1
270 174 1
270 333 1
270 334 1
270 402 1
270 632 1
270 704 1
270 820 1
270 1012 1
271 15 1
271 175 1
271 336 1
271 403 1
271 633 1
271 705 1
271 821 1
271 1013 1
272 16 1
272 176 1
272 335 1
272 336 1
272 404 1
272 634 1
272 706 1
272 822 1
272 1014 1
273 17 1
273 177 1
273 338 1
273 405 1
273 635 1
273 707 1
273 823 1
273 1015 1
274 18 1
274 178 1
274 337 1
274 338 1
274 406 1
274 636 1
274 708 1
274 824 1
274 1016 1
275 19 1
275 179 1
275 340 1
275 407 1
275 637 1
275 709 1
275 825 1
275 1017 1
276 20 1
276 180 1
276 339 1
276 340 1
276 408 1
276 638 1
276 710 1
276 826 1
276 1018 1
277 21 1
277 181 1
277 342 1
277 409 1
277 639 1
277 711 1
277 827 1
277 1019 1
278 22 1
278 182 1
278 341 1
278 342 1
278 410 1
278 640 1
278 712 1
278 828 1
278 1020 1
279 23 1
279 183 1
279 344 1
279 411 1
279 513 1
279 713 1
279 829 1
279 1021 1
280 24 1
280 184 1
280 343 1
280 344 1
280 412 1
280 514 1
280 714 1
280 830 1
280 1022 1
281 25 1
281 185 1
281 346 1
281 413 1
281 515 1
281 715 1
281 831 1
281 1023 1
282 26 1
282 186 1
282 345 1
282 346 1
282 414 1
282 516 1
282 716 1
282 832 1
282 1024 1
283 27 1
283 187 1
283 348 1
283 415 1
283 517 1
283 717 1
283 833 1
283 897 1
284 28 1
284 188 1
284 347 1
284 348 1
284 416 1
284 518 1
284 718 1
284 834 1
284 898 1
285 29 1
285 189 1
285 350 1
285 417 1
285 519 1
285 719 1
285 835 1
285 899 1
286 30 1
286 190 1
286 349 1
286 350 1
286 418 1
286 520 1
286 720 1
286 836 1
286 900 1
287 31 1
287 191 1
287 352 1
287 419 1
287 521 1
287 721 1
287 837 1
287 901 1
288 32 1
288 192 1
288 351 1
288 352 1
288 420 1
288 522 1
288 722 1
288 838 1
288 902 1
289 33 1
289 193 1
289 354 1
289 421 1
289 523 1
289 723 1
289 839 1
289 903 1
290 34 1
290 194 1
290 353 1
290 354 1
290 422 1
290 524 1
290 724 1
290 840 1
290 904 1
291 35 1
291 195 1
291 356 1
291 423 1
291 525 1
291 725 1
291 841 1
291 905 1
292 36 1
292 196 1
292 355 1
292 356 1
292 424 1
292 526 1
292 726 1
292 842 1
292 906 1
293 37 1
293 197 1
293 358 1
293 425 1
293 527 1
293 727 1
293 843 1
293 907 1
294 38 1
294 198 1
294 357 1
294 358 1
294 426 1
294 528 1
294 728 1
294 844 1
294 908 1
295 39 1
295 199 1
295 360 1
295 427 1
295 529 1
295 729 1
295 845 1
295 909 1
296 40 1
296 200 1
296 359 1
296 360 1
296 428 1
296 530 1
296 730 1
296 846 1
296 910 1
297 41 1
297 201 1
297 362 1
297 429 1
297 531 1
297 731 1
297 847 1
297 911 1
298 42 1
298 202 1
298 361 1
298 362 1
298 430 1
298 532 1
298 732 1
298 848 1
298 912 1
299 43 1
299 203 1
299 364 1
299 431 1
299 533 1
299 733 1
299 849 1
299 913 1
300 44 1
300 204 1
300 363 1
300 364 1
300 432 1
300 534 1
300 734 1
300 850 1
300 914 1
301 45 1
301 205 1
301 366 1
301 433 1
301 535 1
301 735 1
301 851 1
301 915 1
302 46 1
302 206 1
302 365 1
302 366 1
302 434 1
302 536 1
302 736 1
302 852 1
302 916 1
303 47 1
303 207 1
303 368 1
303 435 1
303 537 1
303 737 1
303 853 1
303 917 1
304 48 1
304 208 1
304 367 1
304 368 1
304 436 1
304 538 1
304 738 1
304 854 1
304 918 1
305 49 1
305 209 1
305 370 1
305 437 1
305 539 1
305 739 1
305 855 1
305 919 1
306 50 1
306 210 1
306 369 1
306 370 1
306 438 1
306 540 1
306 740 1
306 856 1
306 920 1
307 51 1
307 211 1
307 372 1
307 439 1
307 541 1
307 741 1
307 857 1
307 921 1
308 52 1
308 212 1
308 371 1
308 372 1
308 440 1
308 542 1
308 742 1
308 858 1
308 922 1
309 53 1
309 213 1
309 374 1
309 441 1
309 543 1
309 743 1
309 859 1
309 923 1
310 54 1
310 214 1
310 373 1
310 374 1
310 442 1
310 544 1
310 744 1
310 860 1
310 924 1
311 55 1
311 215 1
311 376 1
311 443 1
311 545 1
311 745 1
311 861 1
311 925 1
312 56 1
312 216 1
312 375 1
312 376 1
312 444 1
312 546 1
312 746 1
312 862 1
312 926 1
313 57 1
313 217 1
313 378 1
313 445 1
313 547 1
313 747 1
313 863 1
313 927 1
314 58 1
314 218 1
314 377 1
314 378 1
314 446 1
314 548 1
314 748 1
314 864 1
314 928 1
315 59 1
315 219 1
315 380 1
315 447 1
315 549 1
315 749 1
315 865 1
315 929 1
316 60 1
316 220 1
316 379 1
316 380 1
316 448 1
316 550 1
316 750 1
316 866 1
316 930 1
317 61 1
317 221 1
317 382 1
317 449 1
317 551 1
317 751 1
317 867 1
317 931 1
318 62 1
318 222 1
318 381 1
318 382 1
318 450 1
318 552 1
318 752 1
318 868 1
318 932 1
319 63 1
319 223 1
319 384 1
319 451 1
319 553 1
319 753 1
319 869 1
319 933 1
320 64 1
320 224 1
320 383 1
320 384 1
320 452 1
320 554 1
320 754 1
320 870 1
320 934 1
321 65 1
321 225 1
321 258 1
321 453 1
321 555 1
321 755 1
321 871 1
321 935 1
322 66 1
322 226 1
322 257 1
322 258 1
322 454 1
322 556 1
322 756 1
322 872 1
322 936 1
323 67 1
323 227 1
323 260 1
323 455 1
323 557 1
323 757 1
323 873 1
323 937 1
324 68 1
324 228 1
324 259 1
324 260 1
324 456 1
324 558 1
324 758 1
324 874 1
324 938 1
325 69 1
325 229 1
325 262 1
325 457 1
325 559 1
325 759 1
325 875 1
325 939 1
326 70 1
326 230 1
326 261 1
326 262 1
326 458 1
326 560 1
326 760 1
326 876 1
326 940 1
327 71 1
327 231 1
327 264 1
327 459 1
327 561 1
327 761 1
327 877 1
327 941 1
328 72 1
328 232 1
328 263 1
328 264 1
328 460 1
328 562 1
328 762 1
328 878 1
328 942 1
329 73 1
329 233 1
329 266 1
329 461 1
329 563 1
329 763 1
329 879 1
329 943 1
330 74 1
330 234 1
330 265 1
330 266 1
330 462 1
330 564 1
330 764 1
330 880 1
330 944 1
331 75 1
331 235 1
331 268 1
331 463 1
331 565 1
331 765 1
331 881 1
331 945 1
332 76 1
332 236 1
332 267 1
332 268 1
332 464 1
332 566 1
332 766 1
332 882 1
332 946 1
333 77 1
333 237 1
333 270 1
333 465 1
333 567 1
333 767 1
333 883 1
333 947 1
334 78 1
334 238 1
334 269 1
334 270 1
334 466 1
334 568 1
334 768 1
334 884 1
334 948 1
335 79 1
335 239 1
335 272 1
335 467 1
335 569 1
335 641 1
335 885 1
335 949 1
336 80 1
336 240 1
336 271 1
336 272 1
336 468 1
336 570 1
336 642 1
336 886 1
336 950 1
337 81 1
337 241 1
337 274 1
337 469 1
337 571 1
337 643 1
337 887 1
337 951 1
338 82 1
338 242 1
338 273 1
338 274 1
338 470 1
338 572 1
338 644 1
338 888 1
338 952 1
339 83 1
339 243 1
339 276 1
339 471 1
339 573 1
339 645 1
339 889 1
339 953 1
340 84 1
340 244 1
340 275 1
340 276 1
340 472 1
340 574 1
340 646 1
340 890 1
340 954 1
341 85 1
341 245 1
341 278 1
341 473 1
341 575 1
341 647 1
341 891 1
341 955 1
342 86 1
342 246 1
342 277 1
342 278 1
342 474 1
342 576 1
342 648 1
342 892 1
342 956 1
343 87 1
343 247 1
343 280 1
343 475 1
343 577 1
343 649 1
343 893 1
343 957 1
344 88 1
344 248 1
344 279 1
344 280 1
344 476 1
344 578 1
344 650 1
344 894 1
344 958 1
345 89 1
345 249 1
345 282 1
345 477 1
345 579 1
345 651 1
345 895 1
345 959 1
346 90 1
346 250 1
346 281 1
346 282 1
346 478 1
346 580 1
346 652 1
346 896 1
346 960 1
347 91 1
347 251 1
347 284 1
347 479 1
347 581 1
347 653 1
347 769 1
347 961 1
348 92 1
348 252 1
348 283 1
348 284 1
348 480 1
348 582 1
348 654 1
348 770 1
348 962 1
349 93 1
349 253 1
349 286 1
349 481 1
349 583 1
349 655 1
349 771 1
349 963 1
350 94 1
350 254 1
350 285 1
350 286 1
350 482 1
350 584 1
350 656 1
350 772 1
350 964 1
351 95 1
351 255 1
351 288 1
351 483 1
351 585 1
351 657 1
351 773 1
351 965 1
352 96 1
352 256 1
352 287 1
352 288 1
352 484 1
352 586 1
352 658 1
352 774 1
352 966 1
353 97 1
353 129 1
353 290 1
353 485 1
353 587 1
353 659 1
353 775 1
353 967 1
354 98 1
354 130 1
354 289 1
354 290 1
354 486 1
354 588 1
354 660 1
354 776 1
354 968 1
355 99 1
355 131 1
355 292 1
355 487 1
355 589 1
355 661 1
355 777 1
355 969 1
356 100 1
356 132 1
356 291 1
356 292 1
356 488 1
356 590 1
356 662 1
356 778 1
356 970 1
357 101 1
357 133 1
357 294 1
357 489 1
357 591 1
357 663 1
357 779 1
357 971 1
358 102 1
358 134 1
358 293 1
358 294 1
358 490 1
358 592 1
358 664 1
358 780 1
358 972 1
359 103 1
359 135 1
359 296 1
359 491 1
359 593 1
359 665 1
359 781 1
359 973 1
360 104 1
360 136 1
360 295 1
360 296 1
360 492 1
360 594 1
360 666 1
360 782 1
360 974 1
361 105 1
361 137 1
361 298 1
361 493 1
361 595 1
361 667 1
361 783 1
361 975 1
362 106 1
362 138 1
362 297 1
362 298 1
362 494 1
362 596 1
362 668 1
362 784 1
362 976 1
363 107 1
363 139 1
363 300 1
363 495 1
363 597 1
363 669 1
363 785 1
363 977 1
364 108 1
364 140 1
364 299 1
364 300 1
364 496 1
364 598 1
364 670 1
364 786 1
364 978 1
365 109 1
365 141 1
365 302 1
365 497 1
365 599 1
365 671 1
365 787 1
365 979 1
366 110 1
366 142 1
366 301 1
366 302 1
366 498 1
366 600 1
366 672 1
366 788 1
366 980 1
367 111 1
367 143 1
367 304 1
367 499 1
367 601 1
367 673 1
367 789 1
367 981 1
368 112 1
368 144 1
368 303 1
368 304 1
368 500 1
368 602 1
368 674 1
368 790 1
368 982 1
369 113 1
369 145 1
369 306 1
369 501 1
369 603 1
369 675 1
369 791 1
369 983 1
370 114 1
370 146 1
370 305 1
370 306 1
370 502 1
370 604 1
370 676 1
370 792 1
370 984 1
371 115 1
371 147 1
371 308 1
371 503 1
371 605 1
371 677 1
371 793 1
371 985 1
372 116 1
372 148 1
372 307 1
372 308 1
372 504 1
372 606 1
372 678 1
372 794 1
372 986 1
373 117 1
373 149 1
373 310 1
373 505 1
373 607 1
373 679 1
373 795 1
373 987 1
374 118 1
374 150 1
374 309 1
374 310 1
374 506 1
374 608 1
374 680 1
374 796 1
374 988 1
375 119 1
375 151 1
375 312 1
375 507 1
375 609 1
375 681 1
375 797 1
375 989 1
376 120 1
376 152 1
376 311 1
376 312 1
376 508 1
376 610 1
376 682 1
376 798 1
376 990 1
377 121 1
377 153 1
377 314 1
377 509 1
377 611 1
377 683 1
377 799 1
377 991 1
378 122 1
378 154 1
378 313 1
378 314 1
378 510 1
378 612 1
378 684 1
378 800 1
378 992 1
379 123 1
379 155 1
379 316 1
379 511 1
379 613 1
379 685 1
379 801 1
379 993 1
380 124 1
380 156 1
380 315 1
380 316 1
380 512 1
380 614 1
380 686 1
380 802 1
380 994 1
381 125 1
381 157 1
381 318 1
381 385 1
381 615 1
381 687 1
381 803 1
381 995 1
382 126 1
382 158 1
382 317 1
382 318 1
382 386 1
382 616 1
382 688 1
382 804 1
382 996 1
383 127 1
383 159 1
383 320 1
383 387 1
383 617 1
383 689 1
383 805 1
383 997 1
384 128 1
384 160 1
384 319 1
384 320 1
384 388 1
384 618 1
384 690 1
384 806 1
384 998 1
