%%MatrixMarket matrix coordinate integer general
% GF(4) labels 0,1,2=omega,3=omega+1; arithmetic is NOT integer arithmetic.
% Coordinate indices are 1-based; omitted entries are zero.
192 512 1536
1 1 2
1 65 1
1 129 1
1 193 1
1 257 1
1 321 1
1 385 1
1 449 1
2 2 2
2 66 1
2 130 1
2 194 1
2 258 1
2 322 1
2 386 1
2 450 1
3 3 2
3 67 1
3 131 1
3 195 1
3 259 1
3 323 1
3 387 1
3 451 1
4 4 2
4 68 1
4 132 1
4 196 1
4 260 1
4 324 1
4 388 1
4 452 1
5 5 2
5 69 1
5 133 1
5 197 1
5 261 1
5 325 1
5 389 1
5 453 1
6 6 2
6 70 1
6 134 1
6 198 1
6 262 1
6 326 1
6 390 1
6 454 1
7 7 2
7 71 1
7 135 1
7 199 1
7 263 1
7 327 1
7 391 1
7 455 1
8 8 2
8 72 1
8 136 1
8 200 1
8 264 1
8 328 1
8 392 1
8 456 1
9 9 2
9 73 1
9 137 1
9 201 1
9 265 1
9 329 1
9 393 1
9 457 1
10 10 2
10 74 1
10 138 1
10 202 1
10 266 1
10 330 1
10 394 1
10 458 1
11 11 2
11 75 1
11 139 1
11 203 1
11 267 1
11 331 1
11 395 1
11 459 1
12 12 2
12 76 1
12 140 1
12 204 1
12 268 1
12 332 1
12 396 1
12 460 1
13 13 2
13 77 1
13 141 1
13 205 1
13 269 1
13 333 1
13 397 1
13 461 1
14 14 2
14 78 1
14 142 1
14 206 1
14 270 1
14 334 1
14 398 1
14 462 1
15 15 2
15 79 1
15 143 1
15 207 1
15 271 1
15 335 1
15 399 1
15 463 1
16 16 2
16 80 1
16 144 1
16 208 1
16 272 1
16 336 1
16 400 1
16 464 1
17 17 2
17 81 1
17 145 1
17 209 1
17 273 1
17 337 1
17 401 1
17 465 1
18 18 2
18 82 1
18 146 1
18 210 1
18 274 1
18 338 1
18 402 1
18 466 1
19 19 2
19 83 1
19 147 1
19 211 1
19 275 1
19 339 1
19 403 1
19 467 1
20 20 2
20 84 1
20 148 1
20 212 1
20 276 1
20 340 1
20 404 1
20 468 1
21 21 2
21 85 1
21 149 1
21 213 1
21 277 1
21 341 1
21 405 1
21 469 1
22 22 2
22 86 1
22 150 1
22 214 1
22 278 1
22 342 1
22 406 1
22 470 1
23 23 2
23 87 1
23 151 1
23 215 1
23 279 1
23 343 1
23 407 1
23 471 1
24 24 2
24 88 1
24 152 1
24 216 1
24 280 1
24 344 1
24 408 1
24 472 1
25 25 2
25 89 1
25 153 1
25 217 1
25 281 1
25 345 1
25 409 1
25 473 1
26 26 2
26 90 1
26 154 1
26 218 1
26 282 1
26 346 1
26 410 1
26 474 1
27 27 2
27 91 1
27 155 1
27 219 1
27 283 1
27 347 1
27 411 1
27 475 1
28 28 2
28 92 1
28 156 1
28 220 1
28 284 1
28 348 1
28 412 1
28 476 1
29 29 2
29 93 1
29 157 1
29 221 1
29 285 1
29 349 1
29 413 1
29 477 1
30 30 2
30 94 1
30 158 1
30 222 1
30 286 1
30 350 1
30 414 1
30 478 1
31 31 2
31 95 1
31 159 1
31 223 1
31 287 1
31 351 1
31 415 1
31 479 1
32 32 2
32 96 1
32 160 1
32 224 1
32 288 1
32 352 1
32 416 1
32 480 1
33 33 2
33 97 1
33 161 1
33 225 1
33 289 1
33 353 1
33 417 1
33 481 1
34 34 2
34 98 1
34 162 1
34 226 1
34 290 1
34 354 1
34 418 1
34 482 1
35 35 2
35 99 1
35 163 1
35 227 1
35 291 1
35 355 1
35 419 1
35 483 1
36 36 2
36 100 1
36 164 1
36 228 1
36 292 1
36 356 1
36 420 1
36 484 1
37 37 2
37 101 1
37 165 1
37 229 1
37 293 1
37 357 1
37 421 1
37 485 1
38 38 2
38 102 1
38 166 1
38 230 1
38 294 1
38 358 1
38 422 1
38 486 1
39 39 2
39 103 1
39 167 1
39 231 1
39 295 1
39 359 1
39 423 1
39 487 1
40 40 2
40 104 1
40 168 1
40 232 1
40 296 1
40 360 1
40 424 1
40 488 1
41 41 2
41 105 1
41 169 1
41 233 1
41 297 1
41 361 1
41 425 1
41 489 1
42 42 2
42 106 1
42 170 1
42 234 1
42 298 1
42 362 1
42 426 1
42 490 1
43 43 2
43 107 1
43 171 1
43 235 1
43 299 1
43 363 1
43 427 1
43 491 1
44 44 2
44 108 1
44 172 1
44 236 1
44 300 1
44 364 1
44 428 1
44 492 1
45 45 2
45 109 1
45 173 1
45 237 1
45 301 1
45 365 1
45 429 1
45 493 1
46 46 2
46 110 1
46 174 1
46 238 1
46 302 1
46 366 1
46 430 1
46 494 1
47 47 2
47 111 1
47 175 1
47 239 1
47 303 1
47 367 1
47 431 1
47 495 1
48 48 2
48 112 1
48 176 1
48 240 1
48 304 1
48 368 1
48 432 1
48 496 1
49 49 2
49 113 1
49 177 1
49 241 1
49 305 1
49 369 1
49 433 1
49 497 1
50 50 2
50 114 1
50 178 1
50 242 1
50 306 1
50 370 1
50 434 1
50 498 1
51 51 2
51 115 1
51 179 1
51 243 1
51 307 1
51 371 1
51 435 1
51 499 1
52 52 2
52 116 1
52 180 1
52 244 1
52 308 1
52 372 1
52 436 1
52 500 1
53 53 2
53 117 1
53 181 1
53 245 1
53 309 1
53 373 1
53 437 1
53 501 1
54 54 2
54 118 1
54 182 1
54 246 1
54 310 1
54 374 1
54 438 1
54 502 1
55 55 2
55 119 1
55 183 1
55 247 1
55 311 1
55 375 1
55 439 1
55 503 1
56 56 2
56 120 1
56 184 1
56 248 1
56 312 1
56 376 1
56 440 1
56 504 1
57 57 2
57 121 1
57 185 1
57 249 1
57 313 1
57 377 1
57 441 1
57 505 1
58 58 2
58 122 1
58 186 1
58 250 1
58 314 1
58 378 1
58 442 1
58 506 1
59 59 2
59 123 1
59 187 1
59 251 1
59 315 1
59 379 1
59 443 1
59 507 1
60 60 2
60 124 1
60 188 1
60 252 1
60 316 1
60 380 1
60 444 1
60 508 1
61 61 2
61 125 1
61 189 1
61 253 1
61 317 1
61 381 1
61 445 1
61 509 1
62 62 2
62 126 1
62 190 1
62 254 1
62 318 1
62 382 1
62 446 1
62 510 1
63 63 2
63 127 1
63 191 1
63 255 1
63 319 1
63 383 1
63 447 1
63 511 1
64 64 2
64 128 1
64 192 1
64 256 1
64 320 1
64 384 1
64 448 1
64 512 1
65 1 1
65 97 2
65 192 1
65 224 1
65 319 1
65 364 1
65 392 1
65 497 1
66 2 1
66 98 2
66 129 1
66 225 1
66 320 1
66 365 1
66 393 1
66 498 1
67 3 1
67 99 2
67 130 1
67 226 1
67 257 1
67 366 1
67 394 1
67 499 1
68 4 1
68 100 2
68 131 1
68 227 1
68 258 1
68 367 1
68 395 1
68 500 1
69 5 1
69 101 2
69 132 1
69 228 1
69 259 1
69 368 1
69 396 1
69 501 1
70 6 1
70 102 2
70 133 1
70 229 1
70 260 1
70 369 1
70 397 1
70 502 1
71 7 1
71 103 2
71 134 1
71 230 1
71 261 1
71 370 1
71 398 1
71 503 1
72 8 1
72 104 2
72 135 1
72 231 1
72 262 1
72 371 1
72 399 1
72 504 1
73 9 1
73 105 2
73 136 1
73 232 1
73 263 1
73 372 1
73 400 1
73 505 1
74 10 1
74 106 2
74 137 1
74 233 1
74 264 1
74 373 1
74 401 1
74 506 1
75 11 1
75 107 2
75 138 1
75 234 1
75 265 1
75 374 1
75 402 1
75 507 1
76 12 1
76 108 2
76 139 1
76 235 1
76 266 1
76 375 1
76 403 1
76 508 1
77 13 1
77 109 2
77 140 1
77 236 1
77 267 1
77 376 1
77 404 1
77 509 1
78 14 1
78 110 2
78 141 1
78 237 1
78 268 1
78 377 1
78 405 1
78 510 1
79 15 1
79 111 2
79 142 1
79 238 1
79 269 1
79 378 1
79 406 1
79 511 1
80 16 1
80 112 2
80 143 1
80 239 1
80 270 1
80 379 1
80 407 1
80 512 1
81 17 1
81 113 2
81 144 1
81 240 1
81 271 1
81 380 1
81 408 1
81 449 1
82 18 1
82 114 2
82 145 1
82 241 1
82 272 1
82 381 1
82 409 1
82 450 1
83 19 1
83 115 2
83 146 1
83 242 1
83 273 1
83 382 1
83 410 1
83 451 1
84 20 1
84 116 2
84 147 1
84 243 1
84 274 1
84 383 1
84 411 1
84 452 1
85 21 1
85 117 2
85 148 1
85 244 1
85 275 1
85 384 1
85 412 1
85 453 1
86 22 1
86 118 2
86 149 1
86 245 1
86 276 1
86 321 1
86 413 1
86 454 1
87 23 1
87 119 2
87 150 1
87 246 1
87 277 1
87 322 1
87 414 1
87 455 1
88 24 1
88 120 2
88 151 1
88 247 1
88 278 1
88 323 1
88 415 1
88 456 1
89 25 1
89 121 2
89 152 1
89 248 1
89 279 1
89 324 1
89 416 1
89 457 1
90 26 1
90 122 2
90 153 1
90 249 1
90 280 1
90 325 1
90 417 1
90 458 1
91 27 1
91 123 2
91 154 1
91 250 1
91 281 1
91 326 1
91 418 1
91 459 1
92 28 1
92 124 2
92 155 1
92 251 1
92 282 1
92 327 1
92 419 1
92 460 1
93 29 1
93 125 2
93 156 1
93 252 1
93 283 1
93 328 1
93 420 1
93 461 1
94 30 1
94 126 2
94 157 1
94 253 1
94 284 1
94 329 1
94 421 1
94 462 1
95 31 1
95 127 2
95 158 1
95 254 1
95 285 1
95 330 1
95 422 1
95 463 1
96 32 1
96 128 2
96 159 1
96 255 1
96 286 1
96 331 1
96 423 1
96 464 1
97 33 1
97 65 2
97 160 1
97 256 1
97 287 1
97 332 1
97 424 1
97 465 1
98 34 1
98 66 2
98 161 1
98 193 1
98 288 1
98 333 1
98 425 1
98 466 1
99 35 1
99 67 2
99 162 1
99 194 1
99 289 1
99 334 1
99 426 1
99 467 1
100 36 1
100 68 2
100 163 1
100 195 1
100 290 1
100 335 1
100 427 1
100 468 1
101 37 1
101 69 2
101 164 1
101 196 1
101 291 1
101 336 1
101 428 1
101 469 1
102 38 1
102 70 2
102 165 1
102 197 1
102 292 1
102 337 1
102 429 1
102 470 1
103 39 1
103 71 2
103 166 1
103 198 1
103 293 1
103 338 1
103 430 1
103 471 1
104 40 1
104 72 2
104 167 1
104 199 1
104 294 1
104 339 1
104 431 1
104 472 1
105 41 1
105 73 2
105 168 1
105 200 1
105 295 1
105 340 1
105 432 1
105 473 1
106 42 1
106 74 2
106 169 1
106 201 1
106 296 1
106 341 1
106 433 1
106 474 1
107 43 1
107 75 2
107 170 1
107 202 1
107 297 1
107 342 1
107 434 1
107 475 1
108 44 1
108 76 2
108 171 1
108 203 1
108 298 1
108 343 1
108 435 1
108 476 1
109 45 1
109 77 2
109 172 1
109 204 1
109 299 1
109 344 1
109 436 1
109 477 1
110 46 1
110 78 2
110 173 1
110 205 1
110 300 1
110 345 1
110 437 1
110 478 1
111 47 1
111 79 2
111 174 1
111 206 1
111 301 1
111 346 1
111 438 1
111 479 1
112 48 1
112 80 2
112 175 1
112 207 1
112 302 1
112 347 1
112 439 1
112 480 1
113 49 1
113 81 2
113 176 1
113 208 1
113 303 1
113 348 1
113 440 1
113 481 1
114 50 1
114 82 2
114 177 1
114 209 1
114 304 1
114 349 1
114 441 1
114 482 1
115 51 1
115 83 2
115 178 1
115 210 1
115 305 1
115 350 1
115 442 1
115 483 1
116 52 1
116 84 2
116 179 1
116 211 1
116 306 1
116 351 1
116 443 1
116 484 1
117 53 1
117 85 2
117 180 1
117 212 1
117 307 1
117 352 1
117 444 1
117 485 1
118 54 1
118 86 2
118 181 1
118 213 1
118 308 1
118 353 1
118 445 1
118 486 1
119 55 1
119 87 2
119 182 1
119 214 1
119 309 1
119 354 1
119 446 1
119 487 1
120 56 1
120 88 2
120 183 1
120 215 1
120 310 1
120 355 1
120 447 1
120 488 1
121 57 1
121 89 2
121 184 1
121 216 1
121 311 1
121 356 1
121 448 1
121 489 1
122 58 1
122 90 2
122 185 1
122 217 1
122 312 1
122 357 1
122 385 1
122 490 1
123 59 1
123 91 2
123 186 1
123 218 1
123 313 1
123 358 1
123 386 1
123 491 1
124 60 1
124 92 2
124 187 1
124 219 1
124 314 1
124 359 1
124 387 1
124 492 1
125 61 1
125 93 2
125 188 1
125 220 1
125 315 1
125 360 1
125 388 1
125 493 1
126 62 1
126 94 2
126 189 1
126 221 1
126 316 1
126 361 1
126 389 1
126 494 1
127 63 1
127 95 2
127 190 1
127 222 1
127 317 1
127 362 1
127 390 1
127 495 1
128 64 1
128 96 2
128 191 1
128 223 1
128 318 1
128 363 1
128 391 1
128 496 1
129 1 1
129 81 1
129 161 2
129 195 1
129 310 1
129 346 1
129 404 1
129 500 1
130 2 1
130 82 1
130 162 2
130 196 1
130 311 1
130 347 1
130 405 1
130 501 1
131 3 1
131 83 1
131 163 2
131 197 1
131 312 1
131 348 1
131 406 1
131 502 1
132 4 1
132 84 1
132 164 2
132 198 1
132 313 1
132 349 1
132 407 1
132 503 1
133 5 1
133 85 1
133 165 2
133 199 1
133 314 1
133 350 1
133 408 1
133 504 1
134 6 1
134 86 1
134 166 2
134 200 1
134 315 1
134 351 1
134 409 1
134 505 1
135 7 1
135 87 1
135 167 2
135 201 1
135 316 1
135 352 1
135 410 1
135 506 1
136 8 1
136 88 1
136 168 2
136 202 1
136 317 1
136 353 1
136 411 1
136 507 1
137 9 1
137 89 1
137 169 2
137 203 1
137 318 1
137 354 1
137 412 1
137 508 1
138 10 1
138 90 1
138 170 2
138 204 1
138 319 1
138 355 1
138 413 1
138 509 1
139 11 1
139 91 1
139 171 2
139 205 1
139 320 1
139 356 1
139 414 1
139 510 1
140 12 1
140 92 1
140 172 2
140 206 1
140 257 1
140 357 1
140 415 1
140 511 1
141 13 1
141 93 1
141 173 2
141 207 1
141 258 1
141 358 1
141 416 1
141 512 1
142 14 1
142 94 1
142 174 2
142 208 1
142 259 1
142 359 1
142 417 1
142 449 1
143 15 1
143 95 1
143 175 2
143 209 1
143 260 1
143 360 1
143 418 1
143 450 1
144 16 1
144 96 1
144 176 2
144 210 1
144 261 1
144 361 1
144 419 1
144 451 1
145 17 1
145 97 1
145 177 2
145 211 1
145 262 1
145 362 1
145 420 1
145 452 1
146 18 1
146 98 1
146 178 2
146 212 1
146 263 1
146 363 1
146 421 1
146 453 1
147 19 1
147 99 1
147 179 2
147 213 1
147 264 1
147 364 1
147 422 1
147 454 1
148 20 1
148 100 1
148 180 2
148 214 1
148 265 1
148 365 1
148 423 1
148 455 1
149 21 1
149 101 1
149 181 2
149 215 1
149 266 1
149 366 1
149 424 1
149 456 1
150 22 1
150 102 1
150 182 2
150 216 1
150 267 1
150 367 1
150 425 1
150 457 1
151 23 1
151 103 1
151 183 2
151 217 1
151 268 1
151 368 1
151 426 1
151 458 1
152 24 1
152 104 1
152 184 2
152 218 1
152 269 1
152 369 1
152 427 1
152 459 1
153 25 1
153 105 1
153 185 2
153 219 1
153 270 1
153 370 1
153 428 1
153 460 1
154 26 1
154 106 1
154 186 2
154 220 1
154 271 1
154 371 1
154 429 1
154 461 1
155 27 1
155 107 1
155 187 2
155 221 1
155 272 1
155 372 1
155 430 1
155 462 1
156 28 1
156 108 1
156 188 2
156 222 1
156 273 1
156 373 1
156 431 1
156 463 1
157 29 1
157 109 1
157 189 2
157 223 1
157 274 1
157 374 1
157 432 1
157 464 1
158 30 1
158 110 1
158 190 2
158 224 1
158 275 1
158 375 1
158 433 1
158 465 1
159 31 1
159 111 1
159 191 2
159 225 1
159 276 1
159 376 1
159 434 1
159 466 1
160 32 1
160 112 1
160 192 2
160 226 1
160 277 1
160 377 1
160 435 1
160 467 1
161 33 1
161 113 1
161 129 2
161 227 1
161 278 1
161 378 1
161 436 1
161 468 1
162 34 1
162 114 1
162 130 2
162 228 1
162 279 1
162 379 1
162 437 1
162 469 1
163 35 1
163 115 1
163 131 2
163 229 1
163 280 1
163 380 1
163 438 1
163 470 1
164 36 1
164 116 1
164 132 2
164 230 1
164 281 1
164 381 1
164 439 1
164 471 1
165 37 1
165 117 1
165 133 2
165 231 1
165 282 1
165 382 1
165 440 1
165 472 1
166 38 1
166 118 1
166 134 2
166 232 1
166 283 1
166 383 1
166 441 1
166 473 1
167 39 1
167 119 1
167 135 2
167 233 1
167 284 1
167 384 1
167 442 1
167 474 1
168 40 1
168 120 1
168 136 2
168 234 1
168 285 1
168 321 1
168 443 1
168 475 1
169 41 1
169 121 1
169 137 2
169 235 1
169 286 1
169 322 1
169 444 1
169 476 1
170 42 1
170 122 1
170 138 2
170 236 1
170 287 1
170 323 1
170 445 1
170 477 1
171 43 1
171 123 1
171 139 2
171 237 1
171 288 1
171 324 1
171 446 1
171 478 1
172 44 1
172 124 1
172 140 2
172 238 1
172 289 1
172 325 1
172 447 1
172 479 1
173 45 1
173 125 1
173 141 2
173 239 1
173 290 1
173 326 1
173 448 1
173 480 1
174 46 1
174 126 1
174 142 2
174 240 1
174 291 1
174 327 1
174 385 1
174 481 1
175 47 1
175 127 1
175 143 2
175 241 1
175 292 1
175 328 1
175 386 1
175 482 1
176 48 1
176 128 1
176 144 2
176 242 1
176 293 1
176 329 1
176 387 1
176 483 1
177 49 1
177 65 1
177 145 2
177 243 1
177 294 1
177 330 1
177 388 1
177 484 1
178 50 1
178 66 1
178 146 2
178 244 1
178 295 1
178 331 1
178 389 1
178 485 1
179 51 1
179 67 1
179 147 2
179 245 1
179 296 1
179 332 1
179 390 1
179 486 1
180 52 1
180 68 1
180 148 2
180 246 1
180 297 1
180 333 1
180 391 1
180 487 1
181 53 1
181 69 1
181 149 2
181 247 1
181 298 1
181 334 1
181 392 1
181 488 1
182 54 1
182 70 1
182 150 2
182 248 1
182 299 1
182 335 1
182 393 1
182 489 1
183 55 1
183 71 1
183 151 2
183 249 1
183 300 1
183 336 1
183 394 1
183 490 1
184 56 1
184 72 1
184 152 2
184 250 1
184 301 1
184 337 1
184 395 1
184 491 1
185 57 1
185 73 1
185 153 2
185 251 1
185 302 1
185 338 1
185 396 1
185 492 1
186 58 1
186 74 1
186 154 2
186 252 1
186 303 1
186 339 1
186 397 1
186 493 1
187 59 1
187 75 1
187 155 2
187 253 1
187 304 1
187 340 1
187 398 1
187 494 1
188 60 1
188 76 1
188 156 2
188 254 1
188 305 1
188 341 1
188 399 1
188 495 1
189 61 1
189 77 1
189 157 2
189 255 1
189 306 1
189 342 1
189 400 1
189 496 1
190 62 1
190 78 1
190 158 2
190 256 1
190 307 1
190 343 1
190 401 1
190 497 1
191 63 1
191 79 1
191 159 2
191 193 1
191 308 1
191 344 1
191 402 1
191 498 1
192 64 1
192 80 1
192 160 2
192 194 1
192 309 1
192 345 1
192 403 1
192 499 1
