%%MatrixMarket matrix coordinate integer general
% Binary matrix over GF(2).
% Coordinate indices are 1-based; omitted entries are zero.
384 1024 3264
1 1 1
1 197 1
1 343 1
1 453 1
1 514 1
1 727 1
1 871 1
1 999 1
2 2 1
2 198 1
2 344 1
2 454 1
2 513 1
2 514 1
2 728 1
2 872 1
2 1000 1
3 3 1
3 199 1
3 345 1
3 455 1
3 516 1
3 729 1
3 873 1
3 1001 1
4 4 1
4 200 1
4 346 1
4 456 1
4 515 1
4 516 1
4 730 1
4 874 1
4 1002 1
5 5 1
5 201 1
5 347 1
5 457 1
5 518 1
5 731 1
5 875 1
5 1003 1
6 6 1
6 202 1
6 348 1
6 458 1
6 517 1
6 518 1
6 732 1
6 876 1
6 1004 1
7 7 1
7 203 1
7 349 1
7 459 1
7 520 1
7 733 1
7 877 1
7 1005 1
8 8 1
8 204 1
8 350 1
8 460 1
8 519 1
8 520 1
8 734 1
8 878 1
8 1006 1
9 9 1
9 205 1
9 351 1
9 461 1
9 522 1
9 735 1
9 879 1
9 1007 1
10 10 1
10 206 1
10 352 1
10 462 1
10 521 1
10 522 1
10 736 1
10 880 1
10 1008 1
11 11 1
11 207 1
11 353 1
11 463 1
11 524 1
11 737 1
11 881 1
11 1009 1
12 12 1
12 208 1
12 354 1
12 464 1
12 523 1
12 524 1
12 738 1
12 882 1
12 1010 1
13 13 1
13 209 1
13 355 1
13 465 1
13 526 1
13 739 1
13 883 1
13 1011 1
14 14 1
14 210 1
14 356 1
14 466 1
14 525 1
14 526 1
14 740 1
14 884 1
14 1012 1
15 15 1
15 211 1
15 357 1
15 467 1
15 528 1
15 741 1
15 885 1
15 1013 1
16 16 1
16 212 1
16 358 1
16 468 1
16 527 1
16 528 1
16 742 1
16 886 1
16 1014 1
17 17 1
17 213 1
17 359 1
17 469 1
17 530 1
17 743 1
17 887 1
17 1015 1
18 18 1
18 214 1
18 360 1
18 470 1
18 529 1
18 530 1
18 744 1
18 888 1
18 1016 1
19 19 1
19 215 1
19 361 1
19 471 1
19 532 1
19 745 1
19 889 1
19 1017 1
20 20 1
20 216 1
20 362 1
20 472 1
20 531 1
20 532 1
20 746 1
20 890 1
20 1018 1
21 21 1
21 217 1
21 363 1
21 473 1
21 534 1
21 747 1
21 891 1
21 1019 1
22 22 1
22 218 1
22 364 1
22 474 1
22 533 1
22 534 1
22 748 1
22 892 1
22 1020 1
23 23 1
23 219 1
23 365 1
23 475 1
23 536 1
23 749 1
23 893 1
23 1021 1
24 24 1
24 220 1
24 366 1
24 476 1
24 535 1
24 536 1
24 750 1
24 894 1
24 1022 1
25 25 1
25 221 1
25 367 1
25 477 1
25 538 1
25 751 1
25 895 1
25 1023 1
26 26 1
26 222 1
26 368 1
26 478 1
26 537 1
26 538 1
26 752 1
26 896 1
26 1024 1
27 27 1
27 223 1
27 369 1
27 479 1
27 540 1
27 753 1
27 769 1
27 897 1
28 28 1
28 224 1
28 370 1
28 480 1
28 539 1
28 540 1
28 754 1
28 770 1
28 898 1
29 29 1
29 225 1
29 371 1
29 481 1
29 542 1
29 755 1
29 771 1
29 899 1
30 30 1
30 226 1
30 372 1
30 482 1
30 541 1
30 542 1
30 756 1
30 772 1
30 900 1
31 31 1
31 227 1
31 373 1
31 483 1
31 544 1
31 757 1
31 773 1
31 901 1
32 32 1
32 228 1
32 374 1
32 484 1
32 543 1
32 544 1
32 758 1
32 774 1
32 902 1
33 33 1
33 229 1
33 375 1
33 485 1
33 546 1
33 759 1
33 775 1
33 903 1
34 34 1
34 230 1
34 376 1
34 486 1
34 545 1
34 546 1
34 760 1
34 776 1
34 904 1
35 35 1
35 231 1
35 377 1
35 487 1
35 548 1
35 761 1
35 777 1
35 905 1
36 36 1
36 232 1
36 378 1
36 488 1
36 547 1
36 548 1
36 762 1
36 778 1
36 906 1
37 37 1
37 233 1
37 379 1
37 489 1
37 550 1
37 763 1
37 779 1
37 907 1
38 38 1
38 234 1
38 380 1
38 490 1
38 549 1
38 550 1
38 764 1
38 780 1
38 908 1
39 39 1
39 235 1
39 381 1
39 491 1
39 552 1
39 765 1
39 781 1
39 909 1
40 40 1
40 236 1
40 382 1
40 492 1
40 551 1
40 552 1
40 766 1
40 782 1
40 910 1
41 41 1
41 237 1
41 383 1
41 493 1
41 554 1
41 767 1
41 783 1
41 911 1
42 42 1
42 238 1
42 384 1
42 494 1
42 553 1
42 554 1
42 768 1
42 784 1
42 912 1
43 43 1
43 239 1
43 257 1
43 495 1
43 556 1
43 641 1
43 785 1
43 913 1
44 44 1
44 240 1
44 258 1
44 496 1
44 555 1
44 556 1
44 642 1
44 786 1
44 914 1
45 45 1
45 241 1
45 259 1
45 497 1
45 558 1
45 643 1
45 787 1
45 915 1
46 46 1
46 242 1
46 260 1
46 498 1
46 557 1
46 558 1
46 644 1
46 788 1
46 916 1
47 47 1
47 243 1
47 261 1
47 499 1
47 560 1
47 645 1
47 789 1
47 917 1
48 48 1
48 244 1
48 262 1
48 500 1
48 559 1
48 560 1
48 646 1
48 790 1
48 918 1
49 49 1
49 245 1
49 263 1
49 501 1
49 562 1
49 647 1
49 791 1
49 919 1
50 50 1
50 246 1
50 264 1
50 502 1
50 561 1
50 562 1
50 648 1
50 792 1
50 920 1
51 51 1
51 247 1
51 265 1
51 503 1
51 564 1
51 649 1
51 793 1
51 921 1
52 52 1
52 248 1
52 266 1
52 504 1
52 563 1
52 564 1
52 650 1
52 794 1
52 922 1
53 53 1
53 249 1
53 267 1
53 505 1
53 566 1
53 651 1
53 795 1
53 923 1
54 54 1
54 250 1
54 268 1
54 506 1
54 565 1
54 566 1
54 652 1
54 796 1
54 924 1
55 55 1
55 251 1
55 269 1
55 507 1
55 568 1
55 653 1
55 797 1
55 925 1
56 56 1
56 252 1
56 270 1
56 508 1
56 567 1
56 568 1
56 654 1
56 798 1
56 926 1
57 57 1
57 253 1
57 271 1
57 509 1
57 570 1
57 655 1
57 799 1
57 927 1
58 58 1
58 254 1
58 272 1
58 510 1
58 569 1
58 570 1
58 656 1
58 800 1
58 928 1
59 59 1
59 255 1
59 273 1
59 511 1
59 572 1
59 657 1
59 801 1
59 929 1
60 60 1
60 256 1
60 274 1
60 512 1
60 571 1
60 572 1
60 658 1
60 802 1
60 930 1
61 61 1
61 129 1
61 275 1
61 385 1
61 574 1
61 659 1
61 803 1
61 931 1
62 62 1
62 130 1
62 276 1
62 386 1
62 573 1
62 574 1
62 660 1
62 804 1
62 932 1
63 63 1
63 131 1
63 277 1
63 387 1
63 576 1
63 661 1
63 805 1
63 933 1
64 64 1
64 132 1
64 278 1
64 388 1
64 575 1
64 576 1
64 662 1
64 806 1
64 934 1
65 65 1
65 133 1
65 279 1
65 389 1
65 578 1
65 663 1
65 807 1
65 935 1
66 66 1
66 134 1
66 280 1
66 390 1
66 577 1
66 578 1
66 664 1
66 808 1
66 936 1
67 67 1
67 135 1
67 281 1
67 391 1
67 580 1
67 665 1
67 809 1
67 937 1
68 68 1
68 136 1
68 282 1
68 392 1
68 579 1
68 580 1
68 666 1
68 810 1
68 938 1
69 69 1
69 137 1
69 283 1
69 393 1
69 582 1
69 667 1
69 811 1
69 939 1
70 70 1
70 138 1
70 284 1
70 394 1
70 581 1
70 582 1
70 668 1
70 812 1
70 940 1
71 71 1
71 139 1
71 285 1
71 395 1
71 584 1
71 669 1
71 813 1
71 941 1
72 72 1
72 140 1
72 286 1
72 396 1
72 583 1
72 584 1
72 670 1
72 814 1
72 942 1
73 73 1
73 141 1
73 287 1
73 397 1
73 586 1
73 671 1
73 815 1
73 943 1
74 74 1
74 142 1
74 288 1
74 398 1
74 585 1
74 586 1
74 672 1
74 816 1
74 944 1
75 75 1
75 143 1
75 289 1
75 399 1
75 588 1
75 673 1
75 817 1
75 945 1
76 76 1
76 144 1
76 290 1
76 400 1
76 587 1
76 588 1
76 674 1
76 818 1
76 946 1
77 77 1
77 145 1
77 291 1
77 401 1
77 590 1
77 675 1
77 819 1
77 947 1
78 78 1
78 146 1
78 292 1
78 402 1
78 589 1
78 590 1
78 676 1
78 820 1
78 948 1
79 79 1
79 147 1
79 293 1
79 403 1
79 592 1
79 677 1
79 821 1
79 949 1
80 80 1
80 148 1
80 294 1
80 404 1
80 591 1
80 592 1
80 678 1
80 822 1
80 950 1
81 81 1
81 149 1
81 295 1
81 405 1
81 594 1
81 679 1
81 823 1
81 951 1
82 82 1
82 150 1
82 296 1
82 406 1
82 593 1
82 594 1
82 680 1
82 824 1
82 952 1
83 83 1
83 151 1
83 297 1
83 407 1
83 596 1
83 681 1
83 825 1
83 953 1
84 84 1
84 152 1
84 298 1
84 408 1
84 595 1
84 596 1
84 682 1
84 826 1
84 954 1
85 85 1
85 153 1
85 299 1
85 409 1
85 598 1
85 683 1
85 827 1
85 955 1
86 86 1
86 154 1
86 300 1
86 410 1
86 597 1
86 598 1
86 684 1
86 828 1
86 956 1
87 87 1
87 155 1
87 301 1
87 411 1
87 600 1
87 685 1
87 829 1
87 957 1
88 88 1
88 156 1
88 302 1
88 412 1
88 599 1
88 600 1
88 686 1
88 830 1
88 958 1
89 89 1
89 157 1
89 303 1
89 413 1
89 602 1
89 687 1
89 831 1
89 959 1
90 90 1
90 158 1
90 304 1
90 414 1
90 601 1
90 602 1
90 688 1
90 832 1
90 960 1
91 91 1
91 159 1
91 305 1
91 415 1
91 604 1
91 689 1
91 833 1
91 961 1
92 92 1
92 160 1
92 306 1
92 416 1
92 603 1
92 604 1
92 690 1
92 834 1
92 962 1
93 93 1
93 161 1
93 307 1
93 417 1
93 606 1
93 691 1
93 835 1
93 963 1
94 94 1
94 162 1
94 308 1
94 418 1
94 605 1
94 606 1
94 692 1
94 836 1
94 964 1
95 95 1
95 163 1
95 309 1
95 419 1
95 608 1
95 693 1
95 837 1
95 965 1
96 96 1
96 164 1
96 310 1
96 420 1
96 607 1
96 608 1
96 694 1
96 838 1
96 966 1
97 97 1
97 165 1
97 311 1
97 421 1
97 610 1
97 695 1
97 839 1
97 967 1
98 98 1
98 166 1
98 312 1
98 422 1
98 609 1
98 610 1
98 696 1
98 840 1
98 968 1
99 99 1
99 167 1
99 313 1
99 423 1
99 612 1
99 697 1
99 841 1
99 969 1
100 100 1
100 168 1
100 314 1
100 424 1
100 611 1
100 612 1
100 698 1
100 842 1
100 970 1
101 101 1
101 169 1
101 315 1
101 425 1
101 614 1
101 699 1
101 843 1
101 971 1
102 102 1
102 170 1
102 316 1
102 426 1
102 613 1
102 614 1
102 700 1
102 844 1
102 972 1
103 103 1
103 171 1
103 317 1
103 427 1
103 616 1
103 701 1
103 845 1
103 973 1
104 104 1
104 172 1
104 318 1
104 428 1
104 615 1
104 616 1
104 702 1
104 846 1
104 974 1
105 105 1
105 173 1
105 319 1
105 429 1
105 618 1
105 703 1
105 847 1
105 975 1
106 106 1
106 174 1
106 320 1
106 430 1
106 617 1
106 618 1
106 704 1
106 848 1
106 976 1
107 107 1
107 175 1
107 321 1
107 431 1
107 620 1
107 705 1
107 849 1
107 977 1
108 108 1
108 176 1
108 322 1
108 432 1
108 619 1
108 620 1
108 706 1
108 850 1
108 978 1
109 109 1
109 177 1
109 323 1
109 433 1
109 622 1
109 707 1
109 851 1
109 979 1
110 110 1
110 178 1
110 324 1
110 434 1
110 621 1
110 622 1
110 708 1
110 852 1
110 980 1
111 111 1
111 179 1
111 325 1
111 435 1
111 624 1
111 709 1
111 853 1
111 981 1
112 112 1
112 180 1
112 326 1
112 436 1
112 623 1
112 624 1
112 710 1
112 854 1
112 982 1
113 113 1
113 181 1
113 327 1
113 437 1
113 626 1
113 711 1
113 855 1
113 983 1
114 114 1
114 182 1
114 328 1
114 438 1
114 625 1
114 626 1
114 712 1
114 856 1
114 984 1
115 115 1
115 183 1
115 329 1
115 439 1
115 628 1
115 713 1
115 857 1
115 985 1
116 116 1
116 184 1
116 330 1
116 440 1
116 627 1
116 628 1
116 714 1
116 858 1
116 986 1
117 117 1
117 185 1
117 331 1
117 441 1
117 630 1
117 715 1
117 859 1
117 987 1
118 118 1
118 186 1
118 332 1
118 442 1
118 629 1
118 630 1
118 716 1
118 860 1
118 988 1
119 119 1
119 187 1
119 333 1
119 443 1
119 632 1
119 717 1
119 861 1
119 989 1
120 120 1
120 188 1
120 334 1
120 444 1
120 631 1
120 632 1
120 718 1
120 862 1
120 990 1
121 121 1
121 189 1
121 335 1
121 445 1
121 634 1
121 719 1
121 863 1
121 991 1
122 122 1
122 190 1
122 336 1
122 446 1
122 633 1
122 634 1
122 720 1
122 864 1
122 992 1
123 123 1
123 191 1
123 337 1
123 447 1
123 636 1
123 721 1
123 865 1
123 993 1
124 124 1
124 192 1
124 338 1
124 448 1
124 635 1
124 636 1
124 722 1
124 866 1
124 994 1
125 125 1
125 193 1
125 339 1
125 449 1
125 638 1
125 723 1
125 867 1
125 995 1
126 126 1
126 194 1
126 340 1
126 450 1
126 637 1
126 638 1
126 724 1
126 868 1
126 996 1
127 127 1
127 195 1
127 341 1
127 451 1
127 640 1
127 725 1
127 869 1
127 997 1
128 128 1
128 196 1
128 342 1
128 452 1
128 639 1
128 640 1
128 726 1
128 870 1
128 998 1
129 1 1
129 235 1
129 271 1
129 463 1
129 619 1
129 642 1
129 783 1
129 975 1
130 2 1
130 236 1
130 272 1
130 464 1
130 620 1
130 641 1
130 642 1
130 784 1
130 976 1
131 3 1
131 237 1
131 273 1
131 465 1
131 621 1
131 644 1
131 785 1
131 977 1
132 4 1
132 238 1
132 274 1
132 466 1
132 622 1
132 643 1
132 644 1
132 786 1
132 978 1
133 5 1
133 239 1
133 275 1
133 467 1
133 623 1
133 646 1
133 787 1
133 979 1
134 6 1
134 240 1
134 276 1
134 468 1
134 624 1
134 645 1
134 646 1
134 788 1
134 980 1
135 7 1
135 241 1
135 277 1
135 469 1
135 625 1
135 648 1
135 789 1
135 981 1
136 8 1
136 242 1
136 278 1
136 470 1
136 626 1
136 647 1
136 648 1
136 790 1
136 982 1
137 9 1
137 243 1
137 279 1
137 471 1
137 627 1
137 650 1
137 791 1
137 983 1
138 10 1
138 244 1
138 280 1
138 472 1
138 628 1
138 649 1
138 650 1
138 792 1
138 984 1
139 11 1
139 245 1
139 281 1
139 473 1
139 629 1
139 652 1
139 793 1
139 985 1
140 12 1
140 246 1
140 282 1
140 474 1
140 630 1
140 651 1
140 652 1
140 794 1
140 986 1
141 13 1
141 247 1
141 283 1
141 475 1
141 631 1
141 654 1
141 795 1
141 987 1
142 14 1
142 248 1
142 284 1
142 476 1
142 632 1
142 653 1
142 654 1
142 796 1
142 988 1
143 15 1
143 249 1
143 285 1
143 477 1
143 633 1
143 656 1
143 797 1
143 989 1
144 16 1
144 250 1
144 286 1
144 478 1
144 634 1
144 655 1
144 656 1
144 798 1
144 990 1
145 17 1
145 251 1
145 287 1
145 479 1
145 635 1
145 658 1
145 799 1
145 991 1
146 18 1
146 252 1
146 288 1
146 480 1
146 636 1
146 657 1
146 658 1
146 800 1
146 992 1
147 19 1
147 253 1
147 289 1
147 481 1
147 637 1
147 660 1
147 801 1
147 993 1
148 20 1
148 254 1
148 290 1
148 482 1
148 638 1
148 659 1
148 660 1
148 802 1
148 994 1
149 21 1
149 255 1
149 291 1
149 483 1
149 639 1
149 662 1
149 803 1
149 995 1
150 22 1
150 256 1
150 292 1
150 484 1
150 640 1
150 661 1
150 662 1
150 804 1
150 996 1
151 23 1
151 129 1
151 293 1
151 485 1
151 513 1
151 664 1
151 805 1
151 997 1
152 24 1
152 130 1
152 294 1
152 486 1
152 514 1
152 663 1
152 664 1
152 806 1
152 998 1
153 25 1
153 131 1
153 295 1
153 487 1
153 515 1
153 666 1
153 807 1
153 999 1
154 26 1
154 132 1
154 296 1
154 488 1
154 516 1
154 665 1
154 666 1
154 808 1
154 1000 1
155 27 1
155 133 1
155 297 1
155 489 1
155 517 1
155 668 1
155 809 1
155 1001 1
156 28 1
156 134 1
156 298 1
156 490 1
156 518 1
156 667 1
156 668 1
156 810 1
156 1002 1
157 29 1
157 135 1
157 299 1
157 491 1
157 519 1
157 670 1
157 811 1
157 1003 1
158 30 1
158 136 1
158 300 1
158 492 1
158 520 1
158 669 1
158 670 1
158 812 1
158 1004 1
159 31 1
159 137 1
159 301 1
159 493 1
159 521 1
159 672 1
159 813 1
159 1005 1
160 32 1
160 138 1
160 302 1
160 494 1
160 522 1
160 671 1
160 672 1
160 814 1
160 1006 1
161 33 1
161 139 1
161 303 1
161 495 1
161 523 1
161 674 1
161 815 1
161 1007 1
162 34 1
162 140 1
162 304 1
162 496 1
162 524 1
162 673 1
162 674 1
162 816 1
162 1008 1
163 35 1
163 141 1
163 305 1
163 497 1
163 525 1
163 676 1
163 817 1
163 1009 1
164 36 1
164 142 1
164 306 1
164 498 1
164 526 1
164 675 1
164 676 1
164 818 1
164 1010 1
165 37 1
165 143 1
165 307 1
165 499 1
165 527 1
165 678 1
165 819 1
165 1011 1
166 38 1
166 144 1
166 308 1
166 500 1
166 528 1
166 677 1
166 678 1
166 820 1
166 1012 1
167 39 1
167 145 1
167 309 1
167 501 1
167 529 1
167 680 1
167 821 1
167 1013 1
168 40 1
168 146 1
168 310 1
168 502 1
168 530 1
168 679 1
168 680 1
168 822 1
168 1014 1
169 41 1
169 147 1
169 311 1
169 503 1
169 531 1
169 682 1
169 823 1
169 1015 1
170 42 1
170 148 1
170 312 1
170 504 1
170 532 1
170 681 1
170 682 1
170 824 1
170 1016 1
171 43 1
171 149 1
171 313 1
171 505 1
171 533 1
171 684 1
171 825 1
171 1017 1
172 44 1
172 150 1
172 314 1
172 506 1
172 534 1
172 683 1
172 684 1
172 826 1
172 1018 1
173 45 1
173 151 1
173 315 1
173 507 1
173 535 1
173 686 1
173 827 1
173 1019 1
174 46 1
174 152 1
174 316 1
174 508 1
174 536 1
174 685 1
174 686 1
174 828 1
174 1020 1
175 47 1
175 153 1
175 317 1
175 509 1
175 537 1
175 688 1
175 829 1
175 1021 1
176 48 1
176 154 1
176 318 1
176 510 1
176 538 1
176 687 1
176 688 1
176 830 1
176 1022 1
177 49 1
177 155 1
177 319 1
177 511 1
177 539 1
177 690 1
177 831 1
177 1023 1
178 50 1
178 156 1
178 320 1
178 512 1
178 540 1
178 689 1
178 690 1
178 832 1
178 1024 1
179 51 1
179 157 1
179 321 1
179 385 1
179 541 1
179 692 1
179 833 1
179 897 1
180 52 1
180 158 1
180 322 1
180 386 1
180 542 1
180 691 1
180 692 1
180 834 1
180 898 1
181 53 1
181 159 1
181 323 1
181 387 1
181 543 1
181 694 1
181 835 1
181 899 1
182 54 1
182 160 1
182 324 1
182 388 1
182 544 1
182 693 1
182 694 1
182 836 1
182 900 1
183 55 1
183 161 1
183 325 1
183 389 1
183 545 1
183 696 1
183 837 1
183 901 1
184 56 1
184 162 1
184 326 1
184 390 1
184 546 1
184 695 1
184 696 1
184 838 1
184 902 1
185 57 1
185 163 1
185 327 1
185 391 1
185 547 1
185 698 1
185 839 1
185 903 1
186 58 1
186 164 1
186 328 1
186 392 1
186 548 1
186 697 1
186 698 1
186 840 1
186 904 1
187 59 1
187 165 1
187 329 1
187 393 1
187 549 1
187 700 1
187 841 1
187 905 1
188 60 1
188 166 1
188 330 1
188 394 1
188 550 1
188 699 1
188 700 1
188 842 1
188 906 1
189 61 1
189 167 1
189 331 1
189 395 1
189 551 1
189 702 1
189 843 1
189 907 1
190 62 1
190 168 1
190 332 1
190 396 1
190 552 1
190 701 1
190 702 1
190 844 1
190 908 1
191 63 1
191 169 1
191 333 1
191 397 1
191 553 1
191 704 1
191 845 1
191 909 1
192 64 1
192 170 1
192 334 1
192 398 1
192 554 1
192 703 1
192 704 1
192 846 1
192 910 1
193 65 1
193 171 1
193 335 1
193 399 1
193 555 1
193 706 1
193 847 1
193 911 1
194 66 1
194 172 1
194 336 1
194 400 1
194 556 1
194 705 1
194 706 1
194 848 1
194 912 1
195 67 1
195 173 1
195 337 1
195 401 1
195 557 1
195 708 1
195 849 1
195 913 1
196 68 1
196 174 1
196 338 1
196 402 1
196 558 1
196 707 1
196 708 1
196 850 1
196 914 1
197 69 1
197 175 1
197 339 1
197 403 1
197 559 1
197 710 1
197 851 1
197 915 1
198 70 1
198 176 1
198 340 1
198 404 1
198 560 1
198 709 1
198 710 1
198 852 1
198 916 1
199 71 1
199 177 1
199 341 1
199 405 1
199 561 1
199 712 1
199 853 1
199 917 1
200 72 1
200 178 1
200 342 1
200 406 1
200 562 1
200 711 1
200 712 1
200 854 1
200 918 1
201 73 1
201 179 1
201 343 1
201 407 1
201 563 1
201 714 1
201 855 1
201 919 1
202 74 1
202 180 1
202 344 1
202 408 1
202 564 1
202 713 1
202 714 1
202 856 1
202 920 1
203 75 1
203 181 1
203 345 1
203 409 1
203 565 1
203 716 1
203 857 1
203 921 1
204 76 1
204 182 1
204 346 1
204 410 1
204 566 1
204 715 1
204 716 1
204 858 1
204 922 1
205 77 1
205 183 1
205 347 1
205 411 1
205 567 1
205 718 1
205 859 1
205 923 1
206 78 1
206 184 1
206 348 1
206 412 1
206 568 1
206 717 1
206 718 1
206 860 1
206 924 1
207 79 1
207 185 1
207 349 1
207 413 1
207 569 1
207 720 1
207 861 1
207 925 1
208 80 1
208 186 1
208 350 1
208 414 1
208 570 1
208 719 1
208 720 1
208 862 1
208 926 1
209 81 1
209 187 1
209 351 1
209 415 1
209 571 1
209 722 1
209 863 1
209 927 1
210 82 1
210 188 1
210 352 1
210 416 1
210 572 1
210 721 1
210 722 1
210 864 1
210 928 1
211 83 1
211 189 1
211 353 1
211 417 1
211 573 1
211 724 1
211 865 1
211 929 1
212 84 1
212 190 1
212 354 1
212 418 1
212 574 1
212 723 1
212 724 1
212 866 1
212 930 1
213 85 1
213 191 1
213 355 1
213 419 1
213 575 1
213 726 1
213 867 1
213 931 1
214 86 1
214 192 1
214 356 1
214 420 1
214 576 1
214 725 1
214 726 1
214 868 1
214 932 1
215 87 1
215 193 1
215 357 1
215 421 1
215 577 1
215 728 1
215 869 1
215 933 1
216 88 1
216 194 1
216 358 1
216 422 1
216 578 1
216 727 1
216 728 1
216 870 1
216 934 1
217 89 1
217 195 1
217 359 1
217 423 1
217 579 1
217 730 1
217 871 1
217 935 1
218 90 1
218 196 1
218 360 1
218 424 1
218 580 1
218 729 1
218 730 1
218 872 1
218 936 1
219 91 1
219 197 1
219 361 1
219 425 1
219 581 1
219 732 1
219 873 1
219 937 1
220 92 1
220 198 1
220 362 1
220 426 1
220 582 1
220 731 1
220 732 1
220 874 1
220 938 1
221 93 1
221 199 1
221 363 1
221 427 1
221 583 1
221 734 1
221 875 1
221 939 1
222 94 1
222 200 1
222 364 1
222 428 1
222 584 1
222 733 1
222 734 1
222 876 1
222 940 1
223 95 1
223 201 1
223 365 1
223 429 1
223 585 1
223 736 1
223 877 1
223 941 1
224 96 1
224 202 1
224 366 1
224 430 1
224 586 1
224 735 1
224 736 1
224 878 1
224 942 1
225 97 1
225 203 1
225 367 1
225 431 1
225 587 1
225 738 1
225 879 1
225 943 1
226 98 1
226 204 1
226 368 1
226 432 1
226 588 1
226 737 1
226 738 1
226 880 1
226 944 1
227 99 1
227 205 1
227 369 1
227 433 1
227 589 1
227 740 1
227 881 1
227 945 1
228 100 1
228 206 1
228 370 1
228 434 1
228 590 1
228 739 1
228 740 1
228 882 1
228 946 1
229 101 1
229 207 1
229 371 1
229 435 1
229 591 1
229 742 1
229 883 1
229 947 1
230 102 1
230 208 1
230 372 1
230 436 1
230 592 1
230 741 1
230 742 1
230 884 1
230 948 1
231 103 1
231 209 1
231 373 1
231 437 1
231 593 1
231 744 1
231 885 1
231 949 1
232 104 1
232 210 1
232 374 1
232 438 1
232 594 1
232 743 1
232 744 1
232 886 1
232 950 1
233 105 1
233 211 1
233 375 1
233 439 1
233 595 1
233 746 1
233 887 1
233 951 1
234 106 1
234 212 1
234 376 1
234 440 1
234 596 1
234 745 1
234 746 1
234 888 1
234 952 1
235 107 1
235 213 1
235 377 1
235 441 1
235 597 1
235 748 1
235 889 1
235 953 1
236 108 1
236 214 1
236 378 1
236 442 1
236 598 1
236 747 1
236 748 1
236 890 1
236 954 1
237 109 1
237 215 1
237 379 1
237 443 1
237 599 1
237 750 1
237 891 1
237 955 1
238 110 1
238 216 1
238 380 1
238 444 1
238 600 1
238 749 1
238 750 1
238 892 1
238 956 1
239 111 1
239 217 1
239 381 1
239 445 1
239 601 1
239 752 1
239 893 1
239 957 1
240 112 1
240 218 1
240 382 1
240 446 1
240 602 1
240 751 1
240 752 1
240 894 1
240 958 1
241 113 1
241 219 1
241 383 1
241 447 1
241 603 1
241 754 1
241 895 1
241 959 1
242 114 1
242 220 1
242 384 1
242 448 1
242 604 1
242 753 1
242 754 1
242 896 1
242 960 1
243 115 1
243 221 1
243 257 1
243 449 1
243 605 1
243 756 1
243 769 1
243 961 1
244 116 1
244 222 1
244 258 1
244 450 1
244 606 1
244 755 1
244 756 1
244 770 1
244 962 1
245 117 1
245 223 1
245 259 1
245 451 1
245 607 1
245 758 1
245 771 1
245 963 1
246 118 1
246 224 1
246 260 1
246 452 1
246 608 1
246 757 1
246 758 1
246 772 1
246 964 1
247 119 1
247 225 1
247 261 1
247 453 1
247 609 1
247 760 1
247 773 1
247 965 1
248 120 1
248 226 1
248 262 1
248 454 1
248 610 1
248 759 1
248 760 1
248 774 1
248 966 1
249 121 1
249 227 1
249 263 1
249 455 1
249 611 1
249 762 1
249 775 1
249 967 1
250 122 1
250 228 1
250 264 1
250 456 1
250 612 1
250 761 1
250 762 1
250 776 1
250 968 1
251 123 1
251 229 1
251 265 1
251 457 1
251 613 1
251 764 1
251 777 1
251 969 1
252 124 1
252 230 1
252 266 1
252 458 1
252 614 1
252 763 1
252 764 1
252 778 1
252 970 1
253 125 1
253 231 1
253 267 1
253 459 1
253 615 1
253 766 1
253 779 1
253 971 1
254 126 1
254 232 1
254 268 1
254 460 1
254 616 1
254 765 1
254 766 1
254 780 1
254 972 1
255 127 1
255 233 1
255 269 1
255 461 1
255 617 1
255 768 1
255 781 1
255 973 1
256 128 1
256 234 1
256 270 1
256 462 1
256 618 1
256 767 1
256 768 1
256 782 1
256 974 1
257 1 1
257 179 1
257 283 1
257 411 1
257 637 1
257 691 1
257 770 1
257 1021 1
258 2 1
258 180 1
258 284 1
258 412 1
258 638 1
258 692 1
258 769 1
258 770 1
258 1022 1
259 3 1
259 181 1
259 285 1
259 413 1
259 639 1
259 693 1
259 772 1
259 1023 1
260 4 1
260 182 1
260 286 1
260 414 1
260 640 1
260 694 1
260 771 1
260 772 1
260 1024 1
261 5 1
261 183 1
261 287 1
261 415 1
261 513 1
261 695 1
261 774 1
261 897 1
262 6 1
262 184 1
262 288 1
262 416 1
262 514 1
262 696 1
262 773 1
262 774 1
262 898 1
263 7 1
263 185 1
263 289 1
263 417 1
263 515 1
263 697 1
263 776 1
263 899 1
264 8 1
264 186 1
264 290 1
264 418 1
264 516 1
264 698 1
264 775 1
264 776 1
264 900 1
265 9 1
265 187 1
265 291 1
265 419 1
265 517 1
265 699 1
265 778 1
265 901 1
266 10 1
266 188 1
266 292 1
266 420 1
266 518 1
266 700 1
266 777 1
266 778 1
266 902 1
267 11 1
267 189 1
267 293 1
267 421 1
267 519 1
267 701 1
267 780 1
267 903 1
268 12 1
268 190 1
268 294 1
268 422 1
268 520 1
268 702 1
268 779 1
268 780 1
268 904 1
269 13 1
269 191 1
269 295 1
269 423 1
269 521 1
269 703 1
269 782 1
269 905 1
270 14 1
270 192 1
270 296 1
270 424 1
270 522 1
270 704 1
270 781 1
270 782 1
270 906 1
271 15 1
271 193 1
271 297 1
271 425 1
271 523 1
271 705 1
271 784 1
271 907 1
272 16 1
272 194 1
272 298 1
272 426 1
272 524 1
272 706 1
272 783 1
272 784 1
272 908 1
273 17 1
273 195 1
273 299 1
273 427 1
273 525 1
273 707 1
273 786 1
273 909 1
274 18 1
274 196 1
274 300 1
274 428 1
274 526 1
274 708 1
274 785 1
274 786 1
274 910 1
275 19 1
275 197 1
275 301 1
275 429 1
275 527 1
275 709 1
275 788 1
275 911 1
276 20 1
276 198 1
276 302 1
276 430 1
276 528 1
276 710 1
276 787 1
276 788 1
276 912 1
277 21 1
277 199 1
277 303 1
277 431 1
277 529 1
277 711 1
277 790 1
277 913 1
278 22 1
278 200 1
278 304 1
278 432 1
278 530 1
278 712 1
278 789 1
278 790 1
278 914 1
279 23 1
279 201 1
279 305 1
279 433 1
279 531 1
279 713 1
279 792 1
279 915 1
280 24 1
280 202 1
280 306 1
280 434 1
280 532 1
280 714 1
280 791 1
280 792 1
280 916 1
281 25 1
281 203 1
281 307 1
281 435 1
281 533 1
281 715 1
281 794 1
281 917 1
282 26 1
282 204 1
282 308 1
282 436 1
282 534 1
282 716 1
282 793 1
282 794 1
282 918 1
283 27 1
283 205 1
283 309 1
283 437 1
283 535 1
283 717 1
283 796 1
283 919 1
284 28 1
284 206 1
284 310 1
284 438 1
284 536 1
284 718 1
284 795 1
284 796 1
284 920 1
285 29 1
285 207 1
285 311 1
285 439 1
285 537 1
285 719 1
285 798 1
285 921 1
286 30 1
286 208 1
286 312 1
286 440 1
286 538 1
286 720 1
286 797 1
286 798 1
286 922 1
287 31 1
287 209 1
287 313 1
287 441 1
287 539 1
287 721 1
287 800 1
287 923 1
288 32 1
288 210 1
288 314 1
288 442 1
288 540 1
288 722 1
288 799 1
288 800 1
288 924 1
289 33 1
289 211 1
289 315 1
289 443 1
289 541 1
289 723 1
289 802 1
289 925 1
290 34 1
290 212 1
290 316 1
290 444 1
290 542 1
290 724 1
290 801 1
290 802 1
290 926 1
291 35 1
291 213 1
291 317 1
291 445 1
291 543 1
291 725 1
291 804 1
291 927 1
292 36 1
292 214 1
292 318 1
292 446 1
292 544 1
292 726 1
292 803 1
292 804 1
292 928 1
293 37 1
293 215 1
293 319 1
293 447 1
293 545 1
293 727 1
293 806 1
293 929 1
294 38 1
294 216 1
294 320 1
294 448 1
294 546 1
294 728 1
294 805 1
294 806 1
294 930 1
295 39 1
295 217 1
295 321 1
295 449 1
295 547 1
295 729 1
295 808 1
295 931 1
296 40 1
296 218 1
296 322 1
296 450 1
296 548 1
296 730 1
296 807 1
296 808 1
296 932 1
297 41 1
297 219 1
297 323 1
297 451 1
297 549 1
297 731 1
297 810 1
297 933 1
298 42 1
298 220 1
298 324 1
298 452 1
298 550 1
298 732 1
298 809 1
298 810 1
298 934 1
299 43 1
299 221 1
299 325 1
299 453 1
299 551 1
299 733 1
299 812 1
299 935 1
300 44 1
300 222 1
300 326 1
300 454 1
300 552 1
300 734 1
300 811 1
300 812 1
300 936 1
301 45 1
301 223 1
301 327 1
301 455 1
301 553 1
301 735 1
301 814 1
301 937 1
302 46 1
302 224 1
302 328 1
302 456 1
302 554 1
302 736 1
302 813 1
302 814 1
302 938 1
303 47 1
303 225 1
303 329 1
303 457 1
303 555 1
303 737 1
303 816 1
303 939 1
304 48 1
304 226 1
304 330 1
304 458 1
304 556 1
304 738 1
304 815 1
304 816 1
304 940 1
305 49 1
305 227 1
305 331 1
305 459 1
305 557 1
305 739 1
305 818 1
305 941 1
306 50 1
306 228 1
306 332 1
306 460 1
306 558 1
306 740 1
306 817 1
306 818 1
306 942 1
307 51 1
307 229 1
307 333 1
307 461 1
307 559 1
307 741 1
307 820 1
307 943 1
308 52 1
308 230 1
308 334 1
308 462 1
308 560 1
308 742 1
308 819 1
308 820 1
308 944 1
309 53 1
309 231 1
309 335 1
309 463 1
309 561 1
309 743 1
309 822 1
309 945 1
310 54 1
310 232 1
310 336 1
310 464 1
310 562 1
310 744 1
310 821 1
310 822 1
310 946 1
311 55 1
311 233 1
311 337 1
311 465 1
311 563 1
311 745 1
311 824 1
311 947 1
312 56 1
312 234 1
312 338 1
312 466 1
312 564 1
312 746 1
312 823 1
312 824 1
312 948 1
313 57 1
313 235 1
313 339 1
313 467 1
313 565 1
313 747 1
313 826 1
313 949 1
314 58 1
314 236 1
314 340 1
314 468 1
314 566 1
314 748 1
314 825 1
314 826 1
314 950 1
315 59 1
315 237 1
315 341 1
315 469 1
315 567 1
315 749 1
315 828 1
315 951 1
316 60 1
316 238 1
316 342 1
316 470 1
316 568 1
316 750 1
316 827 1
316 828 1
316 952 1
317 61 1
317 239 1
317 343 1
317 471 1
317 569 1
317 751 1
317 830 1
317 953 1
318 62 1
318 240 1
318 344 1
318 472 1
318 570 1
318 752 1
318 829 1
318 830 1
318 954 1
319 63 1
319 241 1
319 345 1
319 473 1
319 571 1
319 753 1
319 832 1
319 955 1
320 64 1
320 242 1
320 346 1
320 474 1
320 572 1
320 754 1
320 831 1
320 832 1
320 956 1
321 65 1
321 243 1
321 347 1
321 475 1
321 573 1
321 755 1
321 834 1
321 957 1
322 66 1
322 244 1
322 348 1
322 476 1
322 574 1
322 756 1
322 833 1
322 834 1
322 958 1
323 67 1
323 245 1
323 349 1
323 477 1
323 575 1
323 757 1
323 836 1
323 959 1
324 68 1
324 246 1
324 350 1
324 478 1
324 576 1
324 758 1
324 835 1
324 836 1
324 960 1
325 69 1
325 247 1
325 351 1
325 479 1
325 577 1
325 759 1
325 838 1
325 961 1
326 70 1
326 248 1
326 352 1
326 480 1
326 578 1
326 760 1
326 837 1
326 838 1
326 962 1
327 71 1
327 249 1
327 353 1
327 481 1
327 579 1
327 761 1
327 840 1
327 963 1
328 72 1
328 250 1
328 354 1
328 482 1
328 580 1
328 762 1
328 839 1
328 840 1
328 964 1
329 73 1
329 251 1
329 355 1
329 483 1
329 581 1
329 763 1
329 842 1
329 965 1
330 74 1
330 252 1
330 356 1
330 484 1
330 582 1
330 764 1
330 841 1
330 842 1
330 966 1
331 75 1
331 253 1
331 357 1
331 485 1
331 583 1
331 765 1
331 844 1
331 967 1
332 76 1
332 254 1
332 358 1
332 486 1
332 584 1
332 766 1
332 843 1
332 844 1
332 968 1
333 77 1
333 255 1
333 359 1
333 487 1
333 585 1
333 767 1
333 846 1
333 969 1
334 78 1
334 256 1
334 360 1
334 488 1
334 586 1
334 768 1
334 845 1
334 846 1
334 970 1
335 79 1
335 129 1
335 361 1
335 489 1
335 587 1
335 641 1
335 848 1
335 971 1
336 80 1
336 130 1
336 362 1
336 490 1
336 588 1
336 642 1
336 847 1
336 848 1
336 972 1
337 81 1
337 131 1
337 363 1
337 491 1
337 589 1
337 643 1
337 850 1
337 973 1
338 82 1
338 132 1
338 364 1
338 492 1
338 590 1
338 644 1
338 849 1
338 850 1
338 974 1
339 83 1
339 133 1
339 365 1
339 493 1
339 591 1
339 645 1
339 852 1
339 975 1
340 84 1
340 134 1
340 366 1
340 494 1
340 592 1
340 646 1
340 851 1
340 852 1
340 976 1
341 85 1
341 135 1
341 367 1
341 495 1
341 593 1
341 647 1
341 854 1
341 977 1
342 86 1
342 136 1
342 368 1
342 496 1
342 594 1
342 648 1
342 853 1
342 854 1
342 978 1
343 87 1
343 137 1
343 369 1
343 497 1
343 595 1
343 649 1
343 856 1
343 979 1
344 88 1
344 138 1
344 370 1
344 498 1
344 596 1
344 650 1
344 855 1
344 856 1
344 980 1
345 89 1
345 139 1
345 371 1
345 499 1
345 597 1
345 651 1
345 858 1
345 981 1
346 90 1
346 140 1
346 372 1
346 500 1
346 598 1
346 652 1
346 857 1
346 858 1
346 982 1
347 91 1
347 141 1
347 373 1
347 501 1
347 599 1
347 653 1
347 860 1
347 983 1
348 92 1
348 142 1
348 374 1
348 502 1
348 600 1
348 654 1
348 859 1
348 860 1
348 984 1
349 93 1
349 143 1
349 375 1
349 503 1
349 601 1
349 655 1
349 862 1
349 985 1
350 94 1
350 144 1
350 376 1
350 504 1
350 602 1
350 656 1
350 861 1
350 862 1
350 986 1
351 95 1
351 145 1
351 377 1
351 505 1
351 603 1
351 657 1
351 864 1
351 987 1
352 96 1
352 146 1
352 378 1
352 506 1
352 604 1
352 658 1
352 863 1
352 864 1
352 988 1
353 97 1
353 147 1
353 379 1
353 507 1
353 605 1
353 659 1
353 866 1
353 989 1
354 98 1
354 148 1
354 380 1
354 508 1
354 606 1
354 660 1
354 865 1
354 866 1
354 990 1
355 99 1
355 149 1
355 381 1
355 509 1
355 607 1
355 661 1
355 868 1
355 991 1
356 100 1
356 150 1
356 382 1
356 510 1
356 608 1
356 662 1
356 867 1
356 868 1
356 992 1
357 101 1
357 151 1
357 383 1
357 511 1
357 609 1
357 663 1
357 870 1
357 993 1
358 102 1
358 152 1
358 384 1
358 512 1
358 610 1
358 664 1
358 869 1
358 870 1
358 994 1
359 103 1
359 153 1
359 257 1
359 385 1
359 611 1
359 665 1
359 872 1
359 995 1
360 104 1
360 154 1
360 258 1
360 386 1
360 612 1
360 666 1
360 871 1
360 872 1
360 996 1
361 105 1
361 155 1
361 259 1
361 387 1
361 613 1
361 667 1
361 874 1
361 997 1
362 106 1
362 156 1
362 260 1
362 388 1
362 614 1
362 668 1
362 873 1
362 874 1
362 998 1
363 107 1
363 157 1
363 261 1
363 389 1
363 615 1
363 669 1
363 876 1
363 999 1
364 108 1
364 158 1
364 262 1
364 390 1
364 616 1
364 670 1
364 875 1
364 876 1
364 1000 1
365 109 1
365 159 1
365 263 1
365 391 1
365 617 1
365 671 1
365 878 1
365 1001 1
366 110 1
366 160 1
366 264 1
366 392 1
366 618 1
366 672 1
366 877 1
366 878 1
366 1002 1
367 111 1
367 161 1
367 265 1
367 393 1
367 619 1
367 673 1
367 880 1
367 1003 1
368 112 1
368 162 1
368 266 1
368 394 1
368 620 1
368 674 1
368 879 1
368 880 1
368 1004 1
369 113 1
369 163 1
369 267 1
369 395 1
369 621 1
369 675 1
369 882 1
369 1005 1
370 114 1
370 164 1
370 268 1
370 396 1
370 622 1
370 676 1
370 881 1
370 882 1
370 1006 1
371 115 1
371 165 1
371 269 1
371 397 1
371 623 1
371 677 1
371 884 1
371 1007 1
372 116 1
372 166 1
372 270 1
372 398 1
372 624 1
372 678 1
372 883 1
372 884 1
372 1008 1
373 117 1
373 167 1
373 271 1
373 399 1
373 625 1
373 679 1
373 886 1
373 1009 1
374 118 1
374 168 1
374 272 1
374 400 1
374 626 1
374 680 1
374 885 1
374 886 1
374 1010 1
375 119 1
375 169 1
375 273 1
375 401 1
375 627 1
375 681 1
375 888 1
375 1011 1
376 120 1
376 170 1
376 274 1
376 402 1
376 628 1
376 682 1
376 887 1
376 888 1
376 1012 1
377 121 1
377 171 1
377 275 1
377 403 1
377 629 1
377 683 1
377 890 1
377 1013 1
378 122 1
378 172 1
378 276 1
378 404 1
378 630 1
378 684 1
378 889 1
378 890 1
378 1014 1
379 123 1
379 173 1
379 277 1
379 405 1
379 631 1
379 685 1
379 892 1
379 1015 1
380 124 1
380 174 1
380 278 1
380 406 1
380 632 1
380 686 1
380 891 1
380 892 1
380 1016 1
381 125 1
381 175 1
381 279 1
381 407 1
381 633 1
381 687 1
381 894 1
381 1017 1
382 126 1
382 176 1
382 280 1
382 408 1
382 634 1
382 688 1
382 893 1
382 894 1
382 1018 1
383 127 1
383 177 1
383 281 1
383 409 1
383 635 1
383 689 1
383 896 1
383 1019 1
384 128 1
384 178 1
384 282 1
384 410 1
384 636 1
384 690 1
384 895 1
384 896 1
384 1020 1
