%%MatrixMarket matrix coordinate integer general
% GF(4) labels 0,1,2=omega,3=omega+1; arithmetic is NOT integer arithmetic.
% Coordinate indices are 1-based; omitted entries are zero.
192 512 1536
1 1 1
1 99 1
1 172 1
1 227 1
1 257 2
1 364 1
1 436 1
1 500 1
2 2 1
2 100 1
2 173 1
2 228 1
2 258 2
2 365 1
2 437 1
2 501 1
3 3 1
3 101 1
3 174 1
3 229 1
3 259 2
3 366 1
3 438 1
3 502 1
4 4 1
4 102 1
4 175 1
4 230 1
4 260 2
4 367 1
4 439 1
4 503 1
5 5 1
5 103 1
5 176 1
5 231 1
5 261 2
5 368 1
5 440 1
5 504 1
6 6 1
6 104 1
6 177 1
6 232 1
6 262 2
6 369 1
6 441 1
6 505 1
7 7 1
7 105 1
7 178 1
7 233 1
7 263 2
7 370 1
7 442 1
7 506 1
8 8 1
8 106 1
8 179 1
8 234 1
8 264 2
8 371 1
8 443 1
8 507 1
9 9 1
9 107 1
9 180 1
9 235 1
9 265 2
9 372 1
9 444 1
9 508 1
10 10 1
10 108 1
10 181 1
10 236 1
10 266 2
10 373 1
10 445 1
10 509 1
11 11 1
11 109 1
11 182 1
11 237 1
11 267 2
11 374 1
11 446 1
11 510 1
12 12 1
12 110 1
12 183 1
12 238 1
12 268 2
12 375 1
12 447 1
12 511 1
13 13 1
13 111 1
13 184 1
13 239 1
13 269 2
13 376 1
13 448 1
13 512 1
14 14 1
14 112 1
14 185 1
14 240 1
14 270 2
14 377 1
14 385 1
14 449 1
15 15 1
15 113 1
15 186 1
15 241 1
15 271 2
15 378 1
15 386 1
15 450 1
16 16 1
16 114 1
16 187 1
16 242 1
16 272 2
16 379 1
16 387 1
16 451 1
17 17 1
17 115 1
17 188 1
17 243 1
17 273 2
17 380 1
17 388 1
17 452 1
18 18 1
18 116 1
18 189 1
18 244 1
18 274 2
18 381 1
18 389 1
18 453 1
19 19 1
19 117 1
19 190 1
19 245 1
19 275 2
19 382 1
19 390 1
19 454 1
20 20 1
20 118 1
20 191 1
20 246 1
20 276 2
20 383 1
20 391 1
20 455 1
21 21 1
21 119 1
21 192 1
21 247 1
21 277 2
21 384 1
21 392 1
21 456 1
22 22 1
22 120 1
22 129 1
22 248 1
22 278 2
22 321 1
22 393 1
22 457 1
23 23 1
23 121 1
23 130 1
23 249 1
23 279 2
23 322 1
23 394 1
23 458 1
24 24 1
24 122 1
24 131 1
24 250 1
24 280 2
24 323 1
24 395 1
24 459 1
25 25 1
25 123 1
25 132 1
25 251 1
25 281 2
25 324 1
25 396 1
25 460 1
26 26 1
26 124 1
26 133 1
26 252 1
26 282 2
26 325 1
26 397 1
26 461 1
27 27 1
27 125 1
27 134 1
27 253 1
27 283 2
27 326 1
27 398 1
27 462 1
28 28 1
28 126 1
28 135 1
28 254 1
28 284 2
28 327 1
28 399 1
28 463 1
29 29 1
29 127 1
29 136 1
29 255 1
29 285 2
29 328 1
29 400 1
29 464 1
30 30 1
30 128 1
30 137 1
30 256 1
30 286 2
30 329 1
30 401 1
30 465 1
31 31 1
31 65 1
31 138 1
31 193 1
31 287 2
31 330 1
31 402 1
31 466 1
32 32 1
32 66 1
32 139 1
32 194 1
32 288 2
32 331 1
32 403 1
32 467 1
33 33 1
33 67 1
33 140 1
33 195 1
33 289 2
33 332 1
33 404 1
33 468 1
34 34 1
34 68 1
34 141 1
34 196 1
34 290 2
34 333 1
34 405 1
34 469 1
35 35 1
35 69 1
35 142 1
35 197 1
35 291 2
35 334 1
35 406 1
35 470 1
36 36 1
36 70 1
36 143 1
36 198 1
36 292 2
36 335 1
36 407 1
36 471 1
37 37 1
37 71 1
37 144 1
37 199 1
37 293 2
37 336 1
37 408 1
37 472 1
38 38 1
38 72 1
38 145 1
38 200 1
38 294 2
38 337 1
38 409 1
38 473 1
39 39 1
39 73 1
39 146 1
39 201 1
39 295 2
39 338 1
39 410 1
39 474 1
40 40 1
40 74 1
40 147 1
40 202 1
40 296 2
40 339 1
40 411 1
40 475 1
41 41 1
41 75 1
41 148 1
41 203 1
41 297 2
41 340 1
41 412 1
41 476 1
42 42 1
42 76 1
42 149 1
42 204 1
42 298 2
42 341 1
42 413 1
42 477 1
43 43 1
43 77 1
43 150 1
43 205 1
43 299 2
43 342 1
43 414 1
43 478 1
44 44 1
44 78 1
44 151 1
44 206 1
44 300 2
44 343 1
44 415 1
44 479 1
45 45 1
45 79 1
45 152 1
45 207 1
45 301 2
45 344 1
45 416 1
45 480 1
46 46 1
46 80 1
46 153 1
46 208 1
46 302 2
46 345 1
46 417 1
46 481 1
47 47 1
47 81 1
47 154 1
47 209 1
47 303 2
47 346 1
47 418 1
47 482 1
48 48 1
48 82 1
48 155 1
48 210 1
48 304 2
48 347 1
48 419 1
48 483 1
49 49 1
49 83 1
49 156 1
49 211 1
49 305 2
49 348 1
49 420 1
49 484 1
50 50 1
50 84 1
50 157 1
50 212 1
50 306 2
50 349 1
50 421 1
50 485 1
51 51 1
51 85 1
51 158 1
51 213 1
51 307 2
51 350 1
51 422 1
51 486 1
52 52 1
52 86 1
52 159 1
52 214 1
52 308 2
52 351 1
52 423 1
52 487 1
53 53 1
53 87 1
53 160 1
53 215 1
53 309 2
53 352 1
53 424 1
53 488 1
54 54 1
54 88 1
54 161 1
54 216 1
54 310 2
54 353 1
54 425 1
54 489 1
55 55 1
55 89 1
55 162 1
55 217 1
55 311 2
55 354 1
55 426 1
55 490 1
56 56 1
56 90 1
56 163 1
56 218 1
56 312 2
56 355 1
56 427 1
56 491 1
57 57 1
57 91 1
57 164 1
57 219 1
57 313 2
57 356 1
57 428 1
57 492 1
58 58 1
58 92 1
58 165 1
58 220 1
58 314 2
58 357 1
58 429 1
58 493 1
59 59 1
59 93 1
59 166 1
59 221 1
59 315 2
59 358 1
59 430 1
59 494 1
60 60 1
60 94 1
60 167 1
60 222 1
60 316 2
60 359 1
60 431 1
60 495 1
61 61 1
61 95 1
61 168 1
61 223 1
61 317 2
61 360 1
61 432 1
61 496 1
62 62 1
62 96 1
62 169 1
62 224 1
62 318 2
62 361 1
62 433 1
62 497 1
63 63 1
63 97 1
63 170 1
63 225 1
63 319 2
63 362 1
63 434 1
63 498 1
64 64 1
64 98 1
64 171 1
64 226 1
64 320 2
64 363 1
64 435 1
64 499 1
65 1 1
65 118 1
65 136 1
65 232 1
65 310 1
65 321 2
65 392 1
65 488 1
66 2 1
66 119 1
66 137 1
66 233 1
66 311 1
66 322 2
66 393 1
66 489 1
67 3 1
67 120 1
67 138 1
67 234 1
67 312 1
67 323 2
67 394 1
67 490 1
68 4 1
68 121 1
68 139 1
68 235 1
68 313 1
68 324 2
68 395 1
68 491 1
69 5 1
69 122 1
69 140 1
69 236 1
69 314 1
69 325 2
69 396 1
69 492 1
70 6 1
70 123 1
70 141 1
70 237 1
70 315 1
70 326 2
70 397 1
70 493 1
71 7 1
71 124 1
71 142 1
71 238 1
71 316 1
71 327 2
71 398 1
71 494 1
72 8 1
72 125 1
72 143 1
72 239 1
72 317 1
72 328 2
72 399 1
72 495 1
73 9 1
73 126 1
73 144 1
73 240 1
73 318 1
73 329 2
73 400 1
73 496 1
74 10 1
74 127 1
74 145 1
74 241 1
74 319 1
74 330 2
74 401 1
74 497 1
75 11 1
75 128 1
75 146 1
75 242 1
75 320 1
75 331 2
75 402 1
75 498 1
76 12 1
76 65 1
76 147 1
76 243 1
76 257 1
76 332 2
76 403 1
76 499 1
77 13 1
77 66 1
77 148 1
77 244 1
77 258 1
77 333 2
77 404 1
77 500 1
78 14 1
78 67 1
78 149 1
78 245 1
78 259 1
78 334 2
78 405 1
78 501 1
79 15 1
79 68 1
79 150 1
79 246 1
79 260 1
79 335 2
79 406 1
79 502 1
80 16 1
80 69 1
80 151 1
80 247 1
80 261 1
80 336 2
80 407 1
80 503 1
81 17 1
81 70 1
81 152 1
81 248 1
81 262 1
81 337 2
81 408 1
81 504 1
82 18 1
82 71 1
82 153 1
82 249 1
82 263 1
82 338 2
82 409 1
82 505 1
83 19 1
83 72 1
83 154 1
83 250 1
83 264 1
83 339 2
83 410 1
83 506 1
84 20 1
84 73 1
84 155 1
84 251 1
84 265 1
84 340 2
84 411 1
84 507 1
85 21 1
85 74 1
85 156 1
85 252 1
85 266 1
85 341 2
85 412 1
85 508 1
86 22 1
86 75 1
86 157 1
86 253 1
86 267 1
86 342 2
86 413 1
86 509 1
87 23 1
87 76 1
87 158 1
87 254 1
87 268 1
87 343 2
87 414 1
87 510 1
88 24 1
88 77 1
88 159 1
88 255 1
88 269 1
88 344 2
88 415 1
88 511 1
89 25 1
89 78 1
89 160 1
89 256 1
89 270 1
89 345 2
89 416 1
89 512 1
90 26 1
90 79 1
90 161 1
90 193 1
90 271 1
90 346 2
90 417 1
90 449 1
91 27 1
91 80 1
91 162 1
91 194 1
91 272 1
91 347 2
91 418 1
91 450 1
92 28 1
92 81 1
92 163 1
92 195 1
92 273 1
92 348 2
92 419 1
92 451 1
93 29 1
93 82 1
93 164 1
93 196 1
93 274 1
93 349 2
93 420 1
93 452 1
94 30 1
94 83 1
94 165 1
94 197 1
94 275 1
94 350 2
94 421 1
94 453 1
95 31 1
95 84 1
95 166 1
95 198 1
95 276 1
95 351 2
95 422 1
95 454 1
96 32 1
96 85 1
96 167 1
96 199 1
96 277 1
96 352 2
96 423 1
96 455 1
97 33 1
97 86 1
97 168 1
97 200 1
97 278 1
97 353 2
97 424 1
97 456 1
98 34 1
98 87 1
98 169 1
98 201 1
98 279 1
98 354 2
98 425 1
98 457 1
99 35 1
99 88 1
99 170 1
99 202 1
99 280 1
99 355 2
99 426 1
99 458 1
100 36 1
100 89 1
100 171 1
100 203 1
100 281 1
100 356 2
100 427 1
100 459 1
101 37 1
101 90 1
101 172 1
101 204 1
101 282 1
101 357 2
101 428 1
101 460 1
102 38 1
102 91 1
102 173 1
102 205 1
102 283 1
102 358 2
102 429 1
102 461 1
103 39 1
103 92 1
103 174 1
103 206 1
103 284 1
103 359 2
103 430 1
103 462 1
104 40 1
104 93 1
104 175 1
104 207 1
104 285 1
104 360 2
104 431 1
104 463 1
105 41 1
105 94 1
105 176 1
105 208 1
105 286 1
105 361 2
105 432 1
105 464 1
106 42 1
106 95 1
106 177 1
106 209 1
106 287 1
106 362 2
106 433 1
106 465 1
107 43 1
107 96 1
107 178 1
107 210 1
107 288 1
107 363 2
107 434 1
107 466 1
108 44 1
108 97 1
108 179 1
108 211 1
108 289 1
108 364 2
108 435 1
108 467 1
109 45 1
109 98 1
109 180 1
109 212 1
109 290 1
109 365 2
109 436 1
109 468 1
110 46 1
110 99 1
110 181 1
110 213 1
110 291 1
110 366 2
110 437 1
110 469 1
111 47 1
111 100 1
111 182 1
111 214 1
111 292 1
111 367 2
111 438 1
111 470 1
112 48 1
112 101 1
112 183 1
112 215 1
112 293 1
112 368 2
112 439 1
112 471 1
113 49 1
113 102 1
113 184 1
113 216 1
113 294 1
113 369 2
113 440 1
113 472 1
114 50 1
114 103 1
114 185 1
114 217 1
114 295 1
114 370 2
114 441 1
114 473 1
115 51 1
115 104 1
115 186 1
115 218 1
115 296 1
115 371 2
115 442 1
115 474 1
116 52 1
116 105 1
116 187 1
116 219 1
116 297 1
116 372 2
116 443 1
116 475 1
117 53 1
117 106 1
117 188 1
117 220 1
117 298 1
117 373 2
117 444 1
117 476 1
118 54 1
118 107 1
118 189 1
118 221 1
118 299 1
118 374 2
118 445 1
118 477 1
119 55 1
119 108 1
119 190 1
119 222 1
119 300 1
119 375 2
119 446 1
119 478 1
120 56 1
120 109 1
120 191 1
120 223 1
120 301 1
120 376 2
120 447 1
120 479 1
121 57 1
121 110 1
121 192 1
121 224 1
121 302 1
121 377 2
121 448 1
121 480 1
122 58 1
122 111 1
122 129 1
122 225 1
122 303 1
122 378 2
122 385 1
122 481 1
123 59 1
123 112 1
123 130 1
123 226 1
123 304 1
123 379 2
123 386 1
123 482 1
124 60 1
124 113 1
124 131 1
124 227 1
124 305 1
124 380 2
124 387 1
124 483 1
125 61 1
125 114 1
125 132 1
125 228 1
125 306 1
125 381 2
125 388 1
125 484 1
126 62 1
126 115 1
126 133 1
126 229 1
126 307 1
126 382 2
126 389 1
126 485 1
127 63 1
127 116 1
127 134 1
127 230 1
127 308 1
127 383 2
127 390 1
127 486 1
128 64 1
128 117 1
128 135 1
128 231 1
128 309 1
128 384 2
128 391 1
128 487 1
129 1 1
129 90 1
129 142 1
129 206 1
129 319 1
129 346 1
129 385 2
129 511 1
130 2 1
130 91 1
130 143 1
130 207 1
130 320 1
130 347 1
130 386 2
130 512 1
131 3 1
131 92 1
131 144 1
131 208 1
131 257 1
131 348 1
131 387 2
131 449 1
132 4 1
132 93 1
132 145 1
132 209 1
132 258 1
132 349 1
132 388 2
132 450 1
133 5 1
133 94 1
133 146 1
133 210 1
133 259 1
133 350 1
133 389 2
133 451 1
134 6 1
134 95 1
134 147 1
134 211 1
134 260 1
134 351 1
134 390 2
134 452 1
135 7 1
135 96 1
135 148 1
135 212 1
135 261 1
135 352 1
135 391 2
135 453 1
136 8 1
136 97 1
136 149 1
136 213 1
136 262 1
136 353 1
136 392 2
136 454 1
137 9 1
137 98 1
137 150 1
137 214 1
137 263 1
137 354 1
137 393 2
137 455 1
138 10 1
138 99 1
138 151 1
138 215 1
138 264 1
138 355 1
138 394 2
138 456 1
139 11 1
139 100 1
139 152 1
139 216 1
139 265 1
139 356 1
139 395 2
139 457 1
140 12 1
140 101 1
140 153 1
140 217 1
140 266 1
140 357 1
140 396 2
140 458 1
141 13 1
141 102 1
141 154 1
141 218 1
141 267 1
141 358 1
141 397 2
141 459 1
142 14 1
142 103 1
142 155 1
142 219 1
142 268 1
142 359 1
142 398 2
142 460 1
143 15 1
143 104 1
143 156 1
143 220 1
143 269 1
143 360 1
143 399 2
143 461 1
144 16 1
144 105 1
144 157 1
144 221 1
144 270 1
144 361 1
144 400 2
144 462 1
145 17 1
145 106 1
145 158 1
145 222 1
145 271 1
145 362 1
145 401 2
145 463 1
146 18 1
146 107 1
146 159 1
146 223 1
146 272 1
146 363 1
146 402 2
146 464 1
147 19 1
147 108 1
147 160 1
147 224 1
147 273 1
147 364 1
147 403 2
147 465 1
148 20 1
148 109 1
148 161 1
148 225 1
148 274 1
148 365 1
148 404 2
148 466 1
149 21 1
149 110 1
149 162 1
149 226 1
149 275 1
149 366 1
149 405 2
149 467 1
150 22 1
150 111 1
150 163 1
150 227 1
150 276 1
150 367 1
150 406 2
150 468 1
151 23 1
151 112 1
151 164 1
151 228 1
151 277 1
151 368 1
151 407 2
151 469 1
152 24 1
152 113 1
152 165 1
152 229 1
152 278 1
152 369 1
152 408 2
152 470 1
153 25 1
153 114 1
153 166 1
153 230 1
153 279 1
153 370 1
153 409 2
153 471 1
154 26 1
154 115 1
154 167 1
154 231 1
154 280 1
154 371 1
154 410 2
154 472 1
155 27 1
155 116 1
155 168 1
155 232 1
155 281 1
155 372 1
155 411 2
155 473 1
156 28 1
156 117 1
156 169 1
156 233 1
156 282 1
156 373 1
156 412 2
156 474 1
157 29 1
157 118 1
157 170 1
157 234 1
157 283 1
157 374 1
157 413 2
157 475 1
158 30 1
158 119 1
158 171 1
158 235 1
158 284 1
158 375 1
158 414 2
158 476 1
159 31 1
159 120 1
159 172 1
159 236 1
159 285 1
159 376 1
159 415 2
159 477 1
160 32 1
160 121 1
160 173 1
160 237 1
160 286 1
160 377 1
160 416 2
160 478 1
161 33 1
161 122 1
161 174 1
161 238 1
161 287 1
161 378 1
161 417 2
161 479 1
162 34 1
162 123 1
162 175 1
162 239 1
162 288 1
162 379 1
162 418 2
162 480 1
163 35 1
163 124 1
163 176 1
163 240 1
163 289 1
163 380 1
163 419 2
163 481 1
164 36 1
164 125 1
164 177 1
164 241 1
164 290 1
164 381 1
164 420 2
164 482 1
165 37 1
165 126 1
165 178 1
165 242 1
165 291 1
165 382 1
165 421 2
165 483 1
166 38 1
166 127 1
166 179 1
166 243 1
166 292 1
166 383 1
166 422 2
166 484 1
167 39 1
167 128 1
167 180 1
167 244 1
167 293 1
167 384 1
167 423 2
167 485 1
168 40 1
168 65 1
168 181 1
168 245 1
168 294 1
168 321 1
168 424 2
168 486 1
169 41 1
169 66 1
169 182 1
169 246 1
169 295 1
169 322 1
169 425 2
169 487 1
170 42 1
170 67 1
170 183 1
170 247 1
170 296 1
170 323 1
170 426 2
170 488 1
171 43 1
171 68 1
171 184 1
171 248 1
171 297 1
171 324 1
171 427 2
171 489 1
172 44 1
172 69 1
172 185 1
172 249 1
172 298 1
172 325 1
172 428 2
172 490 1
173 45 1
173 70 1
173 186 1
173 250 1
173 299 1
173 326 1
173 429 2
173 491 1
174 46 1
174 71 1
174 187 1
174 251 1
174 300 1
174 327 1
174 430 2
174 492 1
175 47 1
175 72 1
175 188 1
175 252 1
175 301 1
175 328 1
175 431 2
175 493 1
176 48 1
176 73 1
176 189 1
176 253 1
176 302 1
176 329 1
176 432 2
176 494 1
177 49 1
177 74 1
177 190 1
177 254 1
177 303 1
177 330 1
177 433 2
177 495 1
178 50 1
178 75 1
178 191 1
178 255 1
178 304 1
178 331 1
178 434 2
178 496 1
179 51 1
179 76 1
179 192 1
179 256 1
179 305 1
179 332 1
179 435 2
179 497 1
180 52 1
180 77 1
180 129 1
180 193 1
180 306 1
180 333 1
180 436 2
180 498 1
181 53 1
181 78 1
181 130 1
181 194 1
181 307 1
181 334 1
181 437 2
181 499 1
182 54 1
182 79 1
182 131 1
182 195 1
182 308 1
182 335 1
182 438 2
182 500 1
183 55 1
183 80 1
183 132 1
183 196 1
183 309 1
183 336 1
183 439 2
183 501 1
184 56 1
184 81 1
184 133 1
184 197 1
184 310 1
184 337 1
184 440 2
184 502 1
185 57 1
185 82 1
185 134 1
185 198 1
185 311 1
185 338 1
185 441 2
185 503 1
186 58 1
186 83 1
186 135 1
186 199 1
186 312 1
186 339 1
186 442 2
186 504 1
187 59 1
187 84 1
187 136 1
187 200 1
187 313 1
187 340 1
187 443 2
187 505 1
188 60 1
188 85 1
188 137 1
188 201 1
188 314 1
188 341 1
188 444 2
188 506 1
189 61 1
189 86 1
189 138 1
189 202 1
189 315 1
189 342 1
189 445 2
189 507 1
190 62 1
190 87 1
190 139 1
190 203 1
190 316 1
190 343 1
190 446 2
190 508 1
191 63 1
191 88 1
191 140 1
191 204 1
191 317 1
191 344 1
191 447 2
191 509 1
192 64 1
192 89 1
192 141 1
192 205 1
192 318 1
192 345 1
192 448 2
192 510 1
