%%MatrixMarket matrix coordinate integer general
% Binary matrix over GF(2).
% Coordinate indices are 1-based; omitted entries are zero.
256 1024 7616
1 258 1
1 289 1
1 295 1
1 322 1
1 353 1
1 359 1
1 360 1
1 399 1
1 417 1
1 423 1
1 432 1
1 450 1
1 487 1
1 488 1
1 515 1
1 530 1
1 548 1
1 555 1
1 579 1
1 637 1
1 666 1
1 679 1
1 691 1
1 697 1
1 730 1
1 737 1
2 260 1
2 291 1
2 297 1
2 324 1
2 355 1
2 361 1
2 362 1
2 401 1
2 419 1
2 425 1
2 434 1
2 452 1
2 489 1
2 490 1
2 517 1
2 532 1
2 550 1
2 557 1
2 581 1
2 639 1
2 668 1
2 681 1
2 693 1
2 699 1
2 732 1
2 739 1
3 262 1
3 293 1
3 299 1
3 326 1
3 357 1
3 363 1
3 364 1
3 403 1
3 421 1
3 427 1
3 436 1
3 454 1
3 491 1
3 492 1
3 513 1
3 519 1
3 534 1
3 552 1
3 559 1
3 583 1
3 670 1
3 683 1
3 695 1
3 701 1
3 734 1
3 741 1
4 264 1
4 295 1
4 301 1
4 328 1
4 359 1
4 365 1
4 366 1
4 405 1
4 423 1
4 429 1
4 438 1
4 456 1
4 493 1
4 494 1
4 515 1
4 521 1
4 536 1
4 554 1
4 561 1
4 585 1
4 672 1
4 685 1
4 697 1
4 703 1
4 736 1
4 743 1
5 266 1
5 297 1
5 303 1
5 330 1
5 361 1
5 367 1
5 368 1
5 407 1
5 425 1
5 431 1
5 440 1
5 458 1
5 495 1
5 496 1
5 517 1
5 523 1
5 538 1
5 556 1
5 563 1
5 587 1
5 674 1
5 687 1
5 699 1
5 705 1
5 738 1
5 745 1
6 268 1
6 299 1
6 305 1
6 332 1
6 363 1
6 369 1
6 370 1
6 409 1
6 427 1
6 433 1
6 442 1
6 460 1
6 497 1
6 498 1
6 519 1
6 525 1
6 540 1
6 558 1
6 565 1
6 589 1
6 676 1
6 689 1
6 701 1
6 707 1
6 740 1
6 747 1
7 270 1
7 301 1
7 307 1
7 334 1
7 365 1
7 371 1
7 372 1
7 411 1
7 429 1
7 435 1
7 444 1
7 462 1
7 499 1
7 500 1
7 521 1
7 527 1
7 542 1
7 560 1
7 567 1
7 591 1
7 678 1
7 691 1
7 703 1
7 709 1
7 742 1
7 749 1
8 272 1
8 303 1
8 309 1
8 336 1
8 367 1
8 373 1
8 374 1
8 413 1
8 431 1
8 437 1
8 446 1
8 464 1
8 501 1
8 502 1
8 523 1
8 529 1
8 544 1
8 562 1
8 569 1
8 593 1
8 680 1
8 693 1
8 705 1
8 711 1
8 744 1
8 751 1
9 274 1
9 305 1
9 311 1
9 338 1
9 369 1
9 375 1
9 376 1
9 415 1
9 433 1
9 439 1
9 448 1
9 466 1
9 503 1
9 504 1
9 525 1
9 531 1
9 546 1
9 564 1
9 571 1
9 595 1
9 682 1
9 695 1
9 707 1
9 713 1
9 746 1
9 753 1
10 276 1
10 307 1
10 313 1
10 340 1
10 371 1
10 377 1
10 378 1
10 417 1
10 435 1
10 441 1
10 450 1
10 468 1
10 505 1
10 506 1
10 527 1
10 533 1
10 548 1
10 566 1
10 573 1
10 597 1
10 684 1
10 697 1
10 709 1
10 715 1
10 748 1
10 755 1
11 278 1
11 309 1
11 315 1
11 342 1
11 373 1
11 379 1
11 380 1
11 419 1
11 437 1
11 443 1
11 452 1
11 470 1
11 507 1
11 508 1
11 529 1
11 535 1
11 550 1
11 568 1
11 575 1
11 599 1
11 686 1
11 699 1
11 711 1
11 717 1
11 750 1
11 757 1
12 280 1
12 311 1
12 317 1
12 344 1
12 375 1
12 381 1
12 382 1
12 421 1
12 439 1
12 445 1
12 454 1
12 472 1
12 509 1
12 510 1
12 531 1
12 537 1
12 552 1
12 570 1
12 577 1
12 601 1
12 688 1
12 701 1
12 713 1
12 719 1
12 752 1
12 759 1
13 282 1
13 313 1
13 319 1
13 346 1
13 377 1
13 383 1
13 384 1
13 423 1
13 441 1
13 447 1
13 456 1
13 474 1
13 511 1
13 512 1
13 533 1
13 539 1
13 554 1
13 572 1
13 579 1
13 603 1
13 690 1
13 703 1
13 715 1
13 721 1
13 754 1
13 761 1
14 257 1
14 258 1
14 284 1
14 315 1
14 321 1
14 348 1
14 379 1
14 385 1
14 386 1
14 425 1
14 443 1
14 449 1
14 458 1
14 476 1
14 535 1
14 541 1
14 556 1
14 574 1
14 581 1
14 605 1
14 692 1
14 705 1
14 717 1
14 723 1
14 756 1
14 763 1
15 259 1
15 260 1
15 286 1
15 317 1
15 323 1
15 350 1
15 381 1
15 387 1
15 388 1
15 427 1
15 445 1
15 451 1
15 460 1
15 478 1
15 537 1
15 543 1
15 558 1
15 576 1
15 583 1
15 607 1
15 694 1
15 707 1
15 719 1
15 725 1
15 758 1
15 765 1
16 261 1
16 262 1
16 288 1
16 319 1
16 325 1
16 352 1
16 383 1
16 389 1
16 390 1
16 429 1
16 447 1
16 453 1
16 462 1
16 480 1
16 539 1
16 545 1
16 560 1
16 578 1
16 585 1
16 609 1
16 696 1
16 709 1
16 721 1
16 727 1
16 760 1
16 767 1
17 257 1
17 263 1
17 264 1
17 290 1
17 321 1
17 327 1
17 354 1
17 391 1
17 392 1
17 431 1
17 449 1
17 455 1
17 464 1
17 482 1
17 541 1
17 547 1
17 562 1
17 580 1
17 587 1
17 611 1
17 641 1
17 698 1
17 711 1
17 723 1
17 729 1
17 762 1
18 259 1
18 265 1
18 266 1
18 292 1
18 323 1
18 329 1
18 356 1
18 393 1
18 394 1
18 433 1
18 451 1
18 457 1
18 466 1
18 484 1
18 543 1
18 549 1
18 564 1
18 582 1
18 589 1
18 613 1
18 643 1
18 700 1
18 713 1
18 725 1
18 731 1
18 764 1
19 261 1
19 267 1
19 268 1
19 294 1
19 325 1
19 331 1
19 358 1
19 395 1
19 396 1
19 435 1
19 453 1
19 459 1
19 468 1
19 486 1
19 545 1
19 551 1
19 566 1
19 584 1
19 591 1
19 615 1
19 645 1
19 702 1
19 715 1
19 727 1
19 733 1
19 766 1
20 263 1
20 269 1
20 270 1
20 296 1
20 327 1
20 333 1
20 360 1
20 397 1
20 398 1
20 437 1
20 455 1
20 461 1
20 470 1
20 488 1
20 547 1
20 553 1
20 568 1
20 586 1
20 593 1
20 617 1
20 647 1
20 704 1
20 717 1
20 729 1
20 735 1
20 768 1
21 265 1
21 271 1
21 272 1
21 298 1
21 329 1
21 335 1
21 362 1
21 399 1
21 400 1
21 439 1
21 457 1
21 463 1
21 472 1
21 490 1
21 549 1
21 555 1
21 570 1
21 588 1
21 595 1
21 619 1
21 642 1
21 649 1
21 706 1
21 719 1
21 731 1
21 737 1
22 267 1
22 273 1
22 274 1
22 300 1
22 331 1
22 337 1
22 364 1
22 401 1
22 402 1
22 441 1
22 459 1
22 465 1
22 474 1
22 492 1
22 551 1
22 557 1
22 572 1
22 590 1
22 597 1
22 621 1
22 644 1
22 651 1
22 708 1
22 721 1
22 733 1
22 739 1
23 269 1
23 275 1
23 276 1
23 302 1
23 333 1
23 339 1
23 366 1
23 403 1
23 404 1
23 443 1
23 461 1
23 467 1
23 476 1
23 494 1
23 553 1
23 559 1
23 574 1
23 592 1
23 599 1
23 623 1
23 646 1
23 653 1
23 710 1
23 723 1
23 735 1
23 741 1
24 271 1
24 277 1
24 278 1
24 304 1
24 335 1
24 341 1
24 368 1
24 405 1
24 406 1
24 445 1
24 463 1
24 469 1
24 478 1
24 496 1
24 555 1
24 561 1
24 576 1
24 594 1
24 601 1
24 625 1
24 648 1
24 655 1
24 712 1
24 725 1
24 737 1
24 743 1
25 273 1
25 279 1
25 280 1
25 306 1
25 337 1
25 343 1
25 370 1
25 407 1
25 408 1
25 447 1
25 465 1
25 471 1
25 480 1
25 498 1
25 557 1
25 563 1
25 578 1
25 596 1
25 603 1
25 627 1
25 650 1
25 657 1
25 714 1
25 727 1
25 739 1
25 745 1
26 275 1
26 281 1
26 282 1
26 308 1
26 339 1
26 345 1
26 372 1
26 409 1
26 410 1
26 449 1
26 467 1
26 473 1
26 482 1
26 500 1
26 559 1
26 565 1
26 580 1
26 598 1
26 605 1
26 629 1
26 652 1
26 659 1
26 716 1
26 729 1
26 741 1
26 747 1
27 277 1
27 283 1
27 284 1
27 310 1
27 341 1
27 347 1
27 374 1
27 411 1
27 412 1
27 451 1
27 469 1
27 475 1
27 484 1
27 502 1
27 561 1
27 567 1
27 582 1
27 600 1
27 607 1
27 631 1
27 654 1
27 661 1
27 718 1
27 731 1
27 743 1
27 749 1
28 279 1
28 285 1
28 286 1
28 312 1
28 343 1
28 349 1
28 376 1
28 413 1
28 414 1
28 453 1
28 471 1
28 477 1
28 486 1
28 504 1
28 563 1
28 569 1
28 584 1
28 602 1
28 609 1
28 633 1
28 656 1
28 663 1
28 720 1
28 733 1
28 745 1
28 751 1
29 281 1
29 287 1
29 288 1
29 314 1
29 345 1
29 351 1
29 378 1
29 415 1
29 416 1
29 455 1
29 473 1
29 479 1
29 488 1
29 506 1
29 565 1
29 571 1
29 586 1
29 604 1
29 611 1
29 635 1
29 658 1
29 665 1
29 722 1
29 735 1
29 747 1
29 753 1
30 283 1
30 289 1
30 290 1
30 316 1
30 347 1
30 353 1
30 380 1
30 417 1
30 418 1
30 457 1
30 475 1
30 481 1
30 490 1
30 508 1
30 567 1
30 573 1
30 588 1
30 606 1
30 613 1
30 637 1
30 660 1
30 667 1
30 724 1
30 737 1
30 749 1
30 755 1
31 285 1
31 291 1
31 292 1
31 318 1
31 349 1
31 355 1
31 382 1
31 419 1
31 420 1
31 459 1
31 477 1
31 483 1
31 492 1
31 510 1
31 569 1
31 575 1
31 590 1
31 608 1
31 615 1
31 639 1
31 662 1
31 669 1
31 726 1
31 739 1
31 751 1
31 757 1
32 287 1
32 293 1
32 294 1
32 320 1
32 351 1
32 357 1
32 384 1
32 421 1
32 422 1
32 461 1
32 479 1
32 485 1
32 494 1
32 512 1
32 513 1
32 571 1
32 577 1
32 592 1
32 610 1
32 617 1
32 664 1
32 671 1
32 728 1
32 741 1
32 753 1
32 759 1
33 258 1
33 289 1
33 295 1
33 296 1
33 322 1
33 353 1
33 359 1
33 386 1
33 423 1
33 424 1
33 463 1
33 481 1
33 487 1
33 496 1
33 515 1
33 573 1
33 579 1
33 594 1
33 612 1
33 619 1
33 666 1
33 673 1
33 730 1
33 743 1
33 755 1
33 761 1
34 260 1
34 291 1
34 297 1
34 298 1
34 324 1
34 355 1
34 361 1
34 388 1
34 425 1
34 426 1
34 465 1
34 483 1
34 489 1
34 498 1
34 517 1
34 575 1
34 581 1
34 596 1
34 614 1
34 621 1
34 668 1
34 675 1
34 732 1
34 745 1
34 757 1
34 763 1
35 262 1
35 293 1
35 299 1
35 300 1
35 326 1
35 357 1
35 363 1
35 390 1
35 427 1
35 428 1
35 467 1
35 485 1
35 491 1
35 500 1
35 519 1
35 577 1
35 583 1
35 598 1
35 616 1
35 623 1
35 670 1
35 677 1
35 734 1
35 747 1
35 759 1
35 765 1
36 264 1
36 295 1
36 301 1
36 302 1
36 328 1
36 359 1
36 365 1
36 392 1
36 429 1
36 430 1
36 469 1
36 487 1
36 493 1
36 502 1
36 521 1
36 579 1
36 585 1
36 600 1
36 618 1
36 625 1
36 672 1
36 679 1
36 736 1
36 749 1
36 761 1
36 767 1
37 266 1
37 297 1
37 303 1
37 304 1
37 330 1
37 361 1
37 367 1
37 394 1
37 431 1
37 432 1
37 471 1
37 489 1
37 495 1
37 504 1
37 523 1
37 581 1
37 587 1
37 602 1
37 620 1
37 627 1
37 641 1
37 674 1
37 681 1
37 738 1
37 751 1
37 763 1
38 268 1
38 299 1
38 305 1
38 306 1
38 332 1
38 363 1
38 369 1
38 396 1
38 433 1
38 434 1
38 473 1
38 491 1
38 497 1
38 506 1
38 525 1
38 583 1
38 589 1
38 604 1
38 622 1
38 629 1
38 643 1
38 676 1
38 683 1
38 740 1
38 753 1
38 765 1
39 270 1
39 301 1
39 307 1
39 308 1
39 334 1
39 365 1
39 371 1
39 398 1
39 435 1
39 436 1
39 475 1
39 493 1
39 499 1
39 508 1
39 527 1
39 585 1
39 591 1
39 606 1
39 624 1
39 631 1
39 645 1
39 678 1
39 685 1
39 742 1
39 755 1
39 767 1
40 272 1
40 303 1
40 309 1
40 310 1
40 336 1
40 367 1
40 373 1
40 400 1
40 437 1
40 438 1
40 477 1
40 495 1
40 501 1
40 510 1
40 529 1
40 587 1
40 593 1
40 608 1
40 626 1
40 633 1
40 641 1
40 647 1
40 680 1
40 687 1
40 744 1
40 757 1
41 274 1
41 305 1
41 311 1
41 312 1
41 338 1
41 369 1
41 375 1
41 402 1
41 439 1
41 440 1
41 479 1
41 497 1
41 503 1
41 512 1
41 531 1
41 589 1
41 595 1
41 610 1
41 628 1
41 635 1
41 643 1
41 649 1
41 682 1
41 689 1
41 746 1
41 759 1
42 276 1
42 307 1
42 313 1
42 314 1
42 340 1
42 371 1
42 377 1
42 386 1
42 404 1
42 441 1
42 442 1
42 481 1
42 499 1
42 505 1
42 533 1
42 591 1
42 597 1
42 612 1
42 630 1
42 637 1
42 645 1
42 651 1
42 684 1
42 691 1
42 748 1
42 761 1
43 278 1
43 309 1
43 315 1
43 316 1
43 342 1
43 373 1
43 379 1
43 388 1
43 406 1
43 443 1
43 444 1
43 483 1
43 501 1
43 507 1
43 535 1
43 593 1
43 599 1
43 614 1
43 632 1
43 639 1
43 647 1
43 653 1
43 686 1
43 693 1
43 750 1
43 763 1
44 280 1
44 311 1
44 317 1
44 318 1
44 344 1
44 375 1
44 381 1
44 390 1
44 408 1
44 445 1
44 446 1
44 485 1
44 503 1
44 509 1
44 513 1
44 537 1
44 595 1
44 601 1
44 616 1
44 634 1
44 649 1
44 655 1
44 688 1
44 695 1
44 752 1
44 765 1
45 282 1
45 313 1
45 319 1
45 320 1
45 346 1
45 377 1
45 383 1
45 392 1
45 410 1
45 447 1
45 448 1
45 487 1
45 505 1
45 511 1
45 515 1
45 539 1
45 597 1
45 603 1
45 618 1
45 636 1
45 651 1
45 657 1
45 690 1
45 697 1
45 754 1
45 767 1
46 257 1
46 284 1
46 315 1
46 321 1
46 322 1
46 348 1
46 379 1
46 385 1
46 394 1
46 412 1
46 449 1
46 450 1
46 489 1
46 507 1
46 517 1
46 541 1
46 599 1
46 605 1
46 620 1
46 638 1
46 641 1
46 653 1
46 659 1
46 692 1
46 699 1
46 756 1
47 259 1
47 286 1
47 317 1
47 323 1
47 324 1
47 350 1
47 381 1
47 387 1
47 396 1
47 414 1
47 451 1
47 452 1
47 491 1
47 509 1
47 519 1
47 543 1
47 601 1
47 607 1
47 622 1
47 640 1
47 643 1
47 655 1
47 661 1
47 694 1
47 701 1
47 758 1
48 261 1
48 288 1
48 319 1
48 325 1
48 326 1
48 352 1
48 383 1
48 389 1
48 398 1
48 416 1
48 453 1
48 454 1
48 493 1
48 511 1
48 514 1
48 521 1
48 545 1
48 603 1
48 609 1
48 624 1
48 645 1
48 657 1
48 663 1
48 696 1
48 703 1
48 760 1
49 257 1
49 263 1
49 290 1
49 321 1
49 327 1
49 328 1
49 354 1
49 385 1
49 391 1
49 400 1
49 418 1
49 455 1
49 456 1
49 495 1
49 516 1
49 523 1
49 547 1
49 605 1
49 611 1
49 626 1
49 647 1
49 659 1
49 665 1
49 698 1
49 705 1
49 762 1
50 259 1
50 265 1
50 292 1
50 323 1
50 329 1
50 330 1
50 356 1
50 387 1
50 393 1
50 402 1
50 420 1
50 457 1
50 458 1
50 497 1
50 518 1
50 525 1
50 549 1
50 607 1
50 613 1
50 628 1
50 649 1
50 661 1
50 667 1
50 700 1
50 707 1
50 764 1
51 261 1
51 267 1
51 294 1
51 325 1
51 331 1
51 332 1
51 358 1
51 389 1
51 395 1
51 404 1
51 422 1
51 459 1
51 460 1
51 499 1
51 520 1
51 527 1
51 551 1
51 609 1
51 615 1
51 630 1
51 651 1
51 663 1
51 669 1
51 702 1
51 709 1
51 766 1
52 263 1
52 269 1
52 296 1
52 327 1
52 333 1
52 334 1
52 360 1
52 391 1
52 397 1
52 406 1
52 424 1
52 461 1
52 462 1
52 501 1
52 522 1
52 529 1
52 553 1
52 611 1
52 617 1
52 632 1
52 653 1
52 665 1
52 671 1
52 704 1
52 711 1
52 768 1
53 265 1
53 271 1
53 298 1
53 329 1
53 335 1
53 336 1
53 362 1
53 393 1
53 399 1
53 408 1
53 426 1
53 463 1
53 464 1
53 503 1
53 524 1
53 531 1
53 555 1
53 613 1
53 619 1
53 634 1
53 642 1
53 655 1
53 667 1
53 673 1
53 706 1
53 713 1
54 267 1
54 273 1
54 300 1
54 331 1
54 337 1
54 338 1
54 364 1
54 395 1
54 401 1
54 410 1
54 428 1
54 465 1
54 466 1
54 505 1
54 526 1
54 533 1
54 557 1
54 615 1
54 621 1
54 636 1
54 644 1
54 657 1
54 669 1
54 675 1
54 708 1
54 715 1
55 269 1
55 275 1
55 302 1
55 333 1
55 339 1
55 340 1
55 366 1
55 397 1
55 403 1
55 412 1
55 430 1
55 467 1
55 468 1
55 507 1
55 528 1
55 535 1
55 559 1
55 617 1
55 623 1
55 638 1
55 646 1
55 659 1
55 671 1
55 677 1
55 710 1
55 717 1
56 271 1
56 277 1
56 304 1
56 335 1
56 341 1
56 342 1
56 368 1
56 399 1
56 405 1
56 414 1
56 432 1
56 469 1
56 470 1
56 509 1
56 530 1
56 537 1
56 561 1
56 619 1
56 625 1
56 640 1
56 648 1
56 661 1
56 673 1
56 679 1
56 712 1
56 719 1
57 273 1
57 279 1
57 306 1
57 337 1
57 343 1
57 344 1
57 370 1
57 401 1
57 407 1
57 416 1
57 434 1
57 471 1
57 472 1
57 511 1
57 514 1
57 532 1
57 539 1
57 563 1
57 621 1
57 627 1
57 650 1
57 663 1
57 675 1
57 681 1
57 714 1
57 721 1
58 275 1
58 281 1
58 308 1
58 339 1
58 345 1
58 346 1
58 372 1
58 385 1
58 403 1
58 409 1
58 418 1
58 436 1
58 473 1
58 474 1
58 516 1
58 534 1
58 541 1
58 565 1
58 623 1
58 629 1
58 652 1
58 665 1
58 677 1
58 683 1
58 716 1
58 723 1
59 277 1
59 283 1
59 310 1
59 341 1
59 347 1
59 348 1
59 374 1
59 387 1
59 405 1
59 411 1
59 420 1
59 438 1
59 475 1
59 476 1
59 518 1
59 536 1
59 543 1
59 567 1
59 625 1
59 631 1
59 654 1
59 667 1
59 679 1
59 685 1
59 718 1
59 725 1
60 279 1
60 285 1
60 312 1
60 343 1
60 349 1
60 350 1
60 376 1
60 389 1
60 407 1
60 413 1
60 422 1
60 440 1
60 477 1
60 478 1
60 520 1
60 538 1
60 545 1
60 569 1
60 627 1
60 633 1
60 656 1
60 669 1
60 681 1
60 687 1
60 720 1
60 727 1
61 281 1
61 287 1
61 314 1
61 345 1
61 351 1
61 352 1
61 378 1
61 391 1
61 409 1
61 415 1
61 424 1
61 442 1
61 479 1
61 480 1
61 522 1
61 540 1
61 547 1
61 571 1
61 629 1
61 635 1
61 658 1
61 671 1
61 683 1
61 689 1
61 722 1
61 729 1
62 283 1
62 289 1
62 316 1
62 347 1
62 353 1
62 354 1
62 380 1
62 393 1
62 411 1
62 417 1
62 426 1
62 444 1
62 481 1
62 482 1
62 524 1
62 542 1
62 549 1
62 573 1
62 631 1
62 637 1
62 660 1
62 673 1
62 685 1
62 691 1
62 724 1
62 731 1
63 285 1
63 291 1
63 318 1
63 349 1
63 355 1
63 356 1
63 382 1
63 395 1
63 413 1
63 419 1
63 428 1
63 446 1
63 483 1
63 484 1
63 526 1
63 544 1
63 551 1
63 575 1
63 633 1
63 639 1
63 662 1
63 675 1
63 687 1
63 693 1
63 726 1
63 733 1
64 287 1
64 293 1
64 320 1
64 351 1
64 357 1
64 358 1
64 384 1
64 397 1
64 415 1
64 421 1
64 430 1
64 448 1
64 485 1
64 486 1
64 513 1
64 528 1
64 546 1
64 553 1
64 577 1
64 635 1
64 664 1
64 677 1
64 689 1
64 695 1
64 728 1
64 735 1
65 257 1
65 258 1
65 290 1
65 296 1
65 321 1
65 322 1
65 354 1
65 359 1
65 400 1
65 418 1
65 424 1
65 431 1
65 432 1
65 449 1
65 450 1
65 487 1
65 516 1
65 529 1
65 530 1
65 547 1
65 548 1
65 556 1
65 580 1
65 638 1
65 665 1
65 666 1
65 680 1
65 692 1
65 698 1
65 729 1
65 730 1
65 738 1
66 259 1
66 260 1
66 292 1
66 298 1
66 323 1
66 324 1
66 356 1
66 361 1
66 402 1
66 420 1
66 426 1
66 433 1
66 434 1
66 451 1
66 452 1
66 489 1
66 518 1
66 531 1
66 532 1
66 549 1
66 550 1
66 558 1
66 582 1
66 640 1
66 667 1
66 668 1
66 682 1
66 694 1
66 700 1
66 731 1
66 732 1
66 740 1
67 261 1
67 262 1
67 294 1
67 300 1
67 325 1
67 326 1
67 358 1
67 363 1
67 404 1
67 422 1
67 428 1
67 435 1
67 436 1
67 453 1
67 454 1
67 491 1
67 514 1
67 520 1
67 533 1
67 534 1
67 551 1
67 552 1
67 560 1
67 584 1
67 669 1
67 670 1
67 684 1
67 696 1
67 702 1
67 733 1
67 734 1
67 742 1
68 263 1
68 264 1
68 296 1
68 302 1
68 327 1
68 328 1
68 360 1
68 365 1
68 406 1
68 424 1
68 430 1
68 437 1
68 438 1
68 455 1
68 456 1
68 493 1
68 516 1
68 522 1
68 535 1
68 536 1
68 553 1
68 554 1
68 562 1
68 586 1
68 671 1
68 672 1
68 686 1
68 698 1
68 704 1
68 735 1
68 736 1
68 744 1
69 265 1
69 266 1
69 298 1
69 304 1
69 329 1
69 330 1
69 362 1
69 367 1
69 408 1
69 426 1
69 432 1
69 439 1
69 440 1
69 457 1
69 458 1
69 495 1
69 518 1
69 524 1
69 537 1
69 538 1
69 555 1
69 556 1
69 564 1
69 588 1
69 673 1
69 674 1
69 688 1
69 700 1
69 706 1
69 737 1
69 738 1
69 746 1
70 267 1
70 268 1
70 300 1
70 306 1
70 331 1
70 332 1
70 364 1
70 369 1
70 410 1
70 428 1
70 434 1
70 441 1
70 442 1
70 459 1
70 460 1
70 497 1
70 520 1
70 526 1
70 539 1
70 540 1
70 557 1
70 558 1
70 566 1
70 590 1
70 675 1
70 676 1
70 690 1
70 702 1
70 708 1
70 739 1
70 740 1
70 748 1
71 269 1
71 270 1
71 302 1
71 308 1
71 333 1
71 334 1
71 366 1
71 371 1
71 412 1
71 430 1
71 436 1
71 443 1
71 444 1
71 461 1
71 462 1
71 499 1
71 522 1
71 528 1
71 541 1
71 542 1
71 559 1
71 560 1
71 568 1
71 592 1
71 677 1
71 678 1
71 692 1
71 704 1
71 710 1
71 741 1
71 742 1
71 750 1
72 271 1
72 272 1
72 304 1
72 310 1
72 335 1
72 336 1
72 368 1
72 373 1
72 414 1
72 432 1
72 438 1
72 445 1
72 446 1
72 463 1
72 464 1
72 501 1
72 524 1
72 530 1
72 543 1
72 544 1
72 561 1
72 562 1
72 570 1
72 594 1
72 679 1
72 680 1
72 694 1
72 706 1
72 712 1
72 743 1
72 744 1
72 752 1
73 273 1
73 274 1
73 306 1
73 312 1
73 337 1
73 338 1
73 370 1
73 375 1
73 416 1
73 434 1
73 440 1
73 447 1
73 448 1
73 465 1
73 466 1
73 503 1
73 526 1
73 532 1
73 545 1
73 546 1
73 563 1
73 564 1
73 572 1
73 596 1
73 681 1
73 682 1
73 696 1
73 708 1
73 714 1
73 745 1
73 746 1
73 754 1
74 275 1
74 276 1
74 308 1
74 314 1
74 339 1
74 340 1
74 372 1
74 377 1
74 418 1
74 436 1
74 442 1
74 449 1
74 450 1
74 467 1
74 468 1
74 505 1
74 528 1
74 534 1
74 547 1
74 548 1
74 565 1
74 566 1
74 574 1
74 598 1
74 683 1
74 684 1
74 698 1
74 710 1
74 716 1
74 747 1
74 748 1
74 756 1
75 277 1
75 278 1
75 310 1
75 316 1
75 341 1
75 342 1
75 374 1
75 379 1
75 420 1
75 438 1
75 444 1
75 451 1
75 452 1
75 469 1
75 470 1
75 507 1
75 530 1
75 536 1
75 549 1
75 550 1
75 567 1
75 568 1
75 576 1
75 600 1
75 685 1
75 686 1
75 700 1
75 712 1
75 718 1
75 749 1
75 750 1
75 758 1
76 279 1
76 280 1
76 312 1
76 318 1
76 343 1
76 344 1
76 376 1
76 381 1
76 422 1
76 440 1
76 446 1
76 453 1
76 454 1
76 471 1
76 472 1
76 509 1
76 532 1
76 538 1
76 551 1
76 552 1
76 569 1
76 570 1
76 578 1
76 602 1
76 687 1
76 688 1
76 702 1
76 714 1
76 720 1
76 751 1
76 752 1
76 760 1
77 281 1
77 282 1
77 314 1
77 320 1
77 345 1
77 346 1
77 378 1
77 383 1
77 424 1
77 442 1
77 448 1
77 455 1
77 456 1
77 473 1
77 474 1
77 511 1
77 534 1
77 540 1
77 553 1
77 554 1
77 571 1
77 572 1
77 580 1
77 604 1
77 689 1
77 690 1
77 704 1
77 716 1
77 722 1
77 753 1
77 754 1
77 762 1
78 257 1
78 283 1
78 284 1
78 316 1
78 322 1
78 347 1
78 348 1
78 380 1
78 385 1
78 426 1
78 444 1
78 450 1
78 457 1
78 458 1
78 475 1
78 476 1
78 536 1
78 542 1
78 555 1
78 556 1
78 573 1
78 574 1
78 582 1
78 606 1
78 691 1
78 692 1
78 706 1
78 718 1
78 724 1
78 755 1
78 756 1
78 764 1
79 259 1
79 285 1
79 286 1
79 318 1
79 324 1
79 349 1
79 350 1
79 382 1
79 387 1
79 428 1
79 446 1
79 452 1
79 459 1
79 460 1
79 477 1
79 478 1
79 538 1
79 544 1
79 557 1
79 558 1
79 575 1
79 576 1
79 584 1
79 608 1
79 693 1
79 694 1
79 708 1
79 720 1
79 726 1
79 757 1
79 758 1
79 766 1
80 261 1
80 287 1
80 288 1
80 320 1
80 326 1
80 351 1
80 352 1
80 384 1
80 389 1
80 430 1
80 448 1
80 454 1
80 461 1
80 462 1
80 479 1
80 480 1
80 540 1
80 546 1
80 559 1
80 560 1
80 577 1
80 578 1
80 586 1
80 610 1
80 695 1
80 696 1
80 710 1
80 722 1
80 728 1
80 759 1
80 760 1
80 768 1
81 258 1
81 263 1
81 289 1
81 290 1
81 322 1
81 328 1
81 353 1
81 354 1
81 391 1
81 432 1
81 450 1
81 456 1
81 463 1
81 464 1
81 481 1
81 482 1
81 542 1
81 548 1
81 561 1
81 562 1
81 579 1
81 580 1
81 588 1
81 612 1
81 642 1
81 697 1
81 698 1
81 712 1
81 724 1
81 730 1
81 761 1
81 762 1
82 260 1
82 265 1
82 291 1
82 292 1
82 324 1
82 330 1
82 355 1
82 356 1
82 393 1
82 434 1
82 452 1
82 458 1
82 465 1
82 466 1
82 483 1
82 484 1
82 544 1
82 550 1
82 563 1
82 564 1
82 581 1
82 582 1
82 590 1
82 614 1
82 644 1
82 699 1
82 700 1
82 714 1
82 726 1
82 732 1
82 763 1
82 764 1
83 262 1
83 267 1
83 293 1
83 294 1
83 326 1
83 332 1
83 357 1
83 358 1
83 395 1
83 436 1
83 454 1
83 460 1
83 467 1
83 468 1
83 485 1
83 486 1
83 546 1
83 552 1
83 565 1
83 566 1
83 583 1
83 584 1
83 592 1
83 616 1
83 646 1
83 701 1
83 702 1
83 716 1
83 728 1
83 734 1
83 765 1
83 766 1
84 264 1
84 269 1
84 295 1
84 296 1
84 328 1
84 334 1
84 359 1
84 360 1
84 397 1
84 438 1
84 456 1
84 462 1
84 469 1
84 470 1
84 487 1
84 488 1
84 548 1
84 554 1
84 567 1
84 568 1
84 585 1
84 586 1
84 594 1
84 618 1
84 648 1
84 703 1
84 704 1
84 718 1
84 730 1
84 736 1
84 767 1
84 768 1
85 266 1
85 271 1
85 297 1
85 298 1
85 330 1
85 336 1
85 361 1
85 362 1
85 399 1
85 440 1
85 458 1
85 464 1
85 471 1
85 472 1
85 489 1
85 490 1
85 550 1
85 556 1
85 569 1
85 570 1
85 587 1
85 588 1
85 596 1
85 620 1
85 641 1
85 642 1
85 650 1
85 705 1
85 706 1
85 720 1
85 732 1
85 738 1
86 268 1
86 273 1
86 299 1
86 300 1
86 332 1
86 338 1
86 363 1
86 364 1
86 401 1
86 442 1
86 460 1
86 466 1
86 473 1
86 474 1
86 491 1
86 492 1
86 552 1
86 558 1
86 571 1
86 572 1
86 589 1
86 590 1
86 598 1
86 622 1
86 643 1
86 644 1
86 652 1
86 707 1
86 708 1
86 722 1
86 734 1
86 740 1
87 270 1
87 275 1
87 301 1
87 302 1
87 334 1
87 340 1
87 365 1
87 366 1
87 403 1
87 444 1
87 462 1
87 468 1
87 475 1
87 476 1
87 493 1
87 494 1
87 554 1
87 560 1
87 573 1
87 574 1
87 591 1
87 592 1
87 600 1
87 624 1
87 645 1
87 646 1
87 654 1
87 709 1
87 710 1
87 724 1
87 736 1
87 742 1
88 272 1
88 277 1
88 303 1
88 304 1
88 336 1
88 342 1
88 367 1
88 368 1
88 405 1
88 446 1
88 464 1
88 470 1
88 477 1
88 478 1
88 495 1
88 496 1
88 556 1
88 562 1
88 575 1
88 576 1
88 593 1
88 594 1
88 602 1
88 626 1
88 647 1
88 648 1
88 656 1
88 711 1
88 712 1
88 726 1
88 738 1
88 744 1
89 274 1
89 279 1
89 305 1
89 306 1
89 338 1
89 344 1
89 369 1
89 370 1
89 407 1
89 448 1
89 466 1
89 472 1
89 479 1
89 480 1
89 497 1
89 498 1
89 558 1
89 564 1
89 577 1
89 578 1
89 595 1
89 596 1
89 604 1
89 628 1
89 649 1
89 650 1
89 658 1
89 713 1
89 714 1
89 728 1
89 740 1
89 746 1
90 276 1
90 281 1
90 307 1
90 308 1
90 340 1
90 346 1
90 371 1
90 372 1
90 409 1
90 450 1
90 468 1
90 474 1
90 481 1
90 482 1
90 499 1
90 500 1
90 560 1
90 566 1
90 579 1
90 580 1
90 597 1
90 598 1
90 606 1
90 630 1
90 651 1
90 652 1
90 660 1
90 715 1
90 716 1
90 730 1
90 742 1
90 748 1
91 278 1
91 283 1
91 309 1
91 310 1
91 342 1
91 348 1
91 373 1
91 374 1
91 411 1
91 452 1
91 470 1
91 476 1
91 483 1
91 484 1
91 501 1
91 502 1
91 562 1
91 568 1
91 581 1
91 582 1
91 599 1
91 600 1
91 608 1
91 632 1
91 653 1
91 654 1
91 662 1
91 717 1
91 718 1
91 732 1
91 744 1
91 750 1
92 280 1
92 285 1
92 311 1
92 312 1
92 344 1
92 350 1
92 375 1
92 376 1
92 413 1
92 454 1
92 472 1
92 478 1
92 485 1
92 486 1
92 503 1
92 504 1
92 564 1
92 570 1
92 583 1
92 584 1
92 601 1
92 602 1
92 610 1
92 634 1
92 655 1
92 656 1
92 664 1
92 719 1
92 720 1
92 734 1
92 746 1
92 752 1
93 282 1
93 287 1
93 313 1
93 314 1
93 346 1
93 352 1
93 377 1
93 378 1
93 415 1
93 456 1
93 474 1
93 480 1
93 487 1
93 488 1
93 505 1
93 506 1
93 566 1
93 572 1
93 585 1
93 586 1
93 603 1
93 604 1
93 612 1
93 636 1
93 657 1
93 658 1
93 666 1
93 721 1
93 722 1
93 736 1
93 748 1
93 754 1
94 284 1
94 289 1
94 315 1
94 316 1
94 348 1
94 354 1
94 379 1
94 380 1
94 417 1
94 458 1
94 476 1
94 482 1
94 489 1
94 490 1
94 507 1
94 508 1
94 568 1
94 574 1
94 587 1
94 588 1
94 605 1
94 606 1
94 614 1
94 638 1
94 659 1
94 660 1
94 668 1
94 723 1
94 724 1
94 738 1
94 750 1
94 756 1
95 286 1
95 291 1
95 317 1
95 318 1
95 350 1
95 356 1
95 381 1
95 382 1
95 419 1
95 460 1
95 478 1
95 484 1
95 491 1
95 492 1
95 509 1
95 510 1
95 570 1
95 576 1
95 589 1
95 590 1
95 607 1
95 608 1
95 616 1
95 640 1
95 661 1
95 662 1
95 670 1
95 725 1
95 726 1
95 740 1
95 752 1
95 758 1
96 288 1
96 293 1
96 319 1
96 320 1
96 352 1
96 358 1
96 383 1
96 384 1
96 421 1
96 462 1
96 480 1
96 486 1
96 493 1
96 494 1
96 511 1
96 512 1
96 514 1
96 572 1
96 578 1
96 591 1
96 592 1
96 609 1
96 610 1
96 618 1
96 663 1
96 664 1
96 672 1
96 727 1
96 728 1
96 742 1
96 754 1
96 760 1
97 257 1
97 258 1
97 290 1
97 295 1
97 321 1
97 322 1
97 354 1
97 360 1
97 385 1
97 386 1
97 423 1
97 464 1
97 482 1
97 488 1
97 495 1
97 496 1
97 516 1
97 574 1
97 580 1
97 593 1
97 594 1
97 611 1
97 612 1
97 620 1
97 665 1
97 666 1
97 674 1
97 729 1
97 730 1
97 744 1
97 756 1
97 762 1
98 259 1
98 260 1
98 292 1
98 297 1
98 323 1
98 324 1
98 356 1
98 362 1
98 387 1
98 388 1
98 425 1
98 466 1
98 484 1
98 490 1
98 497 1
98 498 1
98 518 1
98 576 1
98 582 1
98 595 1
98 596 1
98 613 1
98 614 1
98 622 1
98 667 1
98 668 1
98 676 1
98 731 1
98 732 1
98 746 1
98 758 1
98 764 1
99 261 1
99 262 1
99 294 1
99 299 1
99 325 1
99 326 1
99 358 1
99 364 1
99 389 1
99 390 1
99 427 1
99 468 1
99 486 1
99 492 1
99 499 1
99 500 1
99 520 1
99 578 1
99 584 1
99 597 1
99 598 1
99 615 1
99 616 1
99 624 1
99 669 1
99 670 1
99 678 1
99 733 1
99 734 1
99 748 1
99 760 1
99 766 1
100 263 1
100 264 1
100 296 1
100 301 1
100 327 1
100 328 1
100 360 1
100 366 1
100 391 1
100 392 1
100 429 1
100 470 1
100 488 1
100 494 1
100 501 1
100 502 1
100 522 1
100 580 1
100 586 1
100 599 1
100 600 1
100 617 1
100 618 1
100 626 1
100 671 1
100 672 1
100 680 1
100 735 1
100 736 1
100 750 1
100 762 1
100 768 1
101 265 1
101 266 1
101 298 1
101 303 1
101 329 1
101 330 1
101 362 1
101 368 1
101 393 1
101 394 1
101 431 1
101 472 1
101 490 1
101 496 1
101 503 1
101 504 1
101 524 1
101 582 1
101 588 1
101 601 1
101 602 1
101 619 1
101 620 1
101 628 1
101 642 1
101 673 1
101 674 1
101 682 1
101 737 1
101 738 1
101 752 1
101 764 1
102 267 1
102 268 1
102 300 1
102 305 1
102 331 1
102 332 1
102 364 1
102 370 1
102 395 1
102 396 1
102 433 1
102 474 1
102 492 1
102 498 1
102 505 1
102 506 1
102 526 1
102 584 1
102 590 1
102 603 1
102 604 1
102 621 1
102 622 1
102 630 1
102 644 1
102 675 1
102 676 1
102 684 1
102 739 1
102 740 1
102 754 1
102 766 1
103 269 1
103 270 1
103 302 1
103 307 1
103 333 1
103 334 1
103 366 1
103 372 1
103 397 1
103 398 1
103 435 1
103 476 1
103 494 1
103 500 1
103 507 1
103 508 1
103 528 1
103 586 1
103 592 1
103 605 1
103 606 1
103 623 1
103 624 1
103 632 1
103 646 1
103 677 1
103 678 1
103 686 1
103 741 1
103 742 1
103 756 1
103 768 1
104 271 1
104 272 1
104 304 1
104 309 1
104 335 1
104 336 1
104 368 1
104 374 1
104 399 1
104 400 1
104 437 1
104 478 1
104 496 1
104 502 1
104 509 1
104 510 1
104 530 1
104 588 1
104 594 1
104 607 1
104 608 1
104 625 1
104 626 1
104 634 1
104 642 1
104 648 1
104 679 1
104 680 1
104 688 1
104 743 1
104 744 1
104 758 1
105 273 1
105 274 1
105 306 1
105 311 1
105 337 1
105 338 1
105 370 1
105 376 1
105 401 1
105 402 1
105 439 1
105 480 1
105 498 1
105 504 1
105 511 1
105 512 1
105 532 1
105 590 1
105 596 1
105 609 1
105 610 1
105 627 1
105 628 1
105 636 1
105 644 1
105 650 1
105 681 1
105 682 1
105 690 1
105 745 1
105 746 1
105 760 1
106 275 1
106 276 1
106 308 1
106 313 1
106 339 1
106 340 1
106 372 1
106 378 1
106 385 1
106 386 1
106 403 1
106 404 1
106 441 1
106 482 1
106 500 1
106 506 1
106 534 1
106 592 1
106 598 1
106 611 1
106 612 1
106 629 1
106 630 1
106 638 1
106 646 1
106 652 1
106 683 1
106 684 1
106 692 1
106 747 1
106 748 1
106 762 1
107 277 1
107 278 1
107 310 1
107 315 1
107 341 1
107 342 1
107 374 1
107 380 1
107 387 1
107 388 1
107 405 1
107 406 1
107 443 1
107 484 1
107 502 1
107 508 1
107 536 1
107 594 1
107 600 1
107 613 1
107 614 1
107 631 1
107 632 1
107 640 1
107 648 1
107 654 1
107 685 1
107 686 1
107 694 1
107 749 1
107 750 1
107 764 1
108 279 1
108 280 1
108 312 1
108 317 1
108 343 1
108 344 1
108 376 1
108 382 1
108 389 1
108 390 1
108 407 1
108 408 1
108 445 1
108 486 1
108 504 1
108 510 1
108 514 1
108 538 1
108 596 1
108 602 1
108 615 1
108 616 1
108 633 1
108 634 1
108 650 1
108 656 1
108 687 1
108 688 1
108 696 1
108 751 1
108 752 1
108 766 1
109 281 1
109 282 1
109 314 1
109 319 1
109 345 1
109 346 1
109 378 1
109 384 1
109 391 1
109 392 1
109 409 1
109 410 1
109 447 1
109 488 1
109 506 1
109 512 1
109 516 1
109 540 1
109 598 1
109 604 1
109 617 1
109 618 1
109 635 1
109 636 1
109 652 1
109 658 1
109 689 1
109 690 1
109 698 1
109 753 1
109 754 1
109 768 1
110 258 1
110 283 1
110 284 1
110 316 1
110 321 1
110 347 1
110 348 1
110 380 1
110 386 1
110 393 1
110 394 1
110 411 1
110 412 1
110 449 1
110 490 1
110 508 1
110 518 1
110 542 1
110 600 1
110 606 1
110 619 1
110 620 1
110 637 1
110 638 1
110 642 1
110 654 1
110 660 1
110 691 1
110 692 1
110 700 1
110 755 1
110 756 1
111 260 1
111 285 1
111 286 1
111 318 1
111 323 1
111 349 1
111 350 1
111 382 1
111 388 1
111 395 1
111 396 1
111 413 1
111 414 1
111 451 1
111 492 1
111 510 1
111 520 1
111 544 1
111 602 1
111 608 1
111 621 1
111 622 1
111 639 1
111 640 1
111 644 1
111 656 1
111 662 1
111 693 1
111 694 1
111 702 1
111 757 1
111 758 1
112 262 1
112 287 1
112 288 1
112 320 1
112 325 1
112 351 1
112 352 1
112 384 1
112 390 1
112 397 1
112 398 1
112 415 1
112 416 1
112 453 1
112 494 1
112 512 1
112 513 1
112 514 1
112 522 1
112 546 1
112 604 1
112 610 1
112 623 1
112 624 1
112 646 1
112 658 1
112 664 1
112 695 1
112 696 1
112 704 1
112 759 1
112 760 1
113 258 1
113 264 1
113 289 1
113 290 1
113 322 1
113 327 1
113 353 1
113 354 1
113 386 1
113 392 1
113 399 1
113 400 1
113 417 1
113 418 1
113 455 1
113 496 1
113 515 1
113 516 1
113 524 1
113 548 1
113 606 1
113 612 1
113 625 1
113 626 1
113 648 1
113 660 1
113 666 1
113 697 1
113 698 1
113 706 1
113 761 1
113 762 1
114 260 1
114 266 1
114 291 1
114 292 1
114 324 1
114 329 1
114 355 1
114 356 1
114 388 1
114 394 1
114 401 1
114 402 1
114 419 1
114 420 1
114 457 1
114 498 1
114 517 1
114 518 1
114 526 1
114 550 1
114 608 1
114 614 1
114 627 1
114 628 1
114 650 1
114 662 1
114 668 1
114 699 1
114 700 1
114 708 1
114 763 1
114 764 1
115 262 1
115 268 1
115 293 1
115 294 1
115 326 1
115 331 1
115 357 1
115 358 1
115 390 1
115 396 1
115 403 1
115 404 1
115 421 1
115 422 1
115 459 1
115 500 1
115 519 1
115 520 1
115 528 1
115 552 1
115 610 1
115 616 1
115 629 1
115 630 1
115 652 1
115 664 1
115 670 1
115 701 1
115 702 1
115 710 1
115 765 1
115 766 1
116 264 1
116 270 1
116 295 1
116 296 1
116 328 1
116 333 1
116 359 1
116 360 1
116 392 1
116 398 1
116 405 1
116 406 1
116 423 1
116 424 1
116 461 1
116 502 1
116 521 1
116 522 1
116 530 1
116 554 1
116 612 1
116 618 1
116 631 1
116 632 1
116 654 1
116 666 1
116 672 1
116 703 1
116 704 1
116 712 1
116 767 1
116 768 1
117 266 1
117 272 1
117 297 1
117 298 1
117 330 1
117 335 1
117 361 1
117 362 1
117 394 1
117 400 1
117 407 1
117 408 1
117 425 1
117 426 1
117 463 1
117 504 1
117 523 1
117 524 1
117 532 1
117 556 1
117 614 1
117 620 1
117 633 1
117 634 1
117 641 1
117 642 1
117 656 1
117 668 1
117 674 1
117 705 1
117 706 1
117 714 1
118 268 1
118 274 1
118 299 1
118 300 1
118 332 1
118 337 1
118 363 1
118 364 1
118 396 1
118 402 1
118 409 1
118 410 1
118 427 1
118 428 1
118 465 1
118 506 1
118 525 1
118 526 1
118 534 1
118 558 1
118 616 1
118 622 1
118 635 1
118 636 1
118 643 1
118 644 1
118 658 1
118 670 1
118 676 1
118 707 1
118 708 1
118 716 1
119 270 1
119 276 1
119 301 1
119 302 1
119 334 1
119 339 1
119 365 1
119 366 1
119 398 1
119 404 1
119 411 1
119 412 1
119 429 1
119 430 1
119 467 1
119 508 1
119 527 1
119 528 1
119 536 1
119 560 1
119 618 1
119 624 1
119 637 1
119 638 1
119 645 1
119 646 1
119 660 1
119 672 1
119 678 1
119 709 1
119 710 1
119 718 1
120 272 1
120 278 1
120 303 1
120 304 1
120 336 1
120 341 1
120 367 1
120 368 1
120 400 1
120 406 1
120 413 1
120 414 1
120 431 1
120 432 1
120 469 1
120 510 1
120 529 1
120 530 1
120 538 1
120 562 1
120 620 1
120 626 1
120 639 1
120 640 1
120 647 1
120 648 1
120 662 1
120 674 1
120 680 1
120 711 1
120 712 1
120 720 1
121 274 1
121 280 1
121 305 1
121 306 1
121 338 1
121 343 1
121 369 1
121 370 1
121 402 1
121 408 1
121 415 1
121 416 1
121 433 1
121 434 1
121 471 1
121 512 1
121 513 1
121 514 1
121 531 1
121 532 1
121 540 1
121 564 1
121 622 1
121 628 1
121 649 1
121 650 1
121 664 1
121 676 1
121 682 1
121 713 1
121 714 1
121 722 1
122 276 1
122 282 1
122 307 1
122 308 1
122 340 1
122 345 1
122 371 1
122 372 1
122 386 1
122 404 1
122 410 1
122 417 1
122 418 1
122 435 1
122 436 1
122 473 1
122 515 1
122 516 1
122 533 1
122 534 1
122 542 1
122 566 1
122 624 1
122 630 1
122 651 1
122 652 1
122 666 1
122 678 1
122 684 1
122 715 1
122 716 1
122 724 1
123 278 1
123 284 1
123 309 1
123 310 1
123 342 1
123 347 1
123 373 1
123 374 1
123 388 1
123 406 1
123 412 1
123 419 1
123 420 1
123 437 1
123 438 1
123 475 1
123 517 1
123 518 1
123 535 1
123 536 1
123 544 1
123 568 1
123 626 1
123 632 1
123 653 1
123 654 1
123 668 1
123 680 1
123 686 1
123 717 1
123 718 1
123 726 1
124 280 1
124 286 1
124 311 1
124 312 1
124 344 1
124 349 1
124 375 1
124 376 1
124 390 1
124 408 1
124 414 1
124 421 1
124 422 1
124 439 1
124 440 1
124 477 1
124 519 1
124 520 1
124 537 1
124 538 1
124 546 1
124 570 1
124 628 1
124 634 1
124 655 1
124 656 1
124 670 1
124 682 1
124 688 1
124 719 1
124 720 1
124 728 1
125 282 1
125 288 1
125 313 1
125 314 1
125 346 1
125 351 1
125 377 1
125 378 1
125 392 1
125 410 1
125 416 1
125 423 1
125 424 1
125 441 1
125 442 1
125 479 1
125 521 1
125 522 1
125 539 1
125 540 1
125 548 1
125 572 1
125 630 1
125 636 1
125 657 1
125 658 1
125 672 1
125 684 1
125 690 1
125 721 1
125 722 1
125 730 1
126 284 1
126 290 1
126 315 1
126 316 1
126 348 1
126 353 1
126 379 1
126 380 1
126 394 1
126 412 1
126 418 1
126 425 1
126 426 1
126 443 1
126 444 1
126 481 1
126 523 1
126 524 1
126 541 1
126 542 1
126 550 1
126 574 1
126 632 1
126 638 1
126 659 1
126 660 1
126 674 1
126 686 1
126 692 1
126 723 1
126 724 1
126 732 1
127 286 1
127 292 1
127 317 1
127 318 1
127 350 1
127 355 1
127 381 1
127 382 1
127 396 1
127 414 1
127 420 1
127 427 1
127 428 1
127 445 1
127 446 1
127 483 1
127 525 1
127 526 1
127 543 1
127 544 1
127 552 1
127 576 1
127 634 1
127 640 1
127 661 1
127 662 1
127 676 1
127 688 1
127 694 1
127 725 1
127 726 1
127 734 1
128 288 1
128 294 1
128 319 1
128 320 1
128 352 1
128 357 1
128 383 1
128 384 1
128 398 1
128 416 1
128 422 1
128 429 1
128 430 1
128 447 1
128 448 1
128 485 1
128 514 1
128 527 1
128 528 1
128 545 1
128 546 1
128 554 1
128 578 1
128 636 1
128 663 1
128 664 1
128 678 1
128 690 1
128 696 1
128 727 1
128 728 1
128 736 1
129 386 1
129 415 1
129 416 1
129 418 1
129 512 1
129 513 1
129 514 1
129 516 1
129 540 1
129 573 1
129 605 1
129 606 1
129 638 1
129 664 1
129 691 1
129 692 1
129 722 1
129 723 1
129 724 1
129 729 1
129 730 1
129 769 1
129 770 1
129 802 1
129 808 1
129 833 1
129 834 1
129 866 1
129 871 1
130 386 1
130 388 1
130 417 1
130 418 1
130 420 1
130 515 1
130 516 1
130 518 1
130 542 1
130 575 1
130 607 1
130 608 1
130 640 1
130 666 1
130 693 1
130 694 1
130 724 1
130 725 1
130 726 1
130 731 1
130 732 1
130 771 1
130 772 1
130 804 1
130 810 1
130 835 1
130 836 1
130 868 1
130 873 1
131 388 1
131 390 1
131 419 1
131 420 1
131 422 1
131 514 1
131 517 1
131 518 1
131 520 1
131 544 1
131 577 1
131 609 1
131 610 1
131 668 1
131 695 1
131 696 1
131 726 1
131 727 1
131 728 1
131 733 1
131 734 1
131 773 1
131 774 1
131 806 1
131 812 1
131 837 1
131 838 1
131 870 1
131 875 1
132 390 1
132 392 1
132 421 1
132 422 1
132 424 1
132 516 1
132 519 1
132 520 1
132 522 1
132 546 1
132 579 1
132 611 1
132 612 1
132 670 1
132 697 1
132 698 1
132 728 1
132 729 1
132 730 1
132 735 1
132 736 1
132 775 1
132 776 1
132 808 1
132 814 1
132 839 1
132 840 1
132 872 1
132 877 1
133 392 1
133 394 1
133 423 1
133 424 1
133 426 1
133 518 1
133 521 1
133 522 1
133 524 1
133 548 1
133 581 1
133 613 1
133 614 1
133 672 1
133 699 1
133 700 1
133 730 1
133 731 1
133 732 1
133 737 1
133 738 1
133 777 1
133 778 1
133 810 1
133 816 1
133 841 1
133 842 1
133 874 1
133 879 1
134 394 1
134 396 1
134 425 1
134 426 1
134 428 1
134 520 1
134 523 1
134 524 1
134 526 1
134 550 1
134 583 1
134 615 1
134 616 1
134 674 1
134 701 1
134 702 1
134 732 1
134 733 1
134 734 1
134 739 1
134 740 1
134 779 1
134 780 1
134 812 1
134 818 1
134 843 1
134 844 1
134 876 1
134 881 1
135 396 1
135 398 1
135 427 1
135 428 1
135 430 1
135 522 1
135 525 1
135 526 1
135 528 1
135 552 1
135 585 1
135 617 1
135 618 1
135 676 1
135 703 1
135 704 1
135 734 1
135 735 1
135 736 1
135 741 1
135 742 1
135 781 1
135 782 1
135 814 1
135 820 1
135 845 1
135 846 1
135 878 1
135 883 1
136 398 1
136 400 1
136 429 1
136 430 1
136 432 1
136 524 1
136 527 1
136 528 1
136 530 1
136 554 1
136 587 1
136 619 1
136 620 1
136 678 1
136 705 1
136 706 1
136 736 1
136 737 1
136 738 1
136 743 1
136 744 1
136 783 1
136 784 1
136 816 1
136 822 1
136 847 1
136 848 1
136 880 1
136 885 1
137 400 1
137 402 1
137 431 1
137 432 1
137 434 1
137 526 1
137 529 1
137 530 1
137 532 1
137 556 1
137 589 1
137 621 1
137 622 1
137 680 1
137 707 1
137 708 1
137 738 1
137 739 1
137 740 1
137 745 1
137 746 1
137 785 1
137 786 1
137 818 1
137 824 1
137 849 1
137 850 1
137 882 1
137 887 1
138 402 1
138 404 1
138 433 1
138 434 1
138 436 1
138 528 1
138 531 1
138 532 1
138 534 1
138 558 1
138 591 1
138 623 1
138 624 1
138 682 1
138 709 1
138 710 1
138 740 1
138 741 1
138 742 1
138 747 1
138 748 1
138 787 1
138 788 1
138 820 1
138 826 1
138 851 1
138 852 1
138 884 1
138 889 1
139 404 1
139 406 1
139 435 1
139 436 1
139 438 1
139 530 1
139 533 1
139 534 1
139 536 1
139 560 1
139 593 1
139 625 1
139 626 1
139 684 1
139 711 1
139 712 1
139 742 1
139 743 1
139 744 1
139 749 1
139 750 1
139 789 1
139 790 1
139 822 1
139 828 1
139 853 1
139 854 1
139 886 1
139 891 1
140 406 1
140 408 1
140 437 1
140 438 1
140 440 1
140 532 1
140 535 1
140 536 1
140 538 1
140 562 1
140 595 1
140 627 1
140 628 1
140 686 1
140 713 1
140 714 1
140 744 1
140 745 1
140 746 1
140 751 1
140 752 1
140 791 1
140 792 1
140 824 1
140 830 1
140 855 1
140 856 1
140 888 1
140 893 1
141 408 1
141 410 1
141 439 1
141 440 1
141 442 1
141 534 1
141 537 1
141 538 1
141 540 1
141 564 1
141 597 1
141 629 1
141 630 1
141 688 1
141 715 1
141 716 1
141 746 1
141 747 1
141 748 1
141 753 1
141 754 1
141 793 1
141 794 1
141 826 1
141 832 1
141 857 1
141 858 1
141 890 1
141 895 1
142 410 1
142 412 1
142 441 1
142 442 1
142 444 1
142 536 1
142 539 1
142 540 1
142 542 1
142 566 1
142 599 1
142 631 1
142 632 1
142 690 1
142 717 1
142 718 1
142 748 1
142 749 1
142 750 1
142 755 1
142 756 1
142 769 1
142 795 1
142 796 1
142 828 1
142 834 1
142 859 1
142 860 1
142 892 1
143 412 1
143 414 1
143 443 1
143 444 1
143 446 1
143 538 1
143 541 1
143 542 1
143 544 1
143 568 1
143 601 1
143 633 1
143 634 1
143 692 1
143 719 1
143 720 1
143 750 1
143 751 1
143 752 1
143 757 1
143 758 1
143 771 1
143 797 1
143 798 1
143 830 1
143 836 1
143 861 1
143 862 1
143 894 1
144 414 1
144 416 1
144 445 1
144 446 1
144 448 1
144 540 1
144 543 1
144 544 1
144 546 1
144 570 1
144 603 1
144 635 1
144 636 1
144 694 1
144 721 1
144 722 1
144 752 1
144 753 1
144 754 1
144 759 1
144 760 1
144 773 1
144 799 1
144 800 1
144 832 1
144 838 1
144 863 1
144 864 1
144 896 1
145 416 1
145 418 1
145 447 1
145 448 1
145 450 1
145 542 1
145 545 1
145 546 1
145 548 1
145 572 1
145 605 1
145 637 1
145 638 1
145 696 1
145 723 1
145 724 1
145 754 1
145 755 1
145 756 1
145 761 1
145 762 1
145 770 1
145 775 1
145 801 1
145 802 1
145 834 1
145 840 1
145 865 1
145 866 1
146 418 1
146 420 1
146 449 1
146 450 1
146 452 1
146 544 1
146 547 1
146 548 1
146 550 1
146 574 1
146 607 1
146 639 1
146 640 1
146 698 1
146 725 1
146 726 1
146 756 1
146 757 1
146 758 1
146 763 1
146 764 1
146 772 1
146 777 1
146 803 1
146 804 1
146 836 1
146 842 1
146 867 1
146 868 1
147 420 1
147 422 1
147 451 1
147 452 1
147 454 1
147 513 1
147 514 1
147 546 1
147 549 1
147 550 1
147 552 1
147 576 1
147 609 1
147 700 1
147 727 1
147 728 1
147 758 1
147 759 1
147 760 1
147 765 1
147 766 1
147 774 1
147 779 1
147 805 1
147 806 1
147 838 1
147 844 1
147 869 1
147 870 1
148 422 1
148 424 1
148 453 1
148 454 1
148 456 1
148 515 1
148 516 1
148 548 1
148 551 1
148 552 1
148 554 1
148 578 1
148 611 1
148 702 1
148 729 1
148 730 1
148 760 1
148 761 1
148 762 1
148 767 1
148 768 1
148 776 1
148 781 1
148 807 1
148 808 1
148 840 1
148 846 1
148 871 1
148 872 1
149 424 1
149 426 1
149 455 1
149 456 1
149 458 1
149 517 1
149 518 1
149 550 1
149 553 1
149 554 1
149 556 1
149 580 1
149 613 1
149 641 1
149 642 1
149 704 1
149 731 1
149 732 1
149 762 1
149 763 1
149 764 1
149 778 1
149 783 1
149 809 1
149 810 1
149 842 1
149 848 1
149 873 1
149 874 1
150 426 1
150 428 1
150 457 1
150 458 1
150 460 1
150 519 1
150 520 1
150 552 1
150 555 1
150 556 1
150 558 1
150 582 1
150 615 1
150 643 1
150 644 1
150 706 1
150 733 1
150 734 1
150 764 1
150 765 1
150 766 1
150 780 1
150 785 1
150 811 1
150 812 1
150 844 1
150 850 1
150 875 1
150 876 1
151 428 1
151 430 1
151 459 1
151 460 1
151 462 1
151 521 1
151 522 1
151 554 1
151 557 1
151 558 1
151 560 1
151 584 1
151 617 1
151 645 1
151 646 1
151 708 1
151 735 1
151 736 1
151 766 1
151 767 1
151 768 1
151 782 1
151 787 1
151 813 1
151 814 1
151 846 1
151 852 1
151 877 1
151 878 1
152 430 1
152 432 1
152 461 1
152 462 1
152 464 1
152 523 1
152 524 1
152 556 1
152 559 1
152 560 1
152 562 1
152 586 1
152 619 1
152 641 1
152 642 1
152 647 1
152 648 1
152 710 1
152 737 1
152 738 1
152 768 1
152 784 1
152 789 1
152 815 1
152 816 1
152 848 1
152 854 1
152 879 1
152 880 1
153 432 1
153 434 1
153 463 1
153 464 1
153 466 1
153 525 1
153 526 1
153 558 1
153 561 1
153 562 1
153 564 1
153 588 1
153 621 1
153 642 1
153 643 1
153 644 1
153 649 1
153 650 1
153 712 1
153 739 1
153 740 1
153 786 1
153 791 1
153 817 1
153 818 1
153 850 1
153 856 1
153 881 1
153 882 1
154 434 1
154 436 1
154 465 1
154 466 1
154 468 1
154 527 1
154 528 1
154 560 1
154 563 1
154 564 1
154 566 1
154 590 1
154 623 1
154 644 1
154 645 1
154 646 1
154 651 1
154 652 1
154 714 1
154 741 1
154 742 1
154 788 1
154 793 1
154 819 1
154 820 1
154 852 1
154 858 1
154 883 1
154 884 1
155 436 1
155 438 1
155 467 1
155 468 1
155 470 1
155 529 1
155 530 1
155 562 1
155 565 1
155 566 1
155 568 1
155 592 1
155 625 1
155 646 1
155 647 1
155 648 1
155 653 1
155 654 1
155 716 1
155 743 1
155 744 1
155 790 1
155 795 1
155 821 1
155 822 1
155 854 1
155 860 1
155 885 1
155 886 1
156 438 1
156 440 1
156 469 1
156 470 1
156 472 1
156 531 1
156 532 1
156 564 1
156 567 1
156 568 1
156 570 1
156 594 1
156 627 1
156 648 1
156 649 1
156 650 1
156 655 1
156 656 1
156 718 1
156 745 1
156 746 1
156 792 1
156 797 1
156 823 1
156 824 1
156 856 1
156 862 1
156 887 1
156 888 1
157 440 1
157 442 1
157 471 1
157 472 1
157 474 1
157 533 1
157 534 1
157 566 1
157 569 1
157 570 1
157 572 1
157 596 1
157 629 1
157 650 1
157 651 1
157 652 1
157 657 1
157 658 1
157 720 1
157 747 1
157 748 1
157 794 1
157 799 1
157 825 1
157 826 1
157 858 1
157 864 1
157 889 1
157 890 1
158 442 1
158 444 1
158 473 1
158 474 1
158 476 1
158 535 1
158 536 1
158 568 1
158 571 1
158 572 1
158 574 1
158 598 1
158 631 1
158 652 1
158 653 1
158 654 1
158 659 1
158 660 1
158 722 1
158 749 1
158 750 1
158 796 1
158 801 1
158 827 1
158 828 1
158 860 1
158 866 1
158 891 1
158 892 1
159 444 1
159 446 1
159 475 1
159 476 1
159 478 1
159 537 1
159 538 1
159 570 1
159 573 1
159 574 1
159 576 1
159 600 1
159 633 1
159 654 1
159 655 1
159 656 1
159 661 1
159 662 1
159 724 1
159 751 1
159 752 1
159 798 1
159 803 1
159 829 1
159 830 1
159 862 1
159 868 1
159 893 1
159 894 1
160 446 1
160 448 1
160 477 1
160 478 1
160 480 1
160 539 1
160 540 1
160 572 1
160 575 1
160 576 1
160 578 1
160 602 1
160 635 1
160 656 1
160 657 1
160 658 1
160 663 1
160 664 1
160 726 1
160 753 1
160 754 1
160 800 1
160 805 1
160 831 1
160 832 1
160 864 1
160 870 1
160 895 1
160 896 1
161 448 1
161 450 1
161 479 1
161 480 1
161 482 1
161 541 1
161 542 1
161 574 1
161 577 1
161 578 1
161 580 1
161 604 1
161 637 1
161 658 1
161 659 1
161 660 1
161 665 1
161 666 1
161 728 1
161 755 1
161 756 1
161 769 1
161 770 1
161 802 1
161 807 1
161 833 1
161 834 1
161 866 1
161 872 1
162 450 1
162 452 1
162 481 1
162 482 1
162 484 1
162 543 1
162 544 1
162 576 1
162 579 1
162 580 1
162 582 1
162 606 1
162 639 1
162 660 1
162 661 1
162 662 1
162 667 1
162 668 1
162 730 1
162 757 1
162 758 1
162 771 1
162 772 1
162 804 1
162 809 1
162 835 1
162 836 1
162 868 1
162 874 1
163 452 1
163 454 1
163 483 1
163 484 1
163 486 1
163 513 1
163 545 1
163 546 1
163 578 1
163 581 1
163 582 1
163 584 1
163 608 1
163 662 1
163 663 1
163 664 1
163 669 1
163 670 1
163 732 1
163 759 1
163 760 1
163 773 1
163 774 1
163 806 1
163 811 1
163 837 1
163 838 1
163 870 1
163 876 1
164 454 1
164 456 1
164 485 1
164 486 1
164 488 1
164 515 1
164 547 1
164 548 1
164 580 1
164 583 1
164 584 1
164 586 1
164 610 1
164 664 1
164 665 1
164 666 1
164 671 1
164 672 1
164 734 1
164 761 1
164 762 1
164 775 1
164 776 1
164 808 1
164 813 1
164 839 1
164 840 1
164 872 1
164 878 1
165 456 1
165 458 1
165 487 1
165 488 1
165 490 1
165 517 1
165 549 1
165 550 1
165 582 1
165 585 1
165 586 1
165 588 1
165 612 1
165 666 1
165 667 1
165 668 1
165 673 1
165 674 1
165 736 1
165 763 1
165 764 1
165 777 1
165 778 1
165 810 1
165 815 1
165 841 1
165 842 1
165 874 1
165 880 1
166 458 1
166 460 1
166 489 1
166 490 1
166 492 1
166 519 1
166 551 1
166 552 1
166 584 1
166 587 1
166 588 1
166 590 1
166 614 1
166 668 1
166 669 1
166 670 1
166 675 1
166 676 1
166 738 1
166 765 1
166 766 1
166 779 1
166 780 1
166 812 1
166 817 1
166 843 1
166 844 1
166 876 1
166 882 1
167 460 1
167 462 1
167 491 1
167 492 1
167 494 1
167 521 1
167 553 1
167 554 1
167 586 1
167 589 1
167 590 1
167 592 1
167 616 1
167 670 1
167 671 1
167 672 1
167 677 1
167 678 1
167 740 1
167 767 1
167 768 1
167 781 1
167 782 1
167 814 1
167 819 1
167 845 1
167 846 1
167 878 1
167 884 1
168 462 1
168 464 1
168 493 1
168 494 1
168 496 1
168 523 1
168 555 1
168 556 1
168 588 1
168 591 1
168 592 1
168 594 1
168 618 1
168 641 1
168 642 1
168 672 1
168 673 1
168 674 1
168 679 1
168 680 1
168 742 1
168 783 1
168 784 1
168 816 1
168 821 1
168 847 1
168 848 1
168 880 1
168 886 1
169 464 1
169 466 1
169 495 1
169 496 1
169 498 1
169 525 1
169 557 1
169 558 1
169 590 1
169 593 1
169 594 1
169 596 1
169 620 1
169 643 1
169 644 1
169 674 1
169 675 1
169 676 1
169 681 1
169 682 1
169 744 1
169 785 1
169 786 1
169 818 1
169 823 1
169 849 1
169 850 1
169 882 1
169 888 1
170 466 1
170 468 1
170 497 1
170 498 1
170 500 1
170 527 1
170 559 1
170 560 1
170 592 1
170 595 1
170 596 1
170 598 1
170 622 1
170 645 1
170 646 1
170 676 1
170 677 1
170 678 1
170 683 1
170 684 1
170 746 1
170 787 1
170 788 1
170 820 1
170 825 1
170 851 1
170 852 1
170 884 1
170 890 1
171 468 1
171 470 1
171 499 1
171 500 1
171 502 1
171 529 1
171 561 1
171 562 1
171 594 1
171 597 1
171 598 1
171 600 1
171 624 1
171 647 1
171 648 1
171 678 1
171 679 1
171 680 1
171 685 1
171 686 1
171 748 1
171 789 1
171 790 1
171 822 1
171 827 1
171 853 1
171 854 1
171 886 1
171 892 1
172 470 1
172 472 1
172 501 1
172 502 1
172 504 1
172 531 1
172 563 1
172 564 1
172 596 1
172 599 1
172 600 1
172 602 1
172 626 1
172 649 1
172 650 1
172 680 1
172 681 1
172 682 1
172 687 1
172 688 1
172 750 1
172 791 1
172 792 1
172 824 1
172 829 1
172 855 1
172 856 1
172 888 1
172 894 1
173 472 1
173 474 1
173 503 1
173 504 1
173 506 1
173 533 1
173 565 1
173 566 1
173 598 1
173 601 1
173 602 1
173 604 1
173 628 1
173 651 1
173 652 1
173 682 1
173 683 1
173 684 1
173 689 1
173 690 1
173 752 1
173 793 1
173 794 1
173 826 1
173 831 1
173 857 1
173 858 1
173 890 1
173 896 1
174 474 1
174 476 1
174 505 1
174 506 1
174 508 1
174 535 1
174 567 1
174 568 1
174 600 1
174 603 1
174 604 1
174 606 1
174 630 1
174 653 1
174 654 1
174 684 1
174 685 1
174 686 1
174 691 1
174 692 1
174 754 1
174 770 1
174 795 1
174 796 1
174 828 1
174 833 1
174 859 1
174 860 1
174 892 1
175 476 1
175 478 1
175 507 1
175 508 1
175 510 1
175 537 1
175 569 1
175 570 1
175 602 1
175 605 1
175 606 1
175 608 1
175 632 1
175 655 1
175 656 1
175 686 1
175 687 1
175 688 1
175 693 1
175 694 1
175 756 1
175 772 1
175 797 1
175 798 1
175 830 1
175 835 1
175 861 1
175 862 1
175 894 1
176 478 1
176 480 1
176 509 1
176 510 1
176 512 1
176 539 1
176 571 1
176 572 1
176 604 1
176 607 1
176 608 1
176 610 1
176 634 1
176 657 1
176 658 1
176 688 1
176 689 1
176 690 1
176 695 1
176 696 1
176 758 1
176 774 1
176 799 1
176 800 1
176 832 1
176 837 1
176 863 1
176 864 1
176 896 1
177 386 1
177 480 1
177 482 1
177 511 1
177 512 1
177 541 1
177 573 1
177 574 1
177 606 1
177 609 1
177 610 1
177 612 1
177 636 1
177 659 1
177 660 1
177 690 1
177 691 1
177 692 1
177 697 1
177 698 1
177 760 1
177 770 1
177 776 1
177 801 1
177 802 1
177 834 1
177 839 1
177 865 1
177 866 1
178 385 1
178 386 1
178 388 1
178 482 1
178 484 1
178 543 1
178 575 1
178 576 1
178 608 1
178 611 1
178 612 1
178 614 1
178 638 1
178 661 1
178 662 1
178 692 1
178 693 1
178 694 1
178 699 1
178 700 1
178 762 1
178 772 1
178 778 1
178 803 1
178 804 1
178 836 1
178 841 1
178 867 1
178 868 1
179 387 1
179 388 1
179 390 1
179 484 1
179 486 1
179 545 1
179 577 1
179 578 1
179 610 1
179 613 1
179 614 1
179 616 1
179 640 1
179 663 1
179 664 1
179 694 1
179 695 1
179 696 1
179 701 1
179 702 1
179 764 1
179 774 1
179 780 1
179 805 1
179 806 1
179 838 1
179 843 1
179 869 1
179 870 1
180 389 1
180 390 1
180 392 1
180 486 1
180 488 1
180 514 1
180 547 1
180 579 1
180 580 1
180 612 1
180 615 1
180 616 1
180 618 1
180 665 1
180 666 1
180 696 1
180 697 1
180 698 1
180 703 1
180 704 1
180 766 1
180 776 1
180 782 1
180 807 1
180 808 1
180 840 1
180 845 1
180 871 1
180 872 1
181 391 1
181 392 1
181 394 1
181 488 1
181 490 1
181 516 1
181 549 1
181 581 1
181 582 1
181 614 1
181 617 1
181 618 1
181 620 1
181 667 1
181 668 1
181 698 1
181 699 1
181 700 1
181 705 1
181 706 1
181 768 1
181 778 1
181 784 1
181 809 1
181 810 1
181 842 1
181 847 1
181 873 1
181 874 1
182 393 1
182 394 1
182 396 1
182 490 1
182 492 1
182 518 1
182 551 1
182 583 1
182 584 1
182 616 1
182 619 1
182 620 1
182 622 1
182 642 1
182 669 1
182 670 1
182 700 1
182 701 1
182 702 1
182 707 1
182 708 1
182 780 1
182 786 1
182 811 1
182 812 1
182 844 1
182 849 1
182 875 1
182 876 1
183 395 1
183 396 1
183 398 1
183 492 1
183 494 1
183 520 1
183 553 1
183 585 1
183 586 1
183 618 1
183 621 1
183 622 1
183 624 1
183 644 1
183 671 1
183 672 1
183 702 1
183 703 1
183 704 1
183 709 1
183 710 1
183 782 1
183 788 1
183 813 1
183 814 1
183 846 1
183 851 1
183 877 1
183 878 1
184 397 1
184 398 1
184 400 1
184 494 1
184 496 1
184 522 1
184 555 1
184 587 1
184 588 1
184 620 1
184 623 1
184 624 1
184 626 1
184 646 1
184 673 1
184 674 1
184 704 1
184 705 1
184 706 1
184 711 1
184 712 1
184 784 1
184 790 1
184 815 1
184 816 1
184 848 1
184 853 1
184 879 1
184 880 1
185 399 1
185 400 1
185 402 1
185 496 1
185 498 1
185 524 1
185 557 1
185 589 1
185 590 1
185 622 1
185 625 1
185 626 1
185 628 1
185 648 1
185 675 1
185 676 1
185 706 1
185 707 1
185 708 1
185 713 1
185 714 1
185 786 1
185 792 1
185 817 1
185 818 1
185 850 1
185 855 1
185 881 1
185 882 1
186 401 1
186 402 1
186 404 1
186 498 1
186 500 1
186 526 1
186 559 1
186 591 1
186 592 1
186 624 1
186 627 1
186 628 1
186 630 1
186 650 1
186 677 1
186 678 1
186 708 1
186 709 1
186 710 1
186 715 1
186 716 1
186 788 1
186 794 1
186 819 1
186 820 1
186 852 1
186 857 1
186 883 1
186 884 1
187 403 1
187 404 1
187 406 1
187 500 1
187 502 1
187 528 1
187 561 1
187 593 1
187 594 1
187 626 1
187 629 1
187 630 1
187 632 1
187 652 1
187 679 1
187 680 1
187 710 1
187 711 1
187 712 1
187 717 1
187 718 1
187 790 1
187 796 1
187 821 1
187 822 1
187 854 1
187 859 1
187 885 1
187 886 1
188 405 1
188 406 1
188 408 1
188 502 1
188 504 1
188 530 1
188 563 1
188 595 1
188 596 1
188 628 1
188 631 1
188 632 1
188 634 1
188 654 1
188 681 1
188 682 1
188 712 1
188 713 1
188 714 1
188 719 1
188 720 1
188 792 1
188 798 1
188 823 1
188 824 1
188 856 1
188 861 1
188 887 1
188 888 1
189 407 1
189 408 1
189 410 1
189 504 1
189 506 1
189 532 1
189 565 1
189 597 1
189 598 1
189 630 1
189 633 1
189 634 1
189 636 1
189 656 1
189 683 1
189 684 1
189 714 1
189 715 1
189 716 1
189 721 1
189 722 1
189 794 1
189 800 1
189 825 1
189 826 1
189 858 1
189 863 1
189 889 1
189 890 1
190 409 1
190 410 1
190 412 1
190 506 1
190 508 1
190 534 1
190 567 1
190 599 1
190 600 1
190 632 1
190 635 1
190 636 1
190 638 1
190 658 1
190 685 1
190 686 1
190 716 1
190 717 1
190 718 1
190 723 1
190 724 1
190 796 1
190 802 1
190 827 1
190 828 1
190 860 1
190 865 1
190 891 1
190 892 1
191 411 1
191 412 1
191 414 1
191 508 1
191 510 1
191 536 1
191 569 1
191 601 1
191 602 1
191 634 1
191 637 1
191 638 1
191 640 1
191 660 1
191 687 1
191 688 1
191 718 1
191 719 1
191 720 1
191 725 1
191 726 1
191 798 1
191 804 1
191 829 1
191 830 1
191 862 1
191 867 1
191 893 1
191 894 1
192 413 1
192 414 1
192 416 1
192 510 1
192 512 1
192 514 1
192 538 1
192 571 1
192 603 1
192 604 1
192 636 1
192 639 1
192 640 1
192 662 1
192 689 1
192 690 1
192 720 1
192 721 1
192 722 1
192 727 1
192 728 1
192 800 1
192 806 1
192 831 1
192 832 1
192 864 1
192 869 1
192 895 1
192 896 1
193 385 1
193 386 1
193 415 1
193 417 1
193 418 1
193 511 1
193 512 1
193 513 1
193 515 1
193 516 1
193 539 1
193 540 1
193 574 1
193 605 1
193 637 1
193 638 1
193 663 1
193 664 1
193 691 1
193 721 1
193 722 1
193 723 1
193 729 1
193 769 1
193 801 1
193 802 1
193 807 1
193 808 1
193 833 1
193 865 1
193 866 1
193 872 1
194 385 1
194 386 1
194 387 1
194 388 1
194 417 1
194 419 1
194 420 1
194 515 1
194 517 1
194 518 1
194 541 1
194 542 1
194 576 1
194 607 1
194 639 1
194 640 1
194 665 1
194 666 1
194 693 1
194 723 1
194 724 1
194 725 1
194 731 1
194 771 1
194 803 1
194 804 1
194 809 1
194 810 1
194 835 1
194 867 1
194 868 1
194 874 1
195 387 1
195 388 1
195 389 1
195 390 1
195 419 1
195 421 1
195 422 1
195 513 1
195 514 1
195 517 1
195 519 1
195 520 1
195 543 1
195 544 1
195 578 1
195 609 1
195 667 1
195 668 1
195 695 1
195 725 1
195 726 1
195 727 1
195 733 1
195 773 1
195 805 1
195 806 1
195 811 1
195 812 1
195 837 1
195 869 1
195 870 1
195 876 1
196 389 1
196 390 1
196 391 1
196 392 1
196 421 1
196 423 1
196 424 1
196 515 1
196 516 1
196 519 1
196 521 1
196 522 1
196 545 1
196 546 1
196 580 1
196 611 1
196 669 1
196 670 1
196 697 1
196 727 1
196 728 1
196 729 1
196 735 1
196 775 1
196 807 1
196 808 1
196 813 1
196 814 1
196 839 1
196 871 1
196 872 1
196 878 1
197 391 1
197 392 1
197 393 1
197 394 1
197 423 1
197 425 1
197 426 1
197 517 1
197 518 1
197 521 1
197 523 1
197 524 1
197 547 1
197 548 1
197 582 1
197 613 1
197 671 1
197 672 1
197 699 1
197 729 1
197 730 1
197 731 1
197 737 1
197 777 1
197 809 1
197 810 1
197 815 1
197 816 1
197 841 1
197 873 1
197 874 1
197 880 1
198 393 1
198 394 1
198 395 1
198 396 1
198 425 1
198 427 1
198 428 1
198 519 1
198 520 1
198 523 1
198 525 1
198 526 1
198 549 1
198 550 1
198 584 1
198 615 1
198 673 1
198 674 1
198 701 1
198 731 1
198 732 1
198 733 1
198 739 1
198 779 1
198 811 1
198 812 1
198 817 1
198 818 1
198 843 1
198 875 1
198 876 1
198 882 1
199 395 1
199 396 1
199 397 1
199 398 1
199 427 1
199 429 1
199 430 1
199 521 1
199 522 1
199 525 1
199 527 1
199 528 1
199 551 1
199 552 1
199 586 1
199 617 1
199 675 1
199 676 1
199 703 1
199 733 1
199 734 1
199 735 1
199 741 1
199 781 1
199 813 1
199 814 1
199 819 1
199 820 1
199 845 1
199 877 1
199 878 1
199 884 1
200 397 1
200 398 1
200 399 1
200 400 1
200 429 1
200 431 1
200 432 1
200 523 1
200 524 1
200 527 1
200 529 1
200 530 1
200 553 1
200 554 1
200 588 1
200 619 1
200 677 1
200 678 1
200 705 1
200 735 1
200 736 1
200 737 1
200 743 1
200 783 1
200 815 1
200 816 1
200 821 1
200 822 1
200 847 1
200 879 1
200 880 1
200 886 1
201 399 1
201 400 1
201 401 1
201 402 1
201 431 1
201 433 1
201 434 1
201 525 1
201 526 1
201 529 1
201 531 1
201 532 1
201 555 1
201 556 1
201 590 1
201 621 1
201 679 1
201 680 1
201 707 1
201 737 1
201 738 1
201 739 1
201 745 1
201 785 1
201 817 1
201 818 1
201 823 1
201 824 1
201 849 1
201 881 1
201 882 1
201 888 1
202 401 1
202 402 1
202 403 1
202 404 1
202 433 1
202 435 1
202 436 1
202 527 1
202 528 1
202 531 1
202 533 1
202 534 1
202 557 1
202 558 1
202 592 1
202 623 1
202 681 1
202 682 1
202 709 1
202 739 1
202 740 1
202 741 1
202 747 1
202 787 1
202 819 1
202 820 1
202 825 1
202 826 1
202 851 1
202 883 1
202 884 1
202 890 1
203 403 1
203 404 1
203 405 1
203 406 1
203 435 1
203 437 1
203 438 1
203 529 1
203 530 1
203 533 1
203 535 1
203 536 1
203 559 1
203 560 1
203 594 1
203 625 1
203 683 1
203 684 1
203 711 1
203 741 1
203 742 1
203 743 1
203 749 1
203 789 1
203 821 1
203 822 1
203 827 1
203 828 1
203 853 1
203 885 1
203 886 1
203 892 1
204 405 1
204 406 1
204 407 1
204 408 1
204 437 1
204 439 1
204 440 1
204 531 1
204 532 1
204 535 1
204 537 1
204 538 1
204 561 1
204 562 1
204 596 1
204 627 1
204 685 1
204 686 1
204 713 1
204 743 1
204 744 1
204 745 1
204 751 1
204 791 1
204 823 1
204 824 1
204 829 1
204 830 1
204 855 1
204 887 1
204 888 1
204 894 1
205 407 1
205 408 1
205 409 1
205 410 1
205 439 1
205 441 1
205 442 1
205 533 1
205 534 1
205 537 1
205 539 1
205 540 1
205 563 1
205 564 1
205 598 1
205 629 1
205 687 1
205 688 1
205 715 1
205 745 1
205 746 1
205 747 1
205 753 1
205 793 1
205 825 1
205 826 1
205 831 1
205 832 1
205 857 1
205 889 1
205 890 1
205 896 1
206 409 1
206 410 1
206 411 1
206 412 1
206 441 1
206 443 1
206 444 1
206 535 1
206 536 1
206 539 1
206 541 1
206 542 1
206 565 1
206 566 1
206 600 1
206 631 1
206 689 1
206 690 1
206 717 1
206 747 1
206 748 1
206 749 1
206 755 1
206 770 1
206 795 1
206 827 1
206 828 1
206 833 1
206 834 1
206 859 1
206 891 1
206 892 1
207 411 1
207 412 1
207 413 1
207 414 1
207 443 1
207 445 1
207 446 1
207 537 1
207 538 1
207 541 1
207 543 1
207 544 1
207 567 1
207 568 1
207 602 1
207 633 1
207 691 1
207 692 1
207 719 1
207 749 1
207 750 1
207 751 1
207 757 1
207 772 1
207 797 1
207 829 1
207 830 1
207 835 1
207 836 1
207 861 1
207 893 1
207 894 1
208 413 1
208 414 1
208 415 1
208 416 1
208 445 1
208 447 1
208 448 1
208 539 1
208 540 1
208 543 1
208 545 1
208 546 1
208 569 1
208 570 1
208 604 1
208 635 1
208 693 1
208 694 1
208 721 1
208 751 1
208 752 1
208 753 1
208 759 1
208 774 1
208 799 1
208 831 1
208 832 1
208 837 1
208 838 1
208 863 1
208 895 1
208 896 1
209 415 1
209 416 1
209 417 1
209 418 1
209 447 1
209 449 1
209 450 1
209 541 1
209 542 1
209 545 1
209 547 1
209 548 1
209 571 1
209 572 1
209 606 1
209 637 1
209 695 1
209 696 1
209 723 1
209 753 1
209 754 1
209 755 1
209 761 1
209 769 1
209 770 1
209 776 1
209 801 1
209 833 1
209 834 1
209 839 1
209 840 1
209 865 1
210 417 1
210 418 1
210 419 1
210 420 1
210 449 1
210 451 1
210 452 1
210 543 1
210 544 1
210 547 1
210 549 1
210 550 1
210 573 1
210 574 1
210 608 1
210 639 1
210 697 1
210 698 1
210 725 1
210 755 1
210 756 1
210 757 1
210 763 1
210 771 1
210 772 1
210 778 1
210 803 1
210 835 1
210 836 1
210 841 1
210 842 1
210 867 1
211 419 1
211 420 1
211 421 1
211 422 1
211 451 1
211 453 1
211 454 1
211 513 1
211 545 1
211 546 1
211 549 1
211 551 1
211 552 1
211 575 1
211 576 1
211 610 1
211 699 1
211 700 1
211 727 1
211 757 1
211 758 1
211 759 1
211 765 1
211 773 1
211 774 1
211 780 1
211 805 1
211 837 1
211 838 1
211 843 1
211 844 1
211 869 1
212 421 1
212 422 1
212 423 1
212 424 1
212 453 1
212 455 1
212 456 1
212 515 1
212 547 1
212 548 1
212 551 1
212 553 1
212 554 1
212 577 1
212 578 1
212 612 1
212 701 1
212 702 1
212 729 1
212 759 1
212 760 1
212 761 1
212 767 1
212 775 1
212 776 1
212 782 1
212 807 1
212 839 1
212 840 1
212 845 1
212 846 1
212 871 1
213 423 1
213 424 1
213 425 1
213 426 1
213 455 1
213 457 1
213 458 1
213 517 1
213 549 1
213 550 1
213 553 1
213 555 1
213 556 1
213 579 1
213 580 1
213 614 1
213 641 1
213 703 1
213 704 1
213 731 1
213 761 1
213 762 1
213 763 1
213 777 1
213 778 1
213 784 1
213 809 1
213 841 1
213 842 1
213 847 1
213 848 1
213 873 1
214 425 1
214 426 1
214 427 1
214 428 1
214 457 1
214 459 1
214 460 1
214 519 1
214 551 1
214 552 1
214 555 1
214 557 1
214 558 1
214 581 1
214 582 1
214 616 1
214 643 1
214 705 1
214 706 1
214 733 1
214 763 1
214 764 1
214 765 1
214 779 1
214 780 1
214 786 1
214 811 1
214 843 1
214 844 1
214 849 1
214 850 1
214 875 1
215 427 1
215 428 1
215 429 1
215 430 1
215 459 1
215 461 1
215 462 1
215 521 1
215 553 1
215 554 1
215 557 1
215 559 1
215 560 1
215 583 1
215 584 1
215 618 1
215 645 1
215 707 1
215 708 1
215 735 1
215 765 1
215 766 1
215 767 1
215 781 1
215 782 1
215 788 1
215 813 1
215 845 1
215 846 1
215 851 1
215 852 1
215 877 1
216 429 1
216 430 1
216 431 1
216 432 1
216 461 1
216 463 1
216 464 1
216 523 1
216 555 1
216 556 1
216 559 1
216 561 1
216 562 1
216 585 1
216 586 1
216 620 1
216 641 1
216 647 1
216 709 1
216 710 1
216 737 1
216 767 1
216 768 1
216 783 1
216 784 1
216 790 1
216 815 1
216 847 1
216 848 1
216 853 1
216 854 1
216 879 1
217 431 1
217 432 1
217 433 1
217 434 1
217 463 1
217 465 1
217 466 1
217 525 1
217 557 1
217 558 1
217 561 1
217 563 1
217 564 1
217 587 1
217 588 1
217 622 1
217 641 1
217 642 1
217 643 1
217 649 1
217 711 1
217 712 1
217 739 1
217 785 1
217 786 1
217 792 1
217 817 1
217 849 1
217 850 1
217 855 1
217 856 1
217 881 1
218 433 1
218 434 1
218 435 1
218 436 1
218 465 1
218 467 1
218 468 1
218 527 1
218 559 1
218 560 1
218 563 1
218 565 1
218 566 1
218 589 1
218 590 1
218 624 1
218 643 1
218 644 1
218 645 1
218 651 1
218 713 1
218 714 1
218 741 1
218 787 1
218 788 1
218 794 1
218 819 1
218 851 1
218 852 1
218 857 1
218 858 1
218 883 1
219 435 1
219 436 1
219 437 1
219 438 1
219 467 1
219 469 1
219 470 1
219 529 1
219 561 1
219 562 1
219 565 1
219 567 1
219 568 1
219 591 1
219 592 1
219 626 1
219 645 1
219 646 1
219 647 1
219 653 1
219 715 1
219 716 1
219 743 1
219 789 1
219 790 1
219 796 1
219 821 1
219 853 1
219 854 1
219 859 1
219 860 1
219 885 1
220 437 1
220 438 1
220 439 1
220 440 1
220 469 1
220 471 1
220 472 1
220 531 1
220 563 1
220 564 1
220 567 1
220 569 1
220 570 1
220 593 1
220 594 1
220 628 1
220 647 1
220 648 1
220 649 1
220 655 1
220 717 1
220 718 1
220 745 1
220 791 1
220 792 1
220 798 1
220 823 1
220 855 1
220 856 1
220 861 1
220 862 1
220 887 1
221 439 1
221 440 1
221 441 1
221 442 1
221 471 1
221 473 1
221 474 1
221 533 1
221 565 1
221 566 1
221 569 1
221 571 1
221 572 1
221 595 1
221 596 1
221 630 1
221 649 1
221 650 1
221 651 1
221 657 1
221 719 1
221 720 1
221 747 1
221 793 1
221 794 1
221 800 1
221 825 1
221 857 1
221 858 1
221 863 1
221 864 1
221 889 1
222 441 1
222 442 1
222 443 1
222 444 1
222 473 1
222 475 1
222 476 1
222 535 1
222 567 1
222 568 1
222 571 1
222 573 1
222 574 1
222 597 1
222 598 1
222 632 1
222 651 1
222 652 1
222 653 1
222 659 1
222 721 1
222 722 1
222 749 1
222 795 1
222 796 1
222 802 1
222 827 1
222 859 1
222 860 1
222 865 1
222 866 1
222 891 1
223 443 1
223 444 1
223 445 1
223 446 1
223 475 1
223 477 1
223 478 1
223 537 1
223 569 1
223 570 1
223 573 1
223 575 1
223 576 1
223 599 1
223 600 1
223 634 1
223 653 1
223 654 1
223 655 1
223 661 1
223 723 1
223 724 1
223 751 1
223 797 1
223 798 1
223 804 1
223 829 1
223 861 1
223 862 1
223 867 1
223 868 1
223 893 1
224 445 1
224 446 1
224 447 1
224 448 1
224 477 1
224 479 1
224 480 1
224 539 1
224 571 1
224 572 1
224 575 1
224 577 1
224 578 1
224 601 1
224 602 1
224 636 1
224 655 1
224 656 1
224 657 1
224 663 1
224 725 1
224 726 1
224 753 1
224 799 1
224 800 1
224 806 1
224 831 1
224 863 1
224 864 1
224 869 1
224 870 1
224 895 1
225 447 1
225 448 1
225 449 1
225 450 1
225 479 1
225 481 1
225 482 1
225 541 1
225 573 1
225 574 1
225 577 1
225 579 1
225 580 1
225 603 1
225 604 1
225 638 1
225 657 1
225 658 1
225 659 1
225 665 1
225 727 1
225 728 1
225 755 1
225 769 1
225 801 1
225 802 1
225 808 1
225 833 1
225 865 1
225 866 1
225 871 1
225 872 1
226 449 1
226 450 1
226 451 1
226 452 1
226 481 1
226 483 1
226 484 1
226 543 1
226 575 1
226 576 1
226 579 1
226 581 1
226 582 1
226 605 1
226 606 1
226 640 1
226 659 1
226 660 1
226 661 1
226 667 1
226 729 1
226 730 1
226 757 1
226 771 1
226 803 1
226 804 1
226 810 1
226 835 1
226 867 1
226 868 1
226 873 1
226 874 1
227 451 1
227 452 1
227 453 1
227 454 1
227 483 1
227 485 1
227 486 1
227 514 1
227 545 1
227 577 1
227 578 1
227 581 1
227 583 1
227 584 1
227 607 1
227 608 1
227 661 1
227 662 1
227 663 1
227 669 1
227 731 1
227 732 1
227 759 1
227 773 1
227 805 1
227 806 1
227 812 1
227 837 1
227 869 1
227 870 1
227 875 1
227 876 1
228 453 1
228 454 1
228 455 1
228 456 1
228 485 1
228 487 1
228 488 1
228 516 1
228 547 1
228 579 1
228 580 1
228 583 1
228 585 1
228 586 1
228 609 1
228 610 1
228 663 1
228 664 1
228 665 1
228 671 1
228 733 1
228 734 1
228 761 1
228 775 1
228 807 1
228 808 1
228 814 1
228 839 1
228 871 1
228 872 1
228 877 1
228 878 1
229 455 1
229 456 1
229 457 1
229 458 1
229 487 1
229 489 1
229 490 1
229 518 1
229 549 1
229 581 1
229 582 1
229 585 1
229 587 1
229 588 1
229 611 1
229 612 1
229 665 1
229 666 1
229 667 1
229 673 1
229 735 1
229 736 1
229 763 1
229 777 1
229 809 1
229 810 1
229 816 1
229 841 1
229 873 1
229 874 1
229 879 1
229 880 1
230 457 1
230 458 1
230 459 1
230 460 1
230 489 1
230 491 1
230 492 1
230 520 1
230 551 1
230 583 1
230 584 1
230 587 1
230 589 1
230 590 1
230 613 1
230 614 1
230 667 1
230 668 1
230 669 1
230 675 1
230 737 1
230 738 1
230 765 1
230 779 1
230 811 1
230 812 1
230 818 1
230 843 1
230 875 1
230 876 1
230 881 1
230 882 1
231 459 1
231 460 1
231 461 1
231 462 1
231 491 1
231 493 1
231 494 1
231 522 1
231 553 1
231 585 1
231 586 1
231 589 1
231 591 1
231 592 1
231 615 1
231 616 1
231 669 1
231 670 1
231 671 1
231 677 1
231 739 1
231 740 1
231 767 1
231 781 1
231 813 1
231 814 1
231 820 1
231 845 1
231 877 1
231 878 1
231 883 1
231 884 1
232 461 1
232 462 1
232 463 1
232 464 1
232 493 1
232 495 1
232 496 1
232 524 1
232 555 1
232 587 1
232 588 1
232 591 1
232 593 1
232 594 1
232 617 1
232 618 1
232 641 1
232 671 1
232 672 1
232 673 1
232 679 1
232 741 1
232 742 1
232 783 1
232 815 1
232 816 1
232 822 1
232 847 1
232 879 1
232 880 1
232 885 1
232 886 1
233 463 1
233 464 1
233 465 1
233 466 1
233 495 1
233 497 1
233 498 1
233 526 1
233 557 1
233 589 1
233 590 1
233 593 1
233 595 1
233 596 1
233 619 1
233 620 1
233 643 1
233 673 1
233 674 1
233 675 1
233 681 1
233 743 1
233 744 1
233 785 1
233 817 1
233 818 1
233 824 1
233 849 1
233 881 1
233 882 1
233 887 1
233 888 1
234 465 1
234 466 1
234 467 1
234 468 1
234 497 1
234 499 1
234 500 1
234 528 1
234 559 1
234 591 1
234 592 1
234 595 1
234 597 1
234 598 1
234 621 1
234 622 1
234 645 1
234 675 1
234 676 1
234 677 1
234 683 1
234 745 1
234 746 1
234 787 1
234 819 1
234 820 1
234 826 1
234 851 1
234 883 1
234 884 1
234 889 1
234 890 1
235 467 1
235 468 1
235 469 1
235 470 1
235 499 1
235 501 1
235 502 1
235 530 1
235 561 1
235 593 1
235 594 1
235 597 1
235 599 1
235 600 1
235 623 1
235 624 1
235 647 1
235 677 1
235 678 1
235 679 1
235 685 1
235 747 1
235 748 1
235 789 1
235 821 1
235 822 1
235 828 1
235 853 1
235 885 1
235 886 1
235 891 1
235 892 1
236 469 1
236 470 1
236 471 1
236 472 1
236 501 1
236 503 1
236 504 1
236 532 1
236 563 1
236 595 1
236 596 1
236 599 1
236 601 1
236 602 1
236 625 1
236 626 1
236 649 1
236 679 1
236 680 1
236 681 1
236 687 1
236 749 1
236 750 1
236 791 1
236 823 1
236 824 1
236 830 1
236 855 1
236 887 1
236 888 1
236 893 1
236 894 1
237 471 1
237 472 1
237 473 1
237 474 1
237 503 1
237 505 1
237 506 1
237 534 1
237 565 1
237 597 1
237 598 1
237 601 1
237 603 1
237 604 1
237 627 1
237 628 1
237 651 1
237 681 1
237 682 1
237 683 1
237 689 1
237 751 1
237 752 1
237 793 1
237 825 1
237 826 1
237 832 1
237 857 1
237 889 1
237 890 1
237 895 1
237 896 1
238 473 1
238 474 1
238 475 1
238 476 1
238 505 1
238 507 1
238 508 1
238 536 1
238 567 1
238 599 1
238 600 1
238 603 1
238 605 1
238 606 1
238 629 1
238 630 1
238 653 1
238 683 1
238 684 1
238 685 1
238 691 1
238 753 1
238 754 1
238 769 1
238 770 1
238 795 1
238 827 1
238 828 1
238 834 1
238 859 1
238 891 1
238 892 1
239 475 1
239 476 1
239 477 1
239 478 1
239 507 1
239 509 1
239 510 1
239 538 1
239 569 1
239 601 1
239 602 1
239 605 1
239 607 1
239 608 1
239 631 1
239 632 1
239 655 1
239 685 1
239 686 1
239 687 1
239 693 1
239 755 1
239 756 1
239 771 1
239 772 1
239 797 1
239 829 1
239 830 1
239 836 1
239 861 1
239 893 1
239 894 1
240 477 1
240 478 1
240 479 1
240 480 1
240 509 1
240 511 1
240 512 1
240 540 1
240 571 1
240 603 1
240 604 1
240 607 1
240 609 1
240 610 1
240 633 1
240 634 1
240 657 1
240 687 1
240 688 1
240 689 1
240 695 1
240 757 1
240 758 1
240 773 1
240 774 1
240 799 1
240 831 1
240 832 1
240 838 1
240 863 1
240 895 1
240 896 1
241 385 1
241 386 1
241 479 1
241 480 1
241 481 1
241 482 1
241 511 1
241 542 1
241 573 1
241 605 1
241 606 1
241 609 1
241 611 1
241 612 1
241 635 1
241 636 1
241 659 1
241 689 1
241 690 1
241 691 1
241 697 1
241 759 1
241 760 1
241 769 1
241 770 1
241 775 1
241 776 1
241 801 1
241 833 1
241 834 1
241 840 1
241 865 1
242 385 1
242 387 1
242 388 1
242 481 1
242 482 1
242 483 1
242 484 1
242 544 1
242 575 1
242 607 1
242 608 1
242 611 1
242 613 1
242 614 1
242 637 1
242 638 1
242 661 1
242 691 1
242 692 1
242 693 1
242 699 1
242 761 1
242 762 1
242 771 1
242 772 1
242 777 1
242 778 1
242 803 1
242 835 1
242 836 1
242 842 1
242 867 1
243 387 1
243 389 1
243 390 1
243 483 1
243 484 1
243 485 1
243 486 1
243 546 1
243 577 1
243 609 1
243 610 1
243 613 1
243 615 1
243 616 1
243 639 1
243 640 1
243 663 1
243 693 1
243 694 1
243 695 1
243 701 1
243 763 1
243 764 1
243 773 1
243 774 1
243 779 1
243 780 1
243 805 1
243 837 1
243 838 1
243 844 1
243 869 1
244 389 1
244 391 1
244 392 1
244 485 1
244 486 1
244 487 1
244 488 1
244 513 1
244 514 1
244 548 1
244 579 1
244 611 1
244 612 1
244 615 1
244 617 1
244 618 1
244 665 1
244 695 1
244 696 1
244 697 1
244 703 1
244 765 1
244 766 1
244 775 1
244 776 1
244 781 1
244 782 1
244 807 1
244 839 1
244 840 1
244 846 1
244 871 1
245 391 1
245 393 1
245 394 1
245 487 1
245 488 1
245 489 1
245 490 1
245 515 1
245 516 1
245 550 1
245 581 1
245 613 1
245 614 1
245 617 1
245 619 1
245 620 1
245 667 1
245 697 1
245 698 1
245 699 1
245 705 1
245 767 1
245 768 1
245 777 1
245 778 1
245 783 1
245 784 1
245 809 1
245 841 1
245 842 1
245 848 1
245 873 1
246 393 1
246 395 1
246 396 1
246 489 1
246 490 1
246 491 1
246 492 1
246 517 1
246 518 1
246 552 1
246 583 1
246 615 1
246 616 1
246 619 1
246 621 1
246 622 1
246 641 1
246 642 1
246 669 1
246 699 1
246 700 1
246 701 1
246 707 1
246 779 1
246 780 1
246 785 1
246 786 1
246 811 1
246 843 1
246 844 1
246 850 1
246 875 1
247 395 1
247 397 1
247 398 1
247 491 1
247 492 1
247 493 1
247 494 1
247 519 1
247 520 1
247 554 1
247 585 1
247 617 1
247 618 1
247 621 1
247 623 1
247 624 1
247 643 1
247 644 1
247 671 1
247 701 1
247 702 1
247 703 1
247 709 1
247 781 1
247 782 1
247 787 1
247 788 1
247 813 1
247 845 1
247 846 1
247 852 1
247 877 1
248 397 1
248 399 1
248 400 1
248 493 1
248 494 1
248 495 1
248 496 1
248 521 1
248 522 1
248 556 1
248 587 1
248 619 1
248 620 1
248 623 1
248 625 1
248 626 1
248 645 1
248 646 1
248 673 1
248 703 1
248 704 1
248 705 1
248 711 1
248 783 1
248 784 1
248 789 1
248 790 1
248 815 1
248 847 1
248 848 1
248 854 1
248 879 1
249 399 1
249 401 1
249 402 1
249 495 1
249 496 1
249 497 1
249 498 1
249 523 1
249 524 1
249 558 1
249 589 1
249 621 1
249 622 1
249 625 1
249 627 1
249 628 1
249 647 1
249 648 1
249 675 1
249 705 1
249 706 1
249 707 1
249 713 1
249 785 1
249 786 1
249 791 1
249 792 1
249 817 1
249 849 1
249 850 1
249 856 1
249 881 1
250 401 1
250 403 1
250 404 1
250 497 1
250 498 1
250 499 1
250 500 1
250 525 1
250 526 1
250 560 1
250 591 1
250 623 1
250 624 1
250 627 1
250 629 1
250 630 1
250 649 1
250 650 1
250 677 1
250 707 1
250 708 1
250 709 1
250 715 1
250 787 1
250 788 1
250 793 1
250 794 1
250 819 1
250 851 1
250 852 1
250 858 1
250 883 1
251 403 1
251 405 1
251 406 1
251 499 1
251 500 1
251 501 1
251 502 1
251 527 1
251 528 1
251 562 1
251 593 1
251 625 1
251 626 1
251 629 1
251 631 1
251 632 1
251 651 1
251 652 1
251 679 1
251 709 1
251 710 1
251 711 1
251 717 1
251 789 1
251 790 1
251 795 1
251 796 1
251 821 1
251 853 1
251 854 1
251 860 1
251 885 1
252 405 1
252 407 1
252 408 1
252 501 1
252 502 1
252 503 1
252 504 1
252 529 1
252 530 1
252 564 1
252 595 1
252 627 1
252 628 1
252 631 1
252 633 1
252 634 1
252 653 1
252 654 1
252 681 1
252 711 1
252 712 1
252 713 1
252 719 1
252 791 1
252 792 1
252 797 1
252 798 1
252 823 1
252 855 1
252 856 1
252 862 1
252 887 1
253 407 1
253 409 1
253 410 1
253 503 1
253 504 1
253 505 1
253 506 1
253 531 1
253 532 1
253 566 1
253 597 1
253 629 1
253 630 1
253 633 1
253 635 1
253 636 1
253 655 1
253 656 1
253 683 1
253 713 1
253 714 1
253 715 1
253 721 1
253 793 1
253 794 1
253 799 1
253 800 1
253 825 1
253 857 1
253 858 1
253 864 1
253 889 1
254 409 1
254 411 1
254 412 1
254 505 1
254 506 1
254 507 1
254 508 1
254 533 1
254 534 1
254 568 1
254 599 1
254 631 1
254 632 1
254 635 1
254 637 1
254 638 1
254 657 1
254 658 1
254 685 1
254 715 1
254 716 1
254 717 1
254 723 1
254 795 1
254 796 1
254 801 1
254 802 1
254 827 1
254 859 1
254 860 1
254 866 1
254 891 1
255 411 1
255 413 1
255 414 1
255 507 1
255 508 1
255 509 1
255 510 1
255 535 1
255 536 1
255 570 1
255 601 1
255 633 1
255 634 1
255 637 1
255 639 1
255 640 1
255 659 1
255 660 1
255 687 1
255 717 1
255 718 1
255 719 1
255 725 1
255 797 1
255 798 1
255 803 1
255 804 1
255 829 1
255 861 1
255 862 1
255 868 1
255 893 1
256 413 1
256 415 1
256 416 1
256 509 1
256 510 1
256 511 1
256 512 1
256 513 1
256 514 1
256 537 1
256 538 1
256 572 1
256 603 1
256 635 1
256 636 1
256 639 1
256 661 1
256 662 1
256 689 1
256 719 1
256 720 1
256 721 1
256 727 1
256 799 1
256 800 1
256 805 1
256 806 1
256 831 1
256 863 1
256 864 1
256 870 1
256 895 1
