%%MatrixMarket matrix coordinate integer general
% GF(4) labels 0,1,2=omega,3=omega+1; arithmetic is NOT integer arithmetic.
% Coordinate indices are 1-based; omitted entries are zero.
128 512 2880
1 129 2
1 145 1
1 148 1
1 161 2
1 177 1
1 180 3
1 200 1
1 209 1
1 212 1
1 216 2
1 225 2
1 244 3
1 258 1
1 265 2
1 274 2
1 278 1
1 290 1
1 319 1
1 333 2
1 340 1
1 346 1
1 349 1
1 365 2
1 369 1
2 130 2
2 146 1
2 149 1
2 162 2
2 178 1
2 181 3
2 201 1
2 210 1
2 213 1
2 217 2
2 226 2
2 245 3
2 259 1
2 266 2
2 275 2
2 279 1
2 291 1
2 320 1
2 334 2
2 341 1
2 347 1
2 350 1
2 366 2
2 370 1
3 131 2
3 147 1
3 150 1
3 163 2
3 179 1
3 182 3
3 202 1
3 211 1
3 214 1
3 218 2
3 227 2
3 246 3
3 257 1
3 260 1
3 267 2
3 276 2
3 280 1
3 292 1
3 335 2
3 342 1
3 348 1
3 351 1
3 367 2
3 371 1
4 132 2
4 148 1
4 151 1
4 164 2
4 180 1
4 183 3
4 203 1
4 212 1
4 215 1
4 219 2
4 228 2
4 247 3
4 258 1
4 261 1
4 268 2
4 277 2
4 281 1
4 293 1
4 336 2
4 343 1
4 349 1
4 352 1
4 368 2
4 372 1
5 133 2
5 149 1
5 152 1
5 165 2
5 181 1
5 184 3
5 204 1
5 213 1
5 216 1
5 220 2
5 229 2
5 248 3
5 259 1
5 262 1
5 269 2
5 278 2
5 282 1
5 294 1
5 337 2
5 344 1
5 350 1
5 353 1
5 369 2
5 373 1
6 134 2
6 150 1
6 153 1
6 166 2
6 182 1
6 185 3
6 205 1
6 214 1
6 217 1
6 221 2
6 230 2
6 249 3
6 260 1
6 263 1
6 270 2
6 279 2
6 283 1
6 295 1
6 338 2
6 345 1
6 351 1
6 354 1
6 370 2
6 374 1
7 135 2
7 151 1
7 154 1
7 167 2
7 183 1
7 186 3
7 206 1
7 215 1
7 218 1
7 222 2
7 231 2
7 250 3
7 261 1
7 264 1
7 271 2
7 280 2
7 284 1
7 296 1
7 339 2
7 346 1
7 352 1
7 355 1
7 371 2
7 375 1
8 136 2
8 152 1
8 155 1
8 168 2
8 184 1
8 187 3
8 207 1
8 216 1
8 219 1
8 223 2
8 232 2
8 251 3
8 262 1
8 265 1
8 272 2
8 281 2
8 285 1
8 297 1
8 340 2
8 347 1
8 353 1
8 356 1
8 372 2
8 376 1
9 137 2
9 153 1
9 156 1
9 169 2
9 185 1
9 188 3
9 208 1
9 217 1
9 220 1
9 224 2
9 233 2
9 252 3
9 263 1
9 266 1
9 273 2
9 282 2
9 286 1
9 298 1
9 341 2
9 348 1
9 354 1
9 357 1
9 373 2
9 377 1
10 138 2
10 154 1
10 157 1
10 170 2
10 186 1
10 189 3
10 209 1
10 218 1
10 221 1
10 225 2
10 234 2
10 253 3
10 264 1
10 267 1
10 274 2
10 283 2
10 287 1
10 299 1
10 342 2
10 349 1
10 355 1
10 358 1
10 374 2
10 378 1
11 139 2
11 155 1
11 158 1
11 171 2
11 187 1
11 190 3
11 210 1
11 219 1
11 222 1
11 226 2
11 235 2
11 254 3
11 265 1
11 268 1
11 275 2
11 284 2
11 288 1
11 300 1
11 343 2
11 350 1
11 356 1
11 359 1
11 375 2
11 379 1
12 140 2
12 156 1
12 159 1
12 172 2
12 188 1
12 191 3
12 211 1
12 220 1
12 223 1
12 227 2
12 236 2
12 255 3
12 266 1
12 269 1
12 276 2
12 285 2
12 289 1
12 301 1
12 344 2
12 351 1
12 357 1
12 360 1
12 376 2
12 380 1
13 141 2
13 157 1
13 160 1
13 173 2
13 189 1
13 192 3
13 212 1
13 221 1
13 224 1
13 228 2
13 237 2
13 256 3
13 267 1
13 270 1
13 277 2
13 286 2
13 290 1
13 302 1
13 345 2
13 352 1
13 358 1
13 361 1
13 377 2
13 381 1
14 129 3
14 142 2
14 158 1
14 161 1
14 174 2
14 190 1
14 193 3
14 213 1
14 222 1
14 225 1
14 229 2
14 238 2
14 268 1
14 271 1
14 278 2
14 287 2
14 291 1
14 303 1
14 346 2
14 353 1
14 359 1
14 362 1
14 378 2
14 382 1
15 130 3
15 143 2
15 159 1
15 162 1
15 175 2
15 191 1
15 194 3
15 214 1
15 223 1
15 226 1
15 230 2
15 239 2
15 269 1
15 272 1
15 279 2
15 288 2
15 292 1
15 304 1
15 347 2
15 354 1
15 360 1
15 363 1
15 379 2
15 383 1
16 131 3
16 144 2
16 160 1
16 163 1
16 176 2
16 192 1
16 195 3
16 215 1
16 224 1
16 227 1
16 231 2
16 240 2
16 270 1
16 273 1
16 280 2
16 289 2
16 293 1
16 305 1
16 348 2
16 355 1
16 361 1
16 364 1
16 380 2
16 384 1
17 129 1
17 132 3
17 145 2
17 161 1
17 164 1
17 177 2
17 196 3
17 216 1
17 225 1
17 228 1
17 232 2
17 241 2
17 271 1
17 274 1
17 281 2
17 290 2
17 294 1
17 306 1
17 321 1
17 349 2
17 356 1
17 362 1
17 365 1
17 381 2
18 130 1
18 133 3
18 146 2
18 162 1
18 165 1
18 178 2
18 197 3
18 217 1
18 226 1
18 229 1
18 233 2
18 242 2
18 272 1
18 275 1
18 282 2
18 291 2
18 295 1
18 307 1
18 322 1
18 350 2
18 357 1
18 363 1
18 366 1
18 382 2
19 131 1
19 134 3
19 147 2
19 163 1
19 166 1
19 179 2
19 198 3
19 218 1
19 227 1
19 230 1
19 234 2
19 243 2
19 273 1
19 276 1
19 283 2
19 292 2
19 296 1
19 308 1
19 323 1
19 351 2
19 358 1
19 364 1
19 367 1
19 383 2
20 132 1
20 135 3
20 148 2
20 164 1
20 167 1
20 180 2
20 199 3
20 219 1
20 228 1
20 231 1
20 235 2
20 244 2
20 274 1
20 277 1
20 284 2
20 293 2
20 297 1
20 309 1
20 324 1
20 352 2
20 359 1
20 365 1
20 368 1
20 384 2
21 133 1
21 136 3
21 149 2
21 165 1
21 168 1
21 181 2
21 200 3
21 220 1
21 229 1
21 232 1
21 236 2
21 245 2
21 275 1
21 278 1
21 285 2
21 294 2
21 298 1
21 310 1
21 321 2
21 325 1
21 353 2
21 360 1
21 366 1
21 369 1
22 134 1
22 137 3
22 150 2
22 166 1
22 169 1
22 182 2
22 201 3
22 221 1
22 230 1
22 233 1
22 237 2
22 246 2
22 276 1
22 279 1
22 286 2
22 295 2
22 299 1
22 311 1
22 322 2
22 326 1
22 354 2
22 361 1
22 367 1
22 370 1
23 135 1
23 138 3
23 151 2
23 167 1
23 170 1
23 183 2
23 202 3
23 222 1
23 231 1
23 234 1
23 238 2
23 247 2
23 277 1
23 280 1
23 287 2
23 296 2
23 300 1
23 312 1
23 323 2
23 327 1
23 355 2
23 362 1
23 368 1
23 371 1
24 136 1
24 139 3
24 152 2
24 168 1
24 171 1
24 184 2
24 203 3
24 223 1
24 232 1
24 235 1
24 239 2
24 248 2
24 278 1
24 281 1
24 288 2
24 297 2
24 301 1
24 313 1
24 324 2
24 328 1
24 356 2
24 363 1
24 369 1
24 372 1
25 137 1
25 140 3
25 153 2
25 169 1
25 172 1
25 185 2
25 204 3
25 224 1
25 233 1
25 236 1
25 240 2
25 249 2
25 279 1
25 282 1
25 289 2
25 298 2
25 302 1
25 314 1
25 325 2
25 329 1
25 357 2
25 364 1
25 370 1
25 373 1
26 138 1
26 141 3
26 154 2
26 170 1
26 173 1
26 186 2
26 205 3
26 225 1
26 234 1
26 237 1
26 241 2
26 250 2
26 280 1
26 283 1
26 290 2
26 299 2
26 303 1
26 315 1
26 326 2
26 330 1
26 358 2
26 365 1
26 371 1
26 374 1
27 139 1
27 142 3
27 155 2
27 171 1
27 174 1
27 187 2
27 206 3
27 226 1
27 235 1
27 238 1
27 242 2
27 251 2
27 281 1
27 284 1
27 291 2
27 300 2
27 304 1
27 316 1
27 327 2
27 331 1
27 359 2
27 366 1
27 372 1
27 375 1
28 140 1
28 143 3
28 156 2
28 172 1
28 175 1
28 188 2
28 207 3
28 227 1
28 236 1
28 239 1
28 243 2
28 252 2
28 282 1
28 285 1
28 292 2
28 301 2
28 305 1
28 317 1
28 328 2
28 332 1
28 360 2
28 367 1
28 373 1
28 376 1
29 141 1
29 144 3
29 157 2
29 173 1
29 176 1
29 189 2
29 208 3
29 228 1
29 237 1
29 240 1
29 244 2
29 253 2
29 283 1
29 286 1
29 293 2
29 302 2
29 306 1
29 318 1
29 329 2
29 333 1
29 361 2
29 368 1
29 374 1
29 377 1
30 142 1
30 145 3
30 158 2
30 174 1
30 177 1
30 190 2
30 209 3
30 229 1
30 238 1
30 241 1
30 245 2
30 254 2
30 284 1
30 287 1
30 294 2
30 303 2
30 307 1
30 319 1
30 330 2
30 334 1
30 362 2
30 369 1
30 375 1
30 378 1
31 143 1
31 146 3
31 159 2
31 175 1
31 178 1
31 191 2
31 210 3
31 230 1
31 239 1
31 242 1
31 246 2
31 255 2
31 285 1
31 288 1
31 295 2
31 304 2
31 308 1
31 320 1
31 331 2
31 335 1
31 363 2
31 370 1
31 376 1
31 379 1
32 144 1
32 147 3
32 160 2
32 176 1
32 179 1
32 192 2
32 211 3
32 231 1
32 240 1
32 243 1
32 247 2
32 256 2
32 257 1
32 286 1
32 289 1
32 296 2
32 305 2
32 309 1
32 332 2
32 336 1
32 364 2
32 371 1
32 377 1
32 380 1
33 129 2
33 145 1
33 148 3
33 161 2
33 177 1
33 180 1
33 193 2
33 212 3
33 232 1
33 241 1
33 244 1
33 248 2
33 258 1
33 287 1
33 290 1
33 297 2
33 306 2
33 310 1
33 333 2
33 337 1
33 365 2
33 372 1
33 378 1
33 381 1
34 130 2
34 146 1
34 149 3
34 162 2
34 178 1
34 181 1
34 194 2
34 213 3
34 233 1
34 242 1
34 245 1
34 249 2
34 259 1
34 288 1
34 291 1
34 298 2
34 307 2
34 311 1
34 334 2
34 338 1
34 366 2
34 373 1
34 379 1
34 382 1
35 131 2
35 147 1
35 150 3
35 163 2
35 179 1
35 182 1
35 195 2
35 214 3
35 234 1
35 243 1
35 246 1
35 250 2
35 260 1
35 289 1
35 292 1
35 299 2
35 308 2
35 312 1
35 335 2
35 339 1
35 367 2
35 374 1
35 380 1
35 383 1
36 132 2
36 148 1
36 151 3
36 164 2
36 180 1
36 183 1
36 196 2
36 215 3
36 235 1
36 244 1
36 247 1
36 251 2
36 261 1
36 290 1
36 293 1
36 300 2
36 309 2
36 313 1
36 336 2
36 340 1
36 368 2
36 375 1
36 381 1
36 384 1
37 133 2
37 149 1
37 152 3
37 165 2
37 181 1
37 184 1
37 197 2
37 216 3
37 236 1
37 245 1
37 248 1
37 252 2
37 262 1
37 291 1
37 294 1
37 301 2
37 310 2
37 314 1
37 321 1
37 337 2
37 341 1
37 369 2
37 376 1
37 382 1
38 134 2
38 150 1
38 153 3
38 166 2
38 182 1
38 185 1
38 198 2
38 217 3
38 237 1
38 246 1
38 249 1
38 253 2
38 263 1
38 292 1
38 295 1
38 302 2
38 311 2
38 315 1
38 322 1
38 338 2
38 342 1
38 370 2
38 377 1
38 383 1
39 135 2
39 151 1
39 154 3
39 167 2
39 183 1
39 186 1
39 199 2
39 218 3
39 238 1
39 247 1
39 250 1
39 254 2
39 264 1
39 293 1
39 296 1
39 303 2
39 312 2
39 316 1
39 323 1
39 339 2
39 343 1
39 371 2
39 378 1
39 384 1
40 136 2
40 152 1
40 155 3
40 168 2
40 184 1
40 187 1
40 200 2
40 219 3
40 239 1
40 248 1
40 251 1
40 255 2
40 265 1
40 294 1
40 297 1
40 304 2
40 313 2
40 317 1
40 321 1
40 324 1
40 340 2
40 344 1
40 372 2
40 379 1
41 137 2
41 153 1
41 156 3
41 169 2
41 185 1
41 188 1
41 201 2
41 220 3
41 240 1
41 249 1
41 252 1
41 256 2
41 266 1
41 295 1
41 298 1
41 305 2
41 314 2
41 318 1
41 322 1
41 325 1
41 341 2
41 345 1
41 373 2
41 380 1
42 138 2
42 154 1
42 157 3
42 170 2
42 186 1
42 189 1
42 193 2
42 202 2
42 221 3
42 241 1
42 250 1
42 253 1
42 267 1
42 296 1
42 299 1
42 306 2
42 315 2
42 319 1
42 323 1
42 326 1
42 342 2
42 346 1
42 374 2
42 381 1
43 139 2
43 155 1
43 158 3
43 171 2
43 187 1
43 190 1
43 194 2
43 203 2
43 222 3
43 242 1
43 251 1
43 254 1
43 268 1
43 297 1
43 300 1
43 307 2
43 316 2
43 320 1
43 324 1
43 327 1
43 343 2
43 347 1
43 375 2
43 382 1
44 140 2
44 156 1
44 159 3
44 172 2
44 188 1
44 191 1
44 195 2
44 204 2
44 223 3
44 243 1
44 252 1
44 255 1
44 257 1
44 269 1
44 298 1
44 301 1
44 308 2
44 317 2
44 325 1
44 328 1
44 344 2
44 348 1
44 376 2
44 383 1
45 141 2
45 157 1
45 160 3
45 173 2
45 189 1
45 192 1
45 196 2
45 205 2
45 224 3
45 244 1
45 253 1
45 256 1
45 258 1
45 270 1
45 299 1
45 302 1
45 309 2
45 318 2
45 326 1
45 329 1
45 345 2
45 349 1
45 377 2
45 384 1
46 129 1
46 142 2
46 158 1
46 161 3
46 174 2
46 190 1
46 193 1
46 197 2
46 206 2
46 225 3
46 245 1
46 254 1
46 259 1
46 271 1
46 300 1
46 303 1
46 310 2
46 319 2
46 321 1
46 327 1
46 330 1
46 346 2
46 350 1
46 378 2
47 130 1
47 143 2
47 159 1
47 162 3
47 175 2
47 191 1
47 194 1
47 198 2
47 207 2
47 226 3
47 246 1
47 255 1
47 260 1
47 272 1
47 301 1
47 304 1
47 311 2
47 320 2
47 322 1
47 328 1
47 331 1
47 347 2
47 351 1
47 379 2
48 131 1
48 144 2
48 160 1
48 163 3
48 176 2
48 192 1
48 195 1
48 199 2
48 208 2
48 227 3
48 247 1
48 256 1
48 257 2
48 261 1
48 273 1
48 302 1
48 305 1
48 312 2
48 323 1
48 329 1
48 332 1
48 348 2
48 352 1
48 380 2
49 129 1
49 132 1
49 145 2
49 161 1
49 164 3
49 177 2
49 193 1
49 196 1
49 200 2
49 209 2
49 228 3
49 248 1
49 258 2
49 262 1
49 274 1
49 303 1
49 306 1
49 313 2
49 324 1
49 330 1
49 333 1
49 349 2
49 353 1
49 381 2
50 130 1
50 133 1
50 146 2
50 162 1
50 165 3
50 178 2
50 194 1
50 197 1
50 201 2
50 210 2
50 229 3
50 249 1
50 259 2
50 263 1
50 275 1
50 304 1
50 307 1
50 314 2
50 325 1
50 331 1
50 334 1
50 350 2
50 354 1
50 382 2
51 131 1
51 134 1
51 147 2
51 163 1
51 166 3
51 179 2
51 195 1
51 198 1
51 202 2
51 211 2
51 230 3
51 250 1
51 260 2
51 264 1
51 276 1
51 305 1
51 308 1
51 315 2
51 326 1
51 332 1
51 335 1
51 351 2
51 355 1
51 383 2
52 132 1
52 135 1
52 148 2
52 164 1
52 167 3
52 180 2
52 196 1
52 199 1
52 203 2
52 212 2
52 231 3
52 251 1
52 261 2
52 265 1
52 277 1
52 306 1
52 309 1
52 316 2
52 327 1
52 333 1
52 336 1
52 352 2
52 356 1
52 384 2
53 133 1
53 136 1
53 149 2
53 165 1
53 168 3
53 181 2
53 197 1
53 200 1
53 204 2
53 213 2
53 232 3
53 252 1
53 262 2
53 266 1
53 278 1
53 307 1
53 310 1
53 317 2
53 321 2
53 328 1
53 334 1
53 337 1
53 353 2
53 357 1
54 134 1
54 137 1
54 150 2
54 166 1
54 169 3
54 182 2
54 198 1
54 201 1
54 205 2
54 214 2
54 233 3
54 253 1
54 263 2
54 267 1
54 279 1
54 308 1
54 311 1
54 318 2
54 322 2
54 329 1
54 335 1
54 338 1
54 354 2
54 358 1
55 135 1
55 138 1
55 151 2
55 167 1
55 170 3
55 183 2
55 199 1
55 202 1
55 206 2
55 215 2
55 234 3
55 254 1
55 264 2
55 268 1
55 280 1
55 309 1
55 312 1
55 319 2
55 323 2
55 330 1
55 336 1
55 339 1
55 355 2
55 359 1
56 136 1
56 139 1
56 152 2
56 168 1
56 171 3
56 184 2
56 200 1
56 203 1
56 207 2
56 216 2
56 235 3
56 255 1
56 265 2
56 269 1
56 281 1
56 310 1
56 313 1
56 320 2
56 324 2
56 331 1
56 337 1
56 340 1
56 356 2
56 360 1
57 137 1
57 140 1
57 153 2
57 169 1
57 172 3
57 185 2
57 201 1
57 204 1
57 208 2
57 217 2
57 236 3
57 256 1
57 257 2
57 266 2
57 270 1
57 282 1
57 311 1
57 314 1
57 325 2
57 332 1
57 338 1
57 341 1
57 357 2
57 361 1
58 138 1
58 141 1
58 154 2
58 170 1
58 173 3
58 186 2
58 193 1
58 202 1
58 205 1
58 209 2
58 218 2
58 237 3
58 258 2
58 267 2
58 271 1
58 283 1
58 312 1
58 315 1
58 326 2
58 333 1
58 339 1
58 342 1
58 358 2
58 362 1
59 139 1
59 142 1
59 155 2
59 171 1
59 174 3
59 187 2
59 194 1
59 203 1
59 206 1
59 210 2
59 219 2
59 238 3
59 259 2
59 268 2
59 272 1
59 284 1
59 313 1
59 316 1
59 327 2
59 334 1
59 340 1
59 343 1
59 359 2
59 363 1
60 140 1
60 143 1
60 156 2
60 172 1
60 175 3
60 188 2
60 195 1
60 204 1
60 207 1
60 211 2
60 220 2
60 239 3
60 260 2
60 269 2
60 273 1
60 285 1
60 314 1
60 317 1
60 328 2
60 335 1
60 341 1
60 344 1
60 360 2
60 364 1
61 141 1
61 144 1
61 157 2
61 173 1
61 176 3
61 189 2
61 196 1
61 205 1
61 208 1
61 212 2
61 221 2
61 240 3
61 261 2
61 270 2
61 274 1
61 286 1
61 315 1
61 318 1
61 329 2
61 336 1
61 342 1
61 345 1
61 361 2
61 365 1
62 142 1
62 145 1
62 158 2
62 174 1
62 177 3
62 190 2
62 197 1
62 206 1
62 209 1
62 213 2
62 222 2
62 241 3
62 262 2
62 271 2
62 275 1
62 287 1
62 316 1
62 319 1
62 330 2
62 337 1
62 343 1
62 346 1
62 362 2
62 366 1
63 143 1
63 146 1
63 159 2
63 175 1
63 178 3
63 191 2
63 198 1
63 207 1
63 210 1
63 214 2
63 223 2
63 242 3
63 263 2
63 272 2
63 276 1
63 288 1
63 317 1
63 320 1
63 331 2
63 338 1
63 344 1
63 347 1
63 363 2
63 367 1
64 144 1
64 147 1
64 160 2
64 176 1
64 179 3
64 192 2
64 199 1
64 208 1
64 211 1
64 215 2
64 224 2
64 243 3
64 257 1
64 264 2
64 273 2
64 277 1
64 289 1
64 318 1
64 332 2
64 339 1
64 345 1
64 348 1
64 364 2
64 368 1
65 193 2
65 208 3
65 209 2
65 256 2
65 257 3
65 258 2
65 270 2
65 287 1
65 303 3
65 319 2
65 332 2
65 346 3
65 361 2
65 362 3
65 365 3
65 385 3
65 401 2
65 404 2
65 417 3
65 433 2
65 436 1
66 193 2
66 194 2
66 209 3
66 210 2
66 258 3
66 259 2
66 271 2
66 288 1
66 304 3
66 320 2
66 333 2
66 347 3
66 362 2
66 363 3
66 366 3
66 386 3
66 402 2
66 405 2
66 418 3
66 434 2
66 437 1
67 194 2
67 195 2
67 210 3
67 211 2
67 257 2
67 259 3
67 260 2
67 272 2
67 289 1
67 305 3
67 334 2
67 348 3
67 363 2
67 364 3
67 367 3
67 387 3
67 403 2
67 406 2
67 419 3
67 435 2
67 438 1
68 195 2
68 196 2
68 211 3
68 212 2
68 258 2
68 260 3
68 261 2
68 273 2
68 290 1
68 306 3
68 335 2
68 349 3
68 364 2
68 365 3
68 368 3
68 388 3
68 404 2
68 407 2
68 420 3
68 436 2
68 439 1
69 196 2
69 197 2
69 212 3
69 213 2
69 259 2
69 261 3
69 262 2
69 274 2
69 291 1
69 307 3
69 336 2
69 350 3
69 365 2
69 366 3
69 369 3
69 389 3
69 405 2
69 408 2
69 421 3
69 437 2
69 440 1
70 197 2
70 198 2
70 213 3
70 214 2
70 260 2
70 262 3
70 263 2
70 275 2
70 292 1
70 308 3
70 337 2
70 351 3
70 366 2
70 367 3
70 370 3
70 390 3
70 406 2
70 409 2
70 422 3
70 438 2
70 441 1
71 198 2
71 199 2
71 214 3
71 215 2
71 261 2
71 263 3
71 264 2
71 276 2
71 293 1
71 309 3
71 338 2
71 352 3
71 367 2
71 368 3
71 371 3
71 391 3
71 407 2
71 410 2
71 423 3
71 439 2
71 442 1
72 199 2
72 200 2
72 215 3
72 216 2
72 262 2
72 264 3
72 265 2
72 277 2
72 294 1
72 310 3
72 339 2
72 353 3
72 368 2
72 369 3
72 372 3
72 392 3
72 408 2
72 411 2
72 424 3
72 440 2
72 443 1
73 200 2
73 201 2
73 216 3
73 217 2
73 263 2
73 265 3
73 266 2
73 278 2
73 295 1
73 311 3
73 340 2
73 354 3
73 369 2
73 370 3
73 373 3
73 393 3
73 409 2
73 412 2
73 425 3
73 441 2
73 444 1
74 201 2
74 202 2
74 217 3
74 218 2
74 264 2
74 266 3
74 267 2
74 279 2
74 296 1
74 312 3
74 341 2
74 355 3
74 370 2
74 371 3
74 374 3
74 394 3
74 410 2
74 413 2
74 426 3
74 442 2
74 445 1
75 202 2
75 203 2
75 218 3
75 219 2
75 265 2
75 267 3
75 268 2
75 280 2
75 297 1
75 313 3
75 342 2
75 356 3
75 371 2
75 372 3
75 375 3
75 395 3
75 411 2
75 414 2
75 427 3
75 443 2
75 446 1
76 203 2
76 204 2
76 219 3
76 220 2
76 266 2
76 268 3
76 269 2
76 281 2
76 298 1
76 314 3
76 343 2
76 357 3
76 372 2
76 373 3
76 376 3
76 396 3
76 412 2
76 415 2
76 428 3
76 444 2
76 447 1
77 204 2
77 205 2
77 220 3
77 221 2
77 267 2
77 269 3
77 270 2
77 282 2
77 299 1
77 315 3
77 344 2
77 358 3
77 373 2
77 374 3
77 377 3
77 397 3
77 413 2
77 416 2
77 429 3
77 445 2
77 448 1
78 205 2
78 206 2
78 221 3
78 222 2
78 268 2
78 270 3
78 271 2
78 283 2
78 300 1
78 316 3
78 345 2
78 359 3
78 374 2
78 375 3
78 378 3
78 385 1
78 398 3
78 414 2
78 417 2
78 430 3
78 446 2
79 206 2
79 207 2
79 222 3
79 223 2
79 269 2
79 271 3
79 272 2
79 284 2
79 301 1
79 317 3
79 346 2
79 360 3
79 375 2
79 376 3
79 379 3
79 386 1
79 399 3
79 415 2
79 418 2
79 431 3
79 447 2
80 207 2
80 208 2
80 223 3
80 224 2
80 270 2
80 272 3
80 273 2
80 285 2
80 302 1
80 318 3
80 347 2
80 361 3
80 376 2
80 377 3
80 380 3
80 387 1
80 400 3
80 416 2
80 419 2
80 432 3
80 448 2
81 208 2
81 209 2
81 224 3
81 225 2
81 271 2
81 273 3
81 274 2
81 286 2
81 303 1
81 319 3
81 348 2
81 362 3
81 377 2
81 378 3
81 381 3
81 385 2
81 388 1
81 401 3
81 417 2
81 420 2
81 433 3
82 209 2
82 210 2
82 225 3
82 226 2
82 272 2
82 274 3
82 275 2
82 287 2
82 304 1
82 320 3
82 349 2
82 363 3
82 378 2
82 379 3
82 382 3
82 386 2
82 389 1
82 402 3
82 418 2
82 421 2
82 434 3
83 210 2
83 211 2
83 226 3
83 227 2
83 257 3
83 273 2
83 275 3
83 276 2
83 288 2
83 305 1
83 350 2
83 364 3
83 379 2
83 380 3
83 383 3
83 387 2
83 390 1
83 403 3
83 419 2
83 422 2
83 435 3
84 211 2
84 212 2
84 227 3
84 228 2
84 258 3
84 274 2
84 276 3
84 277 2
84 289 2
84 306 1
84 351 2
84 365 3
84 380 2
84 381 3
84 384 3
84 388 2
84 391 1
84 404 3
84 420 2
84 423 2
84 436 3
85 212 2
85 213 2
85 228 3
85 229 2
85 259 3
85 275 2
85 277 3
85 278 2
85 290 2
85 307 1
85 321 3
85 352 2
85 366 3
85 381 2
85 382 3
85 389 2
85 392 1
85 405 3
85 421 2
85 424 2
85 437 3
86 213 2
86 214 2
86 229 3
86 230 2
86 260 3
86 276 2
86 278 3
86 279 2
86 291 2
86 308 1
86 322 3
86 353 2
86 367 3
86 382 2
86 383 3
86 390 2
86 393 1
86 406 3
86 422 2
86 425 2
86 438 3
87 214 2
87 215 2
87 230 3
87 231 2
87 261 3
87 277 2
87 279 3
87 280 2
87 292 2
87 309 1
87 323 3
87 354 2
87 368 3
87 383 2
87 384 3
87 391 2
87 394 1
87 407 3
87 423 2
87 426 2
87 439 3
88 215 2
88 216 2
88 231 3
88 232 2
88 262 3
88 278 2
88 280 3
88 281 2
88 293 2
88 310 1
88 321 3
88 324 3
88 355 2
88 369 3
88 384 2
88 392 2
88 395 1
88 408 3
88 424 2
88 427 2
88 440 3
89 216 2
89 217 2
89 232 3
89 233 2
89 263 3
89 279 2
89 281 3
89 282 2
89 294 2
89 311 1
89 321 2
89 322 3
89 325 3
89 356 2
89 370 3
89 393 2
89 396 1
89 409 3
89 425 2
89 428 2
89 441 3
90 217 2
90 218 2
90 233 3
90 234 2
90 264 3
90 280 2
90 282 3
90 283 2
90 295 2
90 312 1
90 322 2
90 323 3
90 326 3
90 357 2
90 371 3
90 394 2
90 397 1
90 410 3
90 426 2
90 429 2
90 442 3
91 218 2
91 219 2
91 234 3
91 235 2
91 265 3
91 281 2
91 283 3
91 284 2
91 296 2
91 313 1
91 323 2
91 324 3
91 327 3
91 358 2
91 372 3
91 395 2
91 398 1
91 411 3
91 427 2
91 430 2
91 443 3
92 219 2
92 220 2
92 235 3
92 236 2
92 266 3
92 282 2
92 284 3
92 285 2
92 297 2
92 314 1
92 324 2
92 325 3
92 328 3
92 359 2
92 373 3
92 396 2
92 399 1
92 412 3
92 428 2
92 431 2
92 444 3
93 220 2
93 221 2
93 236 3
93 237 2
93 267 3
93 283 2
93 285 3
93 286 2
93 298 2
93 315 1
93 325 2
93 326 3
93 329 3
93 360 2
93 374 3
93 397 2
93 400 1
93 413 3
93 429 2
93 432 2
93 445 3
94 221 2
94 222 2
94 237 3
94 238 2
94 268 3
94 284 2
94 286 3
94 287 2
94 299 2
94 316 1
94 326 2
94 327 3
94 330 3
94 361 2
94 375 3
94 398 2
94 401 1
94 414 3
94 430 2
94 433 2
94 446 3
95 222 2
95 223 2
95 238 3
95 239 2
95 269 3
95 285 2
95 287 3
95 288 2
95 300 2
95 317 1
95 327 2
95 328 3
95 331 3
95 362 2
95 376 3
95 399 2
95 402 1
95 415 3
95 431 2
95 434 2
95 447 3
96 223 2
96 224 2
96 239 3
96 240 2
96 270 3
96 286 2
96 288 3
96 289 2
96 301 2
96 318 1
96 328 2
96 329 3
96 332 3
96 363 2
96 377 3
96 400 2
96 403 1
96 416 3
96 432 2
96 435 2
96 448 3
97 224 2
97 225 2
97 240 3
97 241 2
97 271 3
97 287 2
97 289 3
97 290 2
97 302 2
97 319 1
97 329 2
97 330 3
97 333 3
97 364 2
97 378 3
97 385 3
97 401 2
97 404 1
97 417 3
97 433 2
97 436 2
98 225 2
98 226 2
98 241 3
98 242 2
98 272 3
98 288 2
98 290 3
98 291 2
98 303 2
98 320 1
98 330 2
98 331 3
98 334 3
98 365 2
98 379 3
98 386 3
98 402 2
98 405 1
98 418 3
98 434 2
98 437 2
99 226 2
99 227 2
99 242 3
99 243 2
99 257 1
99 273 3
99 289 2
99 291 3
99 292 2
99 304 2
99 331 2
99 332 3
99 335 3
99 366 2
99 380 3
99 387 3
99 403 2
99 406 1
99 419 3
99 435 2
99 438 2
100 227 2
100 228 2
100 243 3
100 244 2
100 258 1
100 274 3
100 290 2
100 292 3
100 293 2
100 305 2
100 332 2
100 333 3
100 336 3
100 367 2
100 381 3
100 388 3
100 404 2
100 407 1
100 420 3
100 436 2
100 439 2
101 228 2
101 229 2
101 244 3
101 245 2
101 259 1
101 275 3
101 291 2
101 293 3
101 294 2
101 306 2
101 333 2
101 334 3
101 337 3
101 368 2
101 382 3
101 389 3
101 405 2
101 408 1
101 421 3
101 437 2
101 440 2
102 229 2
102 230 2
102 245 3
102 246 2
102 260 1
102 276 3
102 292 2
102 294 3
102 295 2
102 307 2
102 334 2
102 335 3
102 338 3
102 369 2
102 383 3
102 390 3
102 406 2
102 409 1
102 422 3
102 438 2
102 441 2
103 230 2
103 231 2
103 246 3
103 247 2
103 261 1
103 277 3
103 293 2
103 295 3
103 296 2
103 308 2
103 335 2
103 336 3
103 339 3
103 370 2
103 384 3
103 391 3
103 407 2
103 410 1
103 423 3
103 439 2
103 442 2
104 231 2
104 232 2
104 247 3
104 248 2
104 262 1
104 278 3
104 294 2
104 296 3
104 297 2
104 309 2
104 321 3
104 336 2
104 337 3
104 340 3
104 371 2
104 392 3
104 408 2
104 411 1
104 424 3
104 440 2
104 443 2
105 232 2
105 233 2
105 248 3
105 249 2
105 263 1
105 279 3
105 295 2
105 297 3
105 298 2
105 310 2
105 322 3
105 337 2
105 338 3
105 341 3
105 372 2
105 393 3
105 409 2
105 412 1
105 425 3
105 441 2
105 444 2
106 233 2
106 234 2
106 249 3
106 250 2
106 264 1
106 280 3
106 296 2
106 298 3
106 299 2
106 311 2
106 323 3
106 338 2
106 339 3
106 342 3
106 373 2
106 394 3
106 410 2
106 413 1
106 426 3
106 442 2
106 445 2
107 234 2
107 235 2
107 250 3
107 251 2
107 265 1
107 281 3
107 297 2
107 299 3
107 300 2
107 312 2
107 324 3
107 339 2
107 340 3
107 343 3
107 374 2
107 395 3
107 411 2
107 414 1
107 427 3
107 443 2
107 446 2
108 235 2
108 236 2
108 251 3
108 252 2
108 266 1
108 282 3
108 298 2
108 300 3
108 301 2
108 313 2
108 325 3
108 340 2
108 341 3
108 344 3
108 375 2
108 396 3
108 412 2
108 415 1
108 428 3
108 444 2
108 447 2
109 236 2
109 237 2
109 252 3
109 253 2
109 267 1
109 283 3
109 299 2
109 301 3
109 302 2
109 314 2
109 326 3
109 341 2
109 342 3
109 345 3
109 376 2
109 397 3
109 413 2
109 416 1
109 429 3
109 445 2
109 448 2
110 237 2
110 238 2
110 253 3
110 254 2
110 268 1
110 284 3
110 300 2
110 302 3
110 303 2
110 315 2
110 327 3
110 342 2
110 343 3
110 346 3
110 377 2
110 385 2
110 398 3
110 414 2
110 417 1
110 430 3
110 446 2
111 238 2
111 239 2
111 254 3
111 255 2
111 269 1
111 285 3
111 301 2
111 303 3
111 304 2
111 316 2
111 328 3
111 343 2
111 344 3
111 347 3
111 378 2
111 386 2
111 399 3
111 415 2
111 418 1
111 431 3
111 447 2
112 239 2
112 240 2
112 255 3
112 256 2
112 270 1
112 286 3
112 302 2
112 304 3
112 305 2
112 317 2
112 329 3
112 344 2
112 345 3
112 348 3
112 379 2
112 387 2
112 400 3
112 416 2
112 419 1
112 432 3
112 448 2
113 193 2
113 240 2
113 241 2
113 256 3
113 271 1
113 287 3
113 303 2
113 305 3
113 306 2
113 318 2
113 330 3
113 345 2
113 346 3
113 349 3
113 380 2
113 385 2
113 388 2
113 401 3
113 417 2
113 420 1
113 433 3
114 193 3
114 194 2
114 241 2
114 242 2
114 272 1
114 288 3
114 304 2
114 306 3
114 307 2
114 319 2
114 331 3
114 346 2
114 347 3
114 350 3
114 381 2
114 386 2
114 389 2
114 402 3
114 418 2
114 421 1
114 434 3
115 194 3
115 195 2
115 242 2
115 243 2
115 273 1
115 289 3
115 305 2
115 307 3
115 308 2
115 320 2
115 332 3
115 347 2
115 348 3
115 351 3
115 382 2
115 387 2
115 390 2
115 403 3
115 419 2
115 422 1
115 435 3
116 195 3
116 196 2
116 243 2
116 244 2
116 257 2
116 274 1
116 290 3
116 306 2
116 308 3
116 309 2
116 333 3
116 348 2
116 349 3
116 352 3
116 383 2
116 388 2
116 391 2
116 404 3
116 420 2
116 423 1
116 436 3
117 196 3
117 197 2
117 244 2
117 245 2
117 258 2
117 275 1
117 291 3
117 307 2
117 309 3
117 310 2
117 334 3
117 349 2
117 350 3
117 353 3
117 384 2
117 389 2
117 392 2
117 405 3
117 421 2
117 424 1
117 437 3
118 197 3
118 198 2
118 245 2
118 246 2
118 259 2
118 276 1
118 292 3
118 308 2
118 310 3
118 311 2
118 321 2
118 335 3
118 350 2
118 351 3
118 354 3
118 390 2
118 393 2
118 406 3
118 422 2
118 425 1
118 438 3
119 198 3
119 199 2
119 246 2
119 247 2
119 260 2
119 277 1
119 293 3
119 309 2
119 311 3
119 312 2
119 322 2
119 336 3
119 351 2
119 352 3
119 355 3
119 391 2
119 394 2
119 407 3
119 423 2
119 426 1
119 439 3
120 199 3
120 200 2
120 247 2
120 248 2
120 261 2
120 278 1
120 294 3
120 310 2
120 312 3
120 313 2
120 323 2
120 337 3
120 352 2
120 353 3
120 356 3
120 392 2
120 395 2
120 408 3
120 424 2
120 427 1
120 440 3
121 200 3
121 201 2
121 248 2
121 249 2
121 262 2
121 279 1
121 295 3
121 311 2
121 313 3
121 314 2
121 324 2
121 338 3
121 353 2
121 354 3
121 357 3
121 393 2
121 396 2
121 409 3
121 425 2
121 428 1
121 441 3
122 201 3
122 202 2
122 249 2
122 250 2
122 263 2
122 280 1
122 296 3
122 312 2
122 314 3
122 315 2
122 325 2
122 339 3
122 354 2
122 355 3
122 358 3
122 394 2
122 397 2
122 410 3
122 426 2
122 429 1
122 442 3
123 202 3
123 203 2
123 250 2
123 251 2
123 264 2
123 281 1
123 297 3
123 313 2
123 315 3
123 316 2
123 326 2
123 340 3
123 355 2
123 356 3
123 359 3
123 395 2
123 398 2
123 411 3
123 427 2
123 430 1
123 443 3
124 203 3
124 204 2
124 251 2
124 252 2
124 265 2
124 282 1
124 298 3
124 314 2
124 316 3
124 317 2
124 327 2
124 341 3
124 356 2
124 357 3
124 360 3
124 396 2
124 399 2
124 412 3
124 428 2
124 431 1
124 444 3
125 204 3
125 205 2
125 252 2
125 253 2
125 266 2
125 283 1
125 299 3
125 315 2
125 317 3
125 318 2
125 328 2
125 342 3
125 357 2
125 358 3
125 361 3
125 397 2
125 400 2
125 413 3
125 429 2
125 432 1
125 445 3
126 205 3
126 206 2
126 253 2
126 254 2
126 267 2
126 284 1
126 300 3
126 316 2
126 318 3
126 319 2
126 329 2
126 343 3
126 358 2
126 359 3
126 362 3
126 398 2
126 401 2
126 414 3
126 430 2
126 433 1
126 446 3
127 206 3
127 207 2
127 254 2
127 255 2
127 268 2
127 285 1
127 301 3
127 317 2
127 319 3
127 320 2
127 330 2
127 344 3
127 359 2
127 360 3
127 363 3
127 399 2
127 402 2
127 415 3
127 431 2
127 434 1
127 447 3
128 207 3
128 208 2
128 255 2
128 256 2
128 257 2
128 269 2
128 286 1
128 302 3
128 318 2
128 320 3
128 331 2
128 345 3
128 360 2
128 361 3
128 364 3
128 400 2
128 403 2
128 416 3
128 432 2
128 435 1
128 448 3
