%%MatrixMarket matrix coordinate integer general
% Binary matrix over GF(2).
% Coordinate indices are 1-based; omitted entries are zero.
256 1024 7616
1 13 1
1 14 1
1 42 1
1 103 1
1 104 1
1 109 1
1 110 1
1 112 1
1 144 1
1 168 1
1 169 1
1 170 1
1 174 1
1 205 1
1 206 1
1 237 1
1 269 1
1 270 1
1 296 1
1 302 1
1 333 1
1 334 1
1 359 1
1 366 1
1 910 1
1 912 1
1 1006 1
1 1007 1
1 1008 1
2 15 1
2 16 1
2 44 1
2 105 1
2 106 1
2 111 1
2 112 1
2 114 1
2 146 1
2 170 1
2 171 1
2 172 1
2 176 1
2 207 1
2 208 1
2 239 1
2 271 1
2 272 1
2 298 1
2 304 1
2 335 1
2 336 1
2 361 1
2 368 1
2 912 1
2 914 1
2 1008 1
2 1009 1
2 1010 1
3 17 1
3 18 1
3 46 1
3 107 1
3 108 1
3 113 1
3 114 1
3 116 1
3 148 1
3 172 1
3 173 1
3 174 1
3 178 1
3 209 1
3 210 1
3 241 1
3 273 1
3 274 1
3 300 1
3 306 1
3 337 1
3 338 1
3 363 1
3 370 1
3 914 1
3 916 1
3 1010 1
3 1011 1
3 1012 1
4 19 1
4 20 1
4 48 1
4 109 1
4 110 1
4 115 1
4 116 1
4 118 1
4 150 1
4 174 1
4 175 1
4 176 1
4 180 1
4 211 1
4 212 1
4 243 1
4 275 1
4 276 1
4 302 1
4 308 1
4 339 1
4 340 1
4 365 1
4 372 1
4 916 1
4 918 1
4 1012 1
4 1013 1
4 1014 1
5 21 1
5 22 1
5 50 1
5 111 1
5 112 1
5 117 1
5 118 1
5 120 1
5 152 1
5 176 1
5 177 1
5 178 1
5 182 1
5 213 1
5 214 1
5 245 1
5 277 1
5 278 1
5 304 1
5 310 1
5 341 1
5 342 1
5 367 1
5 374 1
5 918 1
5 920 1
5 1014 1
5 1015 1
5 1016 1
6 23 1
6 24 1
6 52 1
6 113 1
6 114 1
6 119 1
6 120 1
6 122 1
6 154 1
6 178 1
6 179 1
6 180 1
6 184 1
6 215 1
6 216 1
6 247 1
6 279 1
6 280 1
6 306 1
6 312 1
6 343 1
6 344 1
6 369 1
6 376 1
6 920 1
6 922 1
6 1016 1
6 1017 1
6 1018 1
7 25 1
7 26 1
7 54 1
7 115 1
7 116 1
7 121 1
7 122 1
7 124 1
7 156 1
7 180 1
7 181 1
7 182 1
7 186 1
7 217 1
7 218 1
7 249 1
7 281 1
7 282 1
7 308 1
7 314 1
7 345 1
7 346 1
7 371 1
7 378 1
7 922 1
7 924 1
7 1018 1
7 1019 1
7 1020 1
8 27 1
8 28 1
8 56 1
8 117 1
8 118 1
8 123 1
8 124 1
8 126 1
8 158 1
8 182 1
8 183 1
8 184 1
8 188 1
8 219 1
8 220 1
8 251 1
8 283 1
8 284 1
8 310 1
8 316 1
8 347 1
8 348 1
8 373 1
8 380 1
8 924 1
8 926 1
8 1020 1
8 1021 1
8 1022 1
9 29 1
9 30 1
9 58 1
9 119 1
9 120 1
9 125 1
9 126 1
9 128 1
9 160 1
9 184 1
9 185 1
9 186 1
9 190 1
9 221 1
9 222 1
9 253 1
9 285 1
9 286 1
9 312 1
9 318 1
9 349 1
9 350 1
9 375 1
9 382 1
9 926 1
9 928 1
9 1022 1
9 1023 1
9 1024 1
10 2 1
10 31 1
10 32 1
10 60 1
10 121 1
10 122 1
10 127 1
10 128 1
10 162 1
10 186 1
10 187 1
10 188 1
10 192 1
10 223 1
10 224 1
10 255 1
10 287 1
10 288 1
10 314 1
10 320 1
10 351 1
10 352 1
10 377 1
10 384 1
10 897 1
10 898 1
10 928 1
10 930 1
10 1024 1
11 1 1
11 2 1
11 4 1
11 33 1
11 34 1
11 62 1
11 123 1
11 124 1
11 129 1
11 164 1
11 188 1
11 189 1
11 190 1
11 194 1
11 225 1
11 226 1
11 258 1
11 289 1
11 290 1
11 316 1
11 322 1
11 353 1
11 354 1
11 379 1
11 898 1
11 899 1
11 900 1
11 930 1
11 932 1
12 3 1
12 4 1
12 6 1
12 35 1
12 36 1
12 64 1
12 125 1
12 126 1
12 131 1
12 166 1
12 190 1
12 191 1
12 192 1
12 196 1
12 227 1
12 228 1
12 260 1
12 291 1
12 292 1
12 318 1
12 324 1
12 355 1
12 356 1
12 381 1
12 900 1
12 901 1
12 902 1
12 932 1
12 934 1
13 5 1
13 6 1
13 8 1
13 37 1
13 38 1
13 66 1
13 127 1
13 128 1
13 133 1
13 168 1
13 192 1
13 193 1
13 194 1
13 198 1
13 229 1
13 230 1
13 262 1
13 293 1
13 294 1
13 320 1
13 326 1
13 357 1
13 358 1
13 383 1
13 902 1
13 903 1
13 904 1
13 934 1
13 936 1
14 1 1
14 2 1
14 7 1
14 8 1
14 10 1
14 39 1
14 40 1
14 68 1
14 135 1
14 170 1
14 194 1
14 195 1
14 196 1
14 200 1
14 231 1
14 232 1
14 257 1
14 264 1
14 295 1
14 296 1
14 322 1
14 328 1
14 359 1
14 360 1
14 904 1
14 905 1
14 906 1
14 936 1
14 938 1
15 3 1
15 4 1
15 9 1
15 10 1
15 12 1
15 41 1
15 42 1
15 70 1
15 137 1
15 172 1
15 196 1
15 197 1
15 198 1
15 202 1
15 233 1
15 234 1
15 259 1
15 266 1
15 297 1
15 298 1
15 324 1
15 330 1
15 361 1
15 362 1
15 906 1
15 907 1
15 908 1
15 938 1
15 940 1
16 5 1
16 6 1
16 11 1
16 12 1
16 14 1
16 43 1
16 44 1
16 72 1
16 139 1
16 174 1
16 198 1
16 199 1
16 200 1
16 204 1
16 235 1
16 236 1
16 261 1
16 268 1
16 299 1
16 300 1
16 326 1
16 332 1
16 363 1
16 364 1
16 908 1
16 909 1
16 910 1
16 940 1
16 942 1
17 7 1
17 8 1
17 13 1
17 14 1
17 16 1
17 45 1
17 46 1
17 74 1
17 141 1
17 176 1
17 200 1
17 201 1
17 202 1
17 206 1
17 237 1
17 238 1
17 263 1
17 270 1
17 301 1
17 302 1
17 328 1
17 334 1
17 365 1
17 366 1
17 910 1
17 911 1
17 912 1
17 942 1
17 944 1
18 9 1
18 10 1
18 15 1
18 16 1
18 18 1
18 47 1
18 48 1
18 76 1
18 143 1
18 178 1
18 202 1
18 203 1
18 204 1
18 208 1
18 239 1
18 240 1
18 265 1
18 272 1
18 303 1
18 304 1
18 330 1
18 336 1
18 367 1
18 368 1
18 912 1
18 913 1
18 914 1
18 944 1
18 946 1
19 11 1
19 12 1
19 17 1
19 18 1
19 20 1
19 49 1
19 50 1
19 78 1
19 145 1
19 180 1
19 204 1
19 205 1
19 206 1
19 210 1
19 241 1
19 242 1
19 267 1
19 274 1
19 305 1
19 306 1
19 332 1
19 338 1
19 369 1
19 370 1
19 914 1
19 915 1
19 916 1
19 946 1
19 948 1
20 13 1
20 14 1
20 19 1
20 20 1
20 22 1
20 51 1
20 52 1
20 80 1
20 147 1
20 182 1
20 206 1
20 207 1
20 208 1
20 212 1
20 243 1
20 244 1
20 269 1
20 276 1
20 307 1
20 308 1
20 334 1
20 340 1
20 371 1
20 372 1
20 916 1
20 917 1
20 918 1
20 948 1
20 950 1
21 15 1
21 16 1
21 21 1
21 22 1
21 24 1
21 53 1
21 54 1
21 82 1
21 149 1
21 184 1
21 208 1
21 209 1
21 210 1
21 214 1
21 245 1
21 246 1
21 271 1
21 278 1
21 309 1
21 310 1
21 336 1
21 342 1
21 373 1
21 374 1
21 918 1
21 919 1
21 920 1
21 950 1
21 952 1
22 17 1
22 18 1
22 23 1
22 24 1
22 26 1
22 55 1
22 56 1
22 84 1
22 151 1
22 186 1
22 210 1
22 211 1
22 212 1
22 216 1
22 247 1
22 248 1
22 273 1
22 280 1
22 311 1
22 312 1
22 338 1
22 344 1
22 375 1
22 376 1
22 920 1
22 921 1
22 922 1
22 952 1
22 954 1
23 19 1
23 20 1
23 25 1
23 26 1
23 28 1
23 57 1
23 58 1
23 86 1
23 153 1
23 188 1
23 212 1
23 213 1
23 214 1
23 218 1
23 249 1
23 250 1
23 275 1
23 282 1
23 313 1
23 314 1
23 340 1
23 346 1
23 377 1
23 378 1
23 922 1
23 923 1
23 924 1
23 954 1
23 956 1
24 21 1
24 22 1
24 27 1
24 28 1
24 30 1
24 59 1
24 60 1
24 88 1
24 155 1
24 190 1
24 214 1
24 215 1
24 216 1
24 220 1
24 251 1
24 252 1
24 277 1
24 284 1
24 315 1
24 316 1
24 342 1
24 348 1
24 379 1
24 380 1
24 924 1
24 925 1
24 926 1
24 956 1
24 958 1
25 23 1
25 24 1
25 29 1
25 30 1
25 32 1
25 61 1
25 62 1
25 90 1
25 157 1
25 192 1
25 216 1
25 217 1
25 218 1
25 222 1
25 253 1
25 254 1
25 279 1
25 286 1
25 317 1
25 318 1
25 344 1
25 350 1
25 381 1
25 382 1
25 926 1
25 927 1
25 928 1
25 958 1
25 960 1
26 25 1
26 26 1
26 31 1
26 32 1
26 34 1
26 63 1
26 64 1
26 92 1
26 159 1
26 194 1
26 218 1
26 219 1
26 220 1
26 224 1
26 255 1
26 256 1
26 281 1
26 288 1
26 319 1
26 320 1
26 346 1
26 352 1
26 383 1
26 384 1
26 928 1
26 929 1
26 930 1
26 960 1
26 962 1
27 27 1
27 28 1
27 33 1
27 34 1
27 36 1
27 65 1
27 66 1
27 94 1
27 129 1
27 130 1
27 161 1
27 196 1
27 220 1
27 221 1
27 222 1
27 226 1
27 257 1
27 258 1
27 283 1
27 290 1
27 321 1
27 322 1
27 348 1
27 354 1
27 930 1
27 931 1
27 932 1
27 962 1
27 964 1
28 29 1
28 30 1
28 35 1
28 36 1
28 38 1
28 67 1
28 68 1
28 96 1
28 131 1
28 132 1
28 163 1
28 198 1
28 222 1
28 223 1
28 224 1
28 228 1
28 259 1
28 260 1
28 285 1
28 292 1
28 323 1
28 324 1
28 350 1
28 356 1
28 932 1
28 933 1
28 934 1
28 964 1
28 966 1
29 31 1
29 32 1
29 37 1
29 38 1
29 40 1
29 69 1
29 70 1
29 98 1
29 133 1
29 134 1
29 165 1
29 200 1
29 224 1
29 225 1
29 226 1
29 230 1
29 261 1
29 262 1
29 287 1
29 294 1
29 325 1
29 326 1
29 352 1
29 358 1
29 934 1
29 935 1
29 936 1
29 966 1
29 968 1
30 33 1
30 34 1
30 39 1
30 40 1
30 42 1
30 71 1
30 72 1
30 100 1
30 135 1
30 136 1
30 167 1
30 202 1
30 226 1
30 227 1
30 228 1
30 232 1
30 263 1
30 264 1
30 289 1
30 296 1
30 327 1
30 328 1
30 354 1
30 360 1
30 936 1
30 937 1
30 938 1
30 968 1
30 970 1
31 35 1
31 36 1
31 41 1
31 42 1
31 44 1
31 73 1
31 74 1
31 102 1
31 137 1
31 138 1
31 169 1
31 204 1
31 228 1
31 229 1
31 230 1
31 234 1
31 265 1
31 266 1
31 291 1
31 298 1
31 329 1
31 330 1
31 356 1
31 362 1
31 938 1
31 939 1
31 940 1
31 970 1
31 972 1
32 37 1
32 38 1
32 43 1
32 44 1
32 46 1
32 75 1
32 76 1
32 104 1
32 139 1
32 140 1
32 171 1
32 206 1
32 230 1
32 231 1
32 232 1
32 236 1
32 267 1
32 268 1
32 293 1
32 300 1
32 331 1
32 332 1
32 358 1
32 364 1
32 940 1
32 941 1
32 942 1
32 972 1
32 974 1
33 39 1
33 40 1
33 45 1
33 46 1
33 48 1
33 77 1
33 78 1
33 106 1
33 141 1
33 142 1
33 173 1
33 208 1
33 232 1
33 233 1
33 234 1
33 238 1
33 269 1
33 270 1
33 295 1
33 302 1
33 333 1
33 334 1
33 360 1
33 366 1
33 942 1
33 943 1
33 944 1
33 974 1
33 976 1
34 41 1
34 42 1
34 47 1
34 48 1
34 50 1
34 79 1
34 80 1
34 108 1
34 143 1
34 144 1
34 175 1
34 210 1
34 234 1
34 235 1
34 236 1
34 240 1
34 271 1
34 272 1
34 297 1
34 304 1
34 335 1
34 336 1
34 362 1
34 368 1
34 944 1
34 945 1
34 946 1
34 976 1
34 978 1
35 43 1
35 44 1
35 49 1
35 50 1
35 52 1
35 81 1
35 82 1
35 110 1
35 145 1
35 146 1
35 177 1
35 212 1
35 236 1
35 237 1
35 238 1
35 242 1
35 273 1
35 274 1
35 299 1
35 306 1
35 337 1
35 338 1
35 364 1
35 370 1
35 946 1
35 947 1
35 948 1
35 978 1
35 980 1
36 45 1
36 46 1
36 51 1
36 52 1
36 54 1
36 83 1
36 84 1
36 112 1
36 147 1
36 148 1
36 179 1
36 214 1
36 238 1
36 239 1
36 240 1
36 244 1
36 275 1
36 276 1
36 301 1
36 308 1
36 339 1
36 340 1
36 366 1
36 372 1
36 948 1
36 949 1
36 950 1
36 980 1
36 982 1
37 47 1
37 48 1
37 53 1
37 54 1
37 56 1
37 85 1
37 86 1
37 114 1
37 149 1
37 150 1
37 181 1
37 216 1
37 240 1
37 241 1
37 242 1
37 246 1
37 277 1
37 278 1
37 303 1
37 310 1
37 341 1
37 342 1
37 368 1
37 374 1
37 950 1
37 951 1
37 952 1
37 982 1
37 984 1
38 49 1
38 50 1
38 55 1
38 56 1
38 58 1
38 87 1
38 88 1
38 116 1
38 151 1
38 152 1
38 183 1
38 218 1
38 242 1
38 243 1
38 244 1
38 248 1
38 279 1
38 280 1
38 305 1
38 312 1
38 343 1
38 344 1
38 370 1
38 376 1
38 952 1
38 953 1
38 954 1
38 984 1
38 986 1
39 51 1
39 52 1
39 57 1
39 58 1
39 60 1
39 89 1
39 90 1
39 118 1
39 153 1
39 154 1
39 185 1
39 220 1
39 244 1
39 245 1
39 246 1
39 250 1
39 281 1
39 282 1
39 307 1
39 314 1
39 345 1
39 346 1
39 372 1
39 378 1
39 954 1
39 955 1
39 956 1
39 986 1
39 988 1
40 53 1
40 54 1
40 59 1
40 60 1
40 62 1
40 91 1
40 92 1
40 120 1
40 155 1
40 156 1
40 187 1
40 222 1
40 246 1
40 247 1
40 248 1
40 252 1
40 283 1
40 284 1
40 309 1
40 316 1
40 347 1
40 348 1
40 374 1
40 380 1
40 956 1
40 957 1
40 958 1
40 988 1
40 990 1
41 55 1
41 56 1
41 61 1
41 62 1
41 64 1
41 93 1
41 94 1
41 122 1
41 157 1
41 158 1
41 189 1
41 224 1
41 248 1
41 249 1
41 250 1
41 254 1
41 285 1
41 286 1
41 311 1
41 318 1
41 349 1
41 350 1
41 376 1
41 382 1
41 958 1
41 959 1
41 960 1
41 990 1
41 992 1
42 57 1
42 58 1
42 63 1
42 64 1
42 66 1
42 95 1
42 96 1
42 124 1
42 159 1
42 160 1
42 191 1
42 226 1
42 250 1
42 251 1
42 252 1
42 256 1
42 287 1
42 288 1
42 313 1
42 320 1
42 351 1
42 352 1
42 378 1
42 384 1
42 960 1
42 961 1
42 962 1
42 992 1
42 994 1
43 59 1
43 60 1
43 65 1
43 66 1
43 68 1
43 97 1
43 98 1
43 126 1
43 130 1
43 161 1
43 162 1
43 193 1
43 228 1
43 252 1
43 253 1
43 254 1
43 258 1
43 289 1
43 290 1
43 315 1
43 322 1
43 353 1
43 354 1
43 380 1
43 962 1
43 963 1
43 964 1
43 994 1
43 996 1
44 61 1
44 62 1
44 67 1
44 68 1
44 70 1
44 99 1
44 100 1
44 128 1
44 132 1
44 163 1
44 164 1
44 195 1
44 230 1
44 254 1
44 255 1
44 256 1
44 260 1
44 291 1
44 292 1
44 317 1
44 324 1
44 355 1
44 356 1
44 382 1
44 964 1
44 965 1
44 966 1
44 996 1
44 998 1
45 2 1
45 63 1
45 64 1
45 69 1
45 70 1
45 72 1
45 101 1
45 102 1
45 129 1
45 130 1
45 134 1
45 165 1
45 166 1
45 197 1
45 232 1
45 256 1
45 262 1
45 293 1
45 294 1
45 319 1
45 326 1
45 357 1
45 358 1
45 384 1
45 966 1
45 967 1
45 968 1
45 998 1
45 1000 1
46 4 1
46 65 1
46 66 1
46 71 1
46 72 1
46 74 1
46 103 1
46 104 1
46 130 1
46 131 1
46 132 1
46 136 1
46 167 1
46 168 1
46 199 1
46 234 1
46 258 1
46 264 1
46 295 1
46 296 1
46 321 1
46 328 1
46 359 1
46 360 1
46 968 1
46 969 1
46 970 1
46 1000 1
46 1002 1
47 6 1
47 67 1
47 68 1
47 73 1
47 74 1
47 76 1
47 105 1
47 106 1
47 132 1
47 133 1
47 134 1
47 138 1
47 169 1
47 170 1
47 201 1
47 236 1
47 260 1
47 266 1
47 297 1
47 298 1
47 323 1
47 330 1
47 361 1
47 362 1
47 970 1
47 971 1
47 972 1
47 1002 1
47 1004 1
48 8 1
48 69 1
48 70 1
48 75 1
48 76 1
48 78 1
48 107 1
48 108 1
48 134 1
48 135 1
48 136 1
48 140 1
48 171 1
48 172 1
48 203 1
48 238 1
48 262 1
48 268 1
48 299 1
48 300 1
48 325 1
48 332 1
48 363 1
48 364 1
48 972 1
48 973 1
48 974 1
48 1004 1
48 1006 1
49 10 1
49 71 1
49 72 1
49 77 1
49 78 1
49 80 1
49 109 1
49 110 1
49 136 1
49 137 1
49 138 1
49 142 1
49 173 1
49 174 1
49 205 1
49 240 1
49 264 1
49 270 1
49 301 1
49 302 1
49 327 1
49 334 1
49 365 1
49 366 1
49 974 1
49 975 1
49 976 1
49 1006 1
49 1008 1
50 12 1
50 73 1
50 74 1
50 79 1
50 80 1
50 82 1
50 111 1
50 112 1
50 138 1
50 139 1
50 140 1
50 144 1
50 175 1
50 176 1
50 207 1
50 242 1
50 266 1
50 272 1
50 303 1
50 304 1
50 329 1
50 336 1
50 367 1
50 368 1
50 976 1
50 977 1
50 978 1
50 1008 1
50 1010 1
51 14 1
51 75 1
51 76 1
51 81 1
51 82 1
51 84 1
51 113 1
51 114 1
51 140 1
51 141 1
51 142 1
51 146 1
51 177 1
51 178 1
51 209 1
51 244 1
51 268 1
51 274 1
51 305 1
51 306 1
51 331 1
51 338 1
51 369 1
51 370 1
51 978 1
51 979 1
51 980 1
51 1010 1
51 1012 1
52 16 1
52 77 1
52 78 1
52 83 1
52 84 1
52 86 1
52 115 1
52 116 1
52 142 1
52 143 1
52 144 1
52 148 1
52 179 1
52 180 1
52 211 1
52 246 1
52 270 1
52 276 1
52 307 1
52 308 1
52 333 1
52 340 1
52 371 1
52 372 1
52 980 1
52 981 1
52 982 1
52 1012 1
52 1014 1
53 18 1
53 79 1
53 80 1
53 85 1
53 86 1
53 88 1
53 117 1
53 118 1
53 144 1
53 145 1
53 146 1
53 150 1
53 181 1
53 182 1
53 213 1
53 248 1
53 272 1
53 278 1
53 309 1
53 310 1
53 335 1
53 342 1
53 373 1
53 374 1
53 982 1
53 983 1
53 984 1
53 1014 1
53 1016 1
54 20 1
54 81 1
54 82 1
54 87 1
54 88 1
54 90 1
54 119 1
54 120 1
54 146 1
54 147 1
54 148 1
54 152 1
54 183 1
54 184 1
54 215 1
54 250 1
54 274 1
54 280 1
54 311 1
54 312 1
54 337 1
54 344 1
54 375 1
54 376 1
54 984 1
54 985 1
54 986 1
54 1016 1
54 1018 1
55 22 1
55 83 1
55 84 1
55 89 1
55 90 1
55 92 1
55 121 1
55 122 1
55 148 1
55 149 1
55 150 1
55 154 1
55 185 1
55 186 1
55 217 1
55 252 1
55 276 1
55 282 1
55 313 1
55 314 1
55 339 1
55 346 1
55 377 1
55 378 1
55 986 1
55 987 1
55 988 1
55 1018 1
55 1020 1
56 24 1
56 85 1
56 86 1
56 91 1
56 92 1
56 94 1
56 123 1
56 124 1
56 150 1
56 151 1
56 152 1
56 156 1
56 187 1
56 188 1
56 219 1
56 254 1
56 278 1
56 284 1
56 315 1
56 316 1
56 341 1
56 348 1
56 379 1
56 380 1
56 988 1
56 989 1
56 990 1
56 1020 1
56 1022 1
57 26 1
57 87 1
57 88 1
57 93 1
57 94 1
57 96 1
57 125 1
57 126 1
57 152 1
57 153 1
57 154 1
57 158 1
57 189 1
57 190 1
57 221 1
57 256 1
57 280 1
57 286 1
57 317 1
57 318 1
57 343 1
57 350 1
57 381 1
57 382 1
57 990 1
57 991 1
57 992 1
57 1022 1
57 1024 1
58 28 1
58 89 1
58 90 1
58 95 1
58 96 1
58 98 1
58 127 1
58 128 1
58 130 1
58 154 1
58 155 1
58 156 1
58 160 1
58 191 1
58 192 1
58 223 1
58 282 1
58 288 1
58 319 1
58 320 1
58 345 1
58 352 1
58 383 1
58 384 1
58 898 1
58 992 1
58 993 1
58 994 1
58 1024 1
59 1 1
59 2 1
59 30 1
59 91 1
59 92 1
59 97 1
59 98 1
59 100 1
59 132 1
59 156 1
59 157 1
59 158 1
59 162 1
59 193 1
59 194 1
59 225 1
59 257 1
59 258 1
59 284 1
59 290 1
59 321 1
59 322 1
59 347 1
59 354 1
59 898 1
59 900 1
59 994 1
59 995 1
59 996 1
60 3 1
60 4 1
60 32 1
60 93 1
60 94 1
60 99 1
60 100 1
60 102 1
60 134 1
60 158 1
60 159 1
60 160 1
60 164 1
60 195 1
60 196 1
60 227 1
60 259 1
60 260 1
60 286 1
60 292 1
60 323 1
60 324 1
60 349 1
60 356 1
60 900 1
60 902 1
60 996 1
60 997 1
60 998 1
61 5 1
61 6 1
61 34 1
61 95 1
61 96 1
61 101 1
61 102 1
61 104 1
61 136 1
61 160 1
61 161 1
61 162 1
61 166 1
61 197 1
61 198 1
61 229 1
61 261 1
61 262 1
61 288 1
61 294 1
61 325 1
61 326 1
61 351 1
61 358 1
61 902 1
61 904 1
61 998 1
61 999 1
61 1000 1
62 7 1
62 8 1
62 36 1
62 97 1
62 98 1
62 103 1
62 104 1
62 106 1
62 138 1
62 162 1
62 163 1
62 164 1
62 168 1
62 199 1
62 200 1
62 231 1
62 263 1
62 264 1
62 290 1
62 296 1
62 327 1
62 328 1
62 353 1
62 360 1
62 904 1
62 906 1
62 1000 1
62 1001 1
62 1002 1
63 9 1
63 10 1
63 38 1
63 99 1
63 100 1
63 105 1
63 106 1
63 108 1
63 140 1
63 164 1
63 165 1
63 166 1
63 170 1
63 201 1
63 202 1
63 233 1
63 265 1
63 266 1
63 292 1
63 298 1
63 329 1
63 330 1
63 355 1
63 362 1
63 906 1
63 908 1
63 1002 1
63 1003 1
63 1004 1
64 11 1
64 12 1
64 40 1
64 101 1
64 102 1
64 107 1
64 108 1
64 110 1
64 142 1
64 166 1
64 167 1
64 168 1
64 172 1
64 203 1
64 204 1
64 235 1
64 267 1
64 268 1
64 294 1
64 300 1
64 331 1
64 332 1
64 357 1
64 364 1
64 908 1
64 910 1
64 1004 1
64 1005 1
64 1006 1
65 13 1
65 41 1
65 42 1
65 103 1
65 109 1
65 111 1
65 112 1
65 143 1
65 144 1
65 167 1
65 168 1
65 169 1
65 173 1
65 174 1
65 205 1
65 238 1
65 269 1
65 295 1
65 296 1
65 301 1
65 302 1
65 333 1
65 360 1
65 365 1
65 366 1
65 909 1
65 910 1
65 911 1
65 912 1
65 1005 1
65 1006 1
65 1007 1
66 15 1
66 43 1
66 44 1
66 105 1
66 111 1
66 113 1
66 114 1
66 145 1
66 146 1
66 169 1
66 170 1
66 171 1
66 175 1
66 176 1
66 207 1
66 240 1
66 271 1
66 297 1
66 298 1
66 303 1
66 304 1
66 335 1
66 362 1
66 367 1
66 368 1
66 911 1
66 912 1
66 913 1
66 914 1
66 1007 1
66 1008 1
66 1009 1
67 17 1
67 45 1
67 46 1
67 107 1
67 113 1
67 115 1
67 116 1
67 147 1
67 148 1
67 171 1
67 172 1
67 173 1
67 177 1
67 178 1
67 209 1
67 242 1
67 273 1
67 299 1
67 300 1
67 305 1
67 306 1
67 337 1
67 364 1
67 369 1
67 370 1
67 913 1
67 914 1
67 915 1
67 916 1
67 1009 1
67 1010 1
67 1011 1
68 19 1
68 47 1
68 48 1
68 109 1
68 115 1
68 117 1
68 118 1
68 149 1
68 150 1
68 173 1
68 174 1
68 175 1
68 179 1
68 180 1
68 211 1
68 244 1
68 275 1
68 301 1
68 302 1
68 307 1
68 308 1
68 339 1
68 366 1
68 371 1
68 372 1
68 915 1
68 916 1
68 917 1
68 918 1
68 1011 1
68 1012 1
68 1013 1
69 21 1
69 49 1
69 50 1
69 111 1
69 117 1
69 119 1
69 120 1
69 151 1
69 152 1
69 175 1
69 176 1
69 177 1
69 181 1
69 182 1
69 213 1
69 246 1
69 277 1
69 303 1
69 304 1
69 309 1
69 310 1
69 341 1
69 368 1
69 373 1
69 374 1
69 917 1
69 918 1
69 919 1
69 920 1
69 1013 1
69 1014 1
69 1015 1
70 23 1
70 51 1
70 52 1
70 113 1
70 119 1
70 121 1
70 122 1
70 153 1
70 154 1
70 177 1
70 178 1
70 179 1
70 183 1
70 184 1
70 215 1
70 248 1
70 279 1
70 305 1
70 306 1
70 311 1
70 312 1
70 343 1
70 370 1
70 375 1
70 376 1
70 919 1
70 920 1
70 921 1
70 922 1
70 1015 1
70 1016 1
70 1017 1
71 25 1
71 53 1
71 54 1
71 115 1
71 121 1
71 123 1
71 124 1
71 155 1
71 156 1
71 179 1
71 180 1
71 181 1
71 185 1
71 186 1
71 217 1
71 250 1
71 281 1
71 307 1
71 308 1
71 313 1
71 314 1
71 345 1
71 372 1
71 377 1
71 378 1
71 921 1
71 922 1
71 923 1
71 924 1
71 1017 1
71 1018 1
71 1019 1
72 27 1
72 55 1
72 56 1
72 117 1
72 123 1
72 125 1
72 126 1
72 157 1
72 158 1
72 181 1
72 182 1
72 183 1
72 187 1
72 188 1
72 219 1
72 252 1
72 283 1
72 309 1
72 310 1
72 315 1
72 316 1
72 347 1
72 374 1
72 379 1
72 380 1
72 923 1
72 924 1
72 925 1
72 926 1
72 1019 1
72 1020 1
72 1021 1
73 29 1
73 57 1
73 58 1
73 119 1
73 125 1
73 127 1
73 128 1
73 159 1
73 160 1
73 183 1
73 184 1
73 185 1
73 189 1
73 190 1
73 221 1
73 254 1
73 285 1
73 311 1
73 312 1
73 317 1
73 318 1
73 349 1
73 376 1
73 381 1
73 382 1
73 925 1
73 926 1
73 927 1
73 928 1
73 1021 1
73 1022 1
73 1023 1
74 1 1
74 2 1
74 31 1
74 59 1
74 60 1
74 121 1
74 127 1
74 161 1
74 162 1
74 185 1
74 186 1
74 187 1
74 191 1
74 192 1
74 223 1
74 256 1
74 287 1
74 313 1
74 314 1
74 319 1
74 320 1
74 351 1
74 378 1
74 383 1
74 384 1
74 897 1
74 927 1
74 928 1
74 929 1
74 930 1
74 1023 1
74 1024 1
75 1 1
75 3 1
75 4 1
75 33 1
75 61 1
75 62 1
75 123 1
75 130 1
75 163 1
75 164 1
75 187 1
75 188 1
75 189 1
75 193 1
75 194 1
75 225 1
75 257 1
75 258 1
75 289 1
75 315 1
75 316 1
75 321 1
75 322 1
75 353 1
75 380 1
75 897 1
75 898 1
75 899 1
75 929 1
75 930 1
75 931 1
75 932 1
76 3 1
76 5 1
76 6 1
76 35 1
76 63 1
76 64 1
76 125 1
76 132 1
76 165 1
76 166 1
76 189 1
76 190 1
76 191 1
76 195 1
76 196 1
76 227 1
76 259 1
76 260 1
76 291 1
76 317 1
76 318 1
76 323 1
76 324 1
76 355 1
76 382 1
76 899 1
76 900 1
76 901 1
76 931 1
76 932 1
76 933 1
76 934 1
77 5 1
77 7 1
77 8 1
77 37 1
77 65 1
77 66 1
77 127 1
77 134 1
77 167 1
77 168 1
77 191 1
77 192 1
77 193 1
77 197 1
77 198 1
77 229 1
77 261 1
77 262 1
77 293 1
77 319 1
77 320 1
77 325 1
77 326 1
77 357 1
77 384 1
77 901 1
77 902 1
77 903 1
77 933 1
77 934 1
77 935 1
77 936 1
78 1 1
78 7 1
78 9 1
78 10 1
78 39 1
78 67 1
78 68 1
78 136 1
78 169 1
78 170 1
78 193 1
78 194 1
78 195 1
78 199 1
78 200 1
78 231 1
78 258 1
78 263 1
78 264 1
78 295 1
78 321 1
78 322 1
78 327 1
78 328 1
78 359 1
78 903 1
78 904 1
78 905 1
78 935 1
78 936 1
78 937 1
78 938 1
79 3 1
79 9 1
79 11 1
79 12 1
79 41 1
79 69 1
79 70 1
79 138 1
79 171 1
79 172 1
79 195 1
79 196 1
79 197 1
79 201 1
79 202 1
79 233 1
79 260 1
79 265 1
79 266 1
79 297 1
79 323 1
79 324 1
79 329 1
79 330 1
79 361 1
79 905 1
79 906 1
79 907 1
79 937 1
79 938 1
79 939 1
79 940 1
80 5 1
80 11 1
80 13 1
80 14 1
80 43 1
80 71 1
80 72 1
80 140 1
80 173 1
80 174 1
80 197 1
80 198 1
80 199 1
80 203 1
80 204 1
80 235 1
80 262 1
80 267 1
80 268 1
80 299 1
80 325 1
80 326 1
80 331 1
80 332 1
80 363 1
80 907 1
80 908 1
80 909 1
80 939 1
80 940 1
80 941 1
80 942 1
81 7 1
81 13 1
81 15 1
81 16 1
81 45 1
81 73 1
81 74 1
81 142 1
81 175 1
81 176 1
81 199 1
81 200 1
81 201 1
81 205 1
81 206 1
81 237 1
81 264 1
81 269 1
81 270 1
81 301 1
81 327 1
81 328 1
81 333 1
81 334 1
81 365 1
81 909 1
81 910 1
81 911 1
81 941 1
81 942 1
81 943 1
81 944 1
82 9 1
82 15 1
82 17 1
82 18 1
82 47 1
82 75 1
82 76 1
82 144 1
82 177 1
82 178 1
82 201 1
82 202 1
82 203 1
82 207 1
82 208 1
82 239 1
82 266 1
82 271 1
82 272 1
82 303 1
82 329 1
82 330 1
82 335 1
82 336 1
82 367 1
82 911 1
82 912 1
82 913 1
82 943 1
82 944 1
82 945 1
82 946 1
83 11 1
83 17 1
83 19 1
83 20 1
83 49 1
83 77 1
83 78 1
83 146 1
83 179 1
83 180 1
83 203 1
83 204 1
83 205 1
83 209 1
83 210 1
83 241 1
83 268 1
83 273 1
83 274 1
83 305 1
83 331 1
83 332 1
83 337 1
83 338 1
83 369 1
83 913 1
83 914 1
83 915 1
83 945 1
83 946 1
83 947 1
83 948 1
84 13 1
84 19 1
84 21 1
84 22 1
84 51 1
84 79 1
84 80 1
84 148 1
84 181 1
84 182 1
84 205 1
84 206 1
84 207 1
84 211 1
84 212 1
84 243 1
84 270 1
84 275 1
84 276 1
84 307 1
84 333 1
84 334 1
84 339 1
84 340 1
84 371 1
84 915 1
84 916 1
84 917 1
84 947 1
84 948 1
84 949 1
84 950 1
85 15 1
85 21 1
85 23 1
85 24 1
85 53 1
85 81 1
85 82 1
85 150 1
85 183 1
85 184 1
85 207 1
85 208 1
85 209 1
85 213 1
85 214 1
85 245 1
85 272 1
85 277 1
85 278 1
85 309 1
85 335 1
85 336 1
85 341 1
85 342 1
85 373 1
85 917 1
85 918 1
85 919 1
85 949 1
85 950 1
85 951 1
85 952 1
86 17 1
86 23 1
86 25 1
86 26 1
86 55 1
86 83 1
86 84 1
86 152 1
86 185 1
86 186 1
86 209 1
86 210 1
86 211 1
86 215 1
86 216 1
86 247 1
86 274 1
86 279 1
86 280 1
86 311 1
86 337 1
86 338 1
86 343 1
86 344 1
86 375 1
86 919 1
86 920 1
86 921 1
86 951 1
86 952 1
86 953 1
86 954 1
87 19 1
87 25 1
87 27 1
87 28 1
87 57 1
87 85 1
87 86 1
87 154 1
87 187 1
87 188 1
87 211 1
87 212 1
87 213 1
87 217 1
87 218 1
87 249 1
87 276 1
87 281 1
87 282 1
87 313 1
87 339 1
87 340 1
87 345 1
87 346 1
87 377 1
87 921 1
87 922 1
87 923 1
87 953 1
87 954 1
87 955 1
87 956 1
88 21 1
88 27 1
88 29 1
88 30 1
88 59 1
88 87 1
88 88 1
88 156 1
88 189 1
88 190 1
88 213 1
88 214 1
88 215 1
88 219 1
88 220 1
88 251 1
88 278 1
88 283 1
88 284 1
88 315 1
88 341 1
88 342 1
88 347 1
88 348 1
88 379 1
88 923 1
88 924 1
88 925 1
88 955 1
88 956 1
88 957 1
88 958 1
89 23 1
89 29 1
89 31 1
89 32 1
89 61 1
89 89 1
89 90 1
89 158 1
89 191 1
89 192 1
89 215 1
89 216 1
89 217 1
89 221 1
89 222 1
89 253 1
89 280 1
89 285 1
89 286 1
89 317 1
89 343 1
89 344 1
89 349 1
89 350 1
89 381 1
89 925 1
89 926 1
89 927 1
89 957 1
89 958 1
89 959 1
89 960 1
90 25 1
90 31 1
90 33 1
90 34 1
90 63 1
90 91 1
90 92 1
90 160 1
90 193 1
90 194 1
90 217 1
90 218 1
90 219 1
90 223 1
90 224 1
90 255 1
90 282 1
90 287 1
90 288 1
90 319 1
90 345 1
90 346 1
90 351 1
90 352 1
90 383 1
90 927 1
90 928 1
90 929 1
90 959 1
90 960 1
90 961 1
90 962 1
91 27 1
91 33 1
91 35 1
91 36 1
91 65 1
91 93 1
91 94 1
91 129 1
91 162 1
91 195 1
91 196 1
91 219 1
91 220 1
91 221 1
91 225 1
91 226 1
91 257 1
91 284 1
91 289 1
91 290 1
91 321 1
91 347 1
91 348 1
91 353 1
91 354 1
91 929 1
91 930 1
91 931 1
91 961 1
91 962 1
91 963 1
91 964 1
92 29 1
92 35 1
92 37 1
92 38 1
92 67 1
92 95 1
92 96 1
92 131 1
92 164 1
92 197 1
92 198 1
92 221 1
92 222 1
92 223 1
92 227 1
92 228 1
92 259 1
92 286 1
92 291 1
92 292 1
92 323 1
92 349 1
92 350 1
92 355 1
92 356 1
92 931 1
92 932 1
92 933 1
92 963 1
92 964 1
92 965 1
92 966 1
93 31 1
93 37 1
93 39 1
93 40 1
93 69 1
93 97 1
93 98 1
93 133 1
93 166 1
93 199 1
93 200 1
93 223 1
93 224 1
93 225 1
93 229 1
93 230 1
93 261 1
93 288 1
93 293 1
93 294 1
93 325 1
93 351 1
93 352 1
93 357 1
93 358 1
93 933 1
93 934 1
93 935 1
93 965 1
93 966 1
93 967 1
93 968 1
94 33 1
94 39 1
94 41 1
94 42 1
94 71 1
94 99 1
94 100 1
94 135 1
94 168 1
94 201 1
94 202 1
94 225 1
94 226 1
94 227 1
94 231 1
94 232 1
94 263 1
94 290 1
94 295 1
94 296 1
94 327 1
94 353 1
94 354 1
94 359 1
94 360 1
94 935 1
94 936 1
94 937 1
94 967 1
94 968 1
94 969 1
94 970 1
95 35 1
95 41 1
95 43 1
95 44 1
95 73 1
95 101 1
95 102 1
95 137 1
95 170 1
95 203 1
95 204 1
95 227 1
95 228 1
95 229 1
95 233 1
95 234 1
95 265 1
95 292 1
95 297 1
95 298 1
95 329 1
95 355 1
95 356 1
95 361 1
95 362 1
95 937 1
95 938 1
95 939 1
95 969 1
95 970 1
95 971 1
95 972 1
96 37 1
96 43 1
96 45 1
96 46 1
96 75 1
96 103 1
96 104 1
96 139 1
96 172 1
96 205 1
96 206 1
96 229 1
96 230 1
96 231 1
96 235 1
96 236 1
96 267 1
96 294 1
96 299 1
96 300 1
96 331 1
96 357 1
96 358 1
96 363 1
96 364 1
96 939 1
96 940 1
96 941 1
96 971 1
96 972 1
96 973 1
96 974 1
97 39 1
97 45 1
97 47 1
97 48 1
97 77 1
97 105 1
97 106 1
97 141 1
97 174 1
97 207 1
97 208 1
97 231 1
97 232 1
97 233 1
97 237 1
97 238 1
97 269 1
97 296 1
97 301 1
97 302 1
97 333 1
97 359 1
97 360 1
97 365 1
97 366 1
97 941 1
97 942 1
97 943 1
97 973 1
97 974 1
97 975 1
97 976 1
98 41 1
98 47 1
98 49 1
98 50 1
98 79 1
98 107 1
98 108 1
98 143 1
98 176 1
98 209 1
98 210 1
98 233 1
98 234 1
98 235 1
98 239 1
98 240 1
98 271 1
98 298 1
98 303 1
98 304 1
98 335 1
98 361 1
98 362 1
98 367 1
98 368 1
98 943 1
98 944 1
98 945 1
98 975 1
98 976 1
98 977 1
98 978 1
99 43 1
99 49 1
99 51 1
99 52 1
99 81 1
99 109 1
99 110 1
99 145 1
99 178 1
99 211 1
99 212 1
99 235 1
99 236 1
99 237 1
99 241 1
99 242 1
99 273 1
99 300 1
99 305 1
99 306 1
99 337 1
99 363 1
99 364 1
99 369 1
99 370 1
99 945 1
99 946 1
99 947 1
99 977 1
99 978 1
99 979 1
99 980 1
100 45 1
100 51 1
100 53 1
100 54 1
100 83 1
100 111 1
100 112 1
100 147 1
100 180 1
100 213 1
100 214 1
100 237 1
100 238 1
100 239 1
100 243 1
100 244 1
100 275 1
100 302 1
100 307 1
100 308 1
100 339 1
100 365 1
100 366 1
100 371 1
100 372 1
100 947 1
100 948 1
100 949 1
100 979 1
100 980 1
100 981 1
100 982 1
101 47 1
101 53 1
101 55 1
101 56 1
101 85 1
101 113 1
101 114 1
101 149 1
101 182 1
101 215 1
101 216 1
101 239 1
101 240 1
101 241 1
101 245 1
101 246 1
101 277 1
101 304 1
101 309 1
101 310 1
101 341 1
101 367 1
101 368 1
101 373 1
101 374 1
101 949 1
101 950 1
101 951 1
101 981 1
101 982 1
101 983 1
101 984 1
102 49 1
102 55 1
102 57 1
102 58 1
102 87 1
102 115 1
102 116 1
102 151 1
102 184 1
102 217 1
102 218 1
102 241 1
102 242 1
102 243 1
102 247 1
102 248 1
102 279 1
102 306 1
102 311 1
102 312 1
102 343 1
102 369 1
102 370 1
102 375 1
102 376 1
102 951 1
102 952 1
102 953 1
102 983 1
102 984 1
102 985 1
102 986 1
103 51 1
103 57 1
103 59 1
103 60 1
103 89 1
103 117 1
103 118 1
103 153 1
103 186 1
103 219 1
103 220 1
103 243 1
103 244 1
103 245 1
103 249 1
103 250 1
103 281 1
103 308 1
103 313 1
103 314 1
103 345 1
103 371 1
103 372 1
103 377 1
103 378 1
103 953 1
103 954 1
103 955 1
103 985 1
103 986 1
103 987 1
103 988 1
104 53 1
104 59 1
104 61 1
104 62 1
104 91 1
104 119 1
104 120 1
104 155 1
104 188 1
104 221 1
104 222 1
104 245 1
104 246 1
104 247 1
104 251 1
104 252 1
104 283 1
104 310 1
104 315 1
104 316 1
104 347 1
104 373 1
104 374 1
104 379 1
104 380 1
104 955 1
104 956 1
104 957 1
104 987 1
104 988 1
104 989 1
104 990 1
105 55 1
105 61 1
105 63 1
105 64 1
105 93 1
105 121 1
105 122 1
105 157 1
105 190 1
105 223 1
105 224 1
105 247 1
105 248 1
105 249 1
105 253 1
105 254 1
105 285 1
105 312 1
105 317 1
105 318 1
105 349 1
105 375 1
105 376 1
105 381 1
105 382 1
105 957 1
105 958 1
105 959 1
105 989 1
105 990 1
105 991 1
105 992 1
106 57 1
106 63 1
106 65 1
106 66 1
106 95 1
106 123 1
106 124 1
106 159 1
106 192 1
106 225 1
106 226 1
106 249 1
106 250 1
106 251 1
106 255 1
106 256 1
106 287 1
106 314 1
106 319 1
106 320 1
106 351 1
106 377 1
106 378 1
106 383 1
106 384 1
106 959 1
106 960 1
106 961 1
106 991 1
106 992 1
106 993 1
106 994 1
107 59 1
107 65 1
107 67 1
107 68 1
107 97 1
107 125 1
107 126 1
107 129 1
107 130 1
107 161 1
107 194 1
107 227 1
107 228 1
107 251 1
107 252 1
107 253 1
107 257 1
107 258 1
107 289 1
107 316 1
107 321 1
107 322 1
107 353 1
107 379 1
107 380 1
107 961 1
107 962 1
107 963 1
107 993 1
107 994 1
107 995 1
107 996 1
108 61 1
108 67 1
108 69 1
108 70 1
108 99 1
108 127 1
108 128 1
108 131 1
108 132 1
108 163 1
108 196 1
108 229 1
108 230 1
108 253 1
108 254 1
108 255 1
108 259 1
108 260 1
108 291 1
108 318 1
108 323 1
108 324 1
108 355 1
108 381 1
108 382 1
108 963 1
108 964 1
108 965 1
108 995 1
108 996 1
108 997 1
108 998 1
109 1 1
109 2 1
109 63 1
109 69 1
109 71 1
109 72 1
109 101 1
109 129 1
109 133 1
109 134 1
109 165 1
109 198 1
109 231 1
109 232 1
109 255 1
109 256 1
109 261 1
109 262 1
109 293 1
109 320 1
109 325 1
109 326 1
109 357 1
109 383 1
109 384 1
109 965 1
109 966 1
109 967 1
109 997 1
109 998 1
109 999 1
109 1000 1
110 3 1
110 4 1
110 65 1
110 71 1
110 73 1
110 74 1
110 103 1
110 129 1
110 130 1
110 131 1
110 135 1
110 136 1
110 167 1
110 200 1
110 233 1
110 234 1
110 257 1
110 258 1
110 263 1
110 264 1
110 295 1
110 322 1
110 327 1
110 328 1
110 359 1
110 967 1
110 968 1
110 969 1
110 999 1
110 1000 1
110 1001 1
110 1002 1
111 5 1
111 6 1
111 67 1
111 73 1
111 75 1
111 76 1
111 105 1
111 131 1
111 132 1
111 133 1
111 137 1
111 138 1
111 169 1
111 202 1
111 235 1
111 236 1
111 259 1
111 260 1
111 265 1
111 266 1
111 297 1
111 324 1
111 329 1
111 330 1
111 361 1
111 969 1
111 970 1
111 971 1
111 1001 1
111 1002 1
111 1003 1
111 1004 1
112 7 1
112 8 1
112 69 1
112 75 1
112 77 1
112 78 1
112 107 1
112 133 1
112 134 1
112 135 1
112 139 1
112 140 1
112 171 1
112 204 1
112 237 1
112 238 1
112 261 1
112 262 1
112 267 1
112 268 1
112 299 1
112 326 1
112 331 1
112 332 1
112 363 1
112 971 1
112 972 1
112 973 1
112 1003 1
112 1004 1
112 1005 1
112 1006 1
113 9 1
113 10 1
113 71 1
113 77 1
113 79 1
113 80 1
113 109 1
113 135 1
113 136 1
113 137 1
113 141 1
113 142 1
113 173 1
113 206 1
113 239 1
113 240 1
113 263 1
113 264 1
113 269 1
113 270 1
113 301 1
113 328 1
113 333 1
113 334 1
113 365 1
113 973 1
113 974 1
113 975 1
113 1005 1
113 1006 1
113 1007 1
113 1008 1
114 11 1
114 12 1
114 73 1
114 79 1
114 81 1
114 82 1
114 111 1
114 137 1
114 138 1
114 139 1
114 143 1
114 144 1
114 175 1
114 208 1
114 241 1
114 242 1
114 265 1
114 266 1
114 271 1
114 272 1
114 303 1
114 330 1
114 335 1
114 336 1
114 367 1
114 975 1
114 976 1
114 977 1
114 1007 1
114 1008 1
114 1009 1
114 1010 1
115 13 1
115 14 1
115 75 1
115 81 1
115 83 1
115 84 1
115 113 1
115 139 1
115 140 1
115 141 1
115 145 1
115 146 1
115 177 1
115 210 1
115 243 1
115 244 1
115 267 1
115 268 1
115 273 1
115 274 1
115 305 1
115 332 1
115 337 1
115 338 1
115 369 1
115 977 1
115 978 1
115 979 1
115 1009 1
115 1010 1
115 1011 1
115 1012 1
116 15 1
116 16 1
116 77 1
116 83 1
116 85 1
116 86 1
116 115 1
116 141 1
116 142 1
116 143 1
116 147 1
116 148 1
116 179 1
116 212 1
116 245 1
116 246 1
116 269 1
116 270 1
116 275 1
116 276 1
116 307 1
116 334 1
116 339 1
116 340 1
116 371 1
116 979 1
116 980 1
116 981 1
116 1011 1
116 1012 1
116 1013 1
116 1014 1
117 17 1
117 18 1
117 79 1
117 85 1
117 87 1
117 88 1
117 117 1
117 143 1
117 144 1
117 145 1
117 149 1
117 150 1
117 181 1
117 214 1
117 247 1
117 248 1
117 271 1
117 272 1
117 277 1
117 278 1
117 309 1
117 336 1
117 341 1
117 342 1
117 373 1
117 981 1
117 982 1
117 983 1
117 1013 1
117 1014 1
117 1015 1
117 1016 1
118 19 1
118 20 1
118 81 1
118 87 1
118 89 1
118 90 1
118 119 1
118 145 1
118 146 1
118 147 1
118 151 1
118 152 1
118 183 1
118 216 1
118 249 1
118 250 1
118 273 1
118 274 1
118 279 1
118 280 1
118 311 1
118 338 1
118 343 1
118 344 1
118 375 1
118 983 1
118 984 1
118 985 1
118 1015 1
118 1016 1
118 1017 1
118 1018 1
119 21 1
119 22 1
119 83 1
119 89 1
119 91 1
119 92 1
119 121 1
119 147 1
119 148 1
119 149 1
119 153 1
119 154 1
119 185 1
119 218 1
119 251 1
119 252 1
119 275 1
119 276 1
119 281 1
119 282 1
119 313 1
119 340 1
119 345 1
119 346 1
119 377 1
119 985 1
119 986 1
119 987 1
119 1017 1
119 1018 1
119 1019 1
119 1020 1
120 23 1
120 24 1
120 85 1
120 91 1
120 93 1
120 94 1
120 123 1
120 149 1
120 150 1
120 151 1
120 155 1
120 156 1
120 187 1
120 220 1
120 253 1
120 254 1
120 277 1
120 278 1
120 283 1
120 284 1
120 315 1
120 342 1
120 347 1
120 348 1
120 379 1
120 987 1
120 988 1
120 989 1
120 1019 1
120 1020 1
120 1021 1
120 1022 1
121 25 1
121 26 1
121 87 1
121 93 1
121 95 1
121 96 1
121 125 1
121 151 1
121 152 1
121 153 1
121 157 1
121 158 1
121 189 1
121 222 1
121 255 1
121 256 1
121 279 1
121 280 1
121 285 1
121 286 1
121 317 1
121 344 1
121 349 1
121 350 1
121 381 1
121 989 1
121 990 1
121 991 1
121 1021 1
121 1022 1
121 1023 1
121 1024 1
122 27 1
122 28 1
122 89 1
122 95 1
122 97 1
122 98 1
122 127 1
122 129 1
122 130 1
122 153 1
122 154 1
122 155 1
122 159 1
122 160 1
122 191 1
122 224 1
122 281 1
122 282 1
122 287 1
122 288 1
122 319 1
122 346 1
122 351 1
122 352 1
122 383 1
122 897 1
122 898 1
122 991 1
122 992 1
122 993 1
122 1023 1
122 1024 1
123 1 1
123 29 1
123 30 1
123 91 1
123 97 1
123 99 1
123 100 1
123 131 1
123 132 1
123 155 1
123 156 1
123 157 1
123 161 1
123 162 1
123 193 1
123 226 1
123 257 1
123 283 1
123 284 1
123 289 1
123 290 1
123 321 1
123 348 1
123 353 1
123 354 1
123 897 1
123 898 1
123 899 1
123 900 1
123 993 1
123 994 1
123 995 1
124 3 1
124 31 1
124 32 1
124 93 1
124 99 1
124 101 1
124 102 1
124 133 1
124 134 1
124 157 1
124 158 1
124 159 1
124 163 1
124 164 1
124 195 1
124 228 1
124 259 1
124 285 1
124 286 1
124 291 1
124 292 1
124 323 1
124 350 1
124 355 1
124 356 1
124 899 1
124 900 1
124 901 1
124 902 1
124 995 1
124 996 1
124 997 1
125 5 1
125 33 1
125 34 1
125 95 1
125 101 1
125 103 1
125 104 1
125 135 1
125 136 1
125 159 1
125 160 1
125 161 1
125 165 1
125 166 1
125 197 1
125 230 1
125 261 1
125 287 1
125 288 1
125 293 1
125 294 1
125 325 1
125 352 1
125 357 1
125 358 1
125 901 1
125 902 1
125 903 1
125 904 1
125 997 1
125 998 1
125 999 1
126 7 1
126 35 1
126 36 1
126 97 1
126 103 1
126 105 1
126 106 1
126 137 1
126 138 1
126 161 1
126 162 1
126 163 1
126 167 1
126 168 1
126 199 1
126 232 1
126 263 1
126 289 1
126 290 1
126 295 1
126 296 1
126 327 1
126 354 1
126 359 1
126 360 1
126 903 1
126 904 1
126 905 1
126 906 1
126 999 1
126 1000 1
126 1001 1
127 9 1
127 37 1
127 38 1
127 99 1
127 105 1
127 107 1
127 108 1
127 139 1
127 140 1
127 163 1
127 164 1
127 165 1
127 169 1
127 170 1
127 201 1
127 234 1
127 265 1
127 291 1
127 292 1
127 297 1
127 298 1
127 329 1
127 356 1
127 361 1
127 362 1
127 905 1
127 906 1
127 907 1
127 908 1
127 1001 1
127 1002 1
127 1003 1
128 11 1
128 39 1
128 40 1
128 101 1
128 107 1
128 109 1
128 110 1
128 141 1
128 142 1
128 165 1
128 166 1
128 167 1
128 171 1
128 172 1
128 203 1
128 236 1
128 267 1
128 293 1
128 294 1
128 299 1
128 300 1
128 331 1
128 358 1
128 363 1
128 364 1
128 907 1
128 908 1
128 909 1
128 910 1
128 1003 1
128 1004 1
128 1005 1
129 7 1
129 13 1
129 25 1
129 40 1
129 95 1
129 104 1
129 136 1
129 154 1
129 167 1
129 173 1
129 231 1
129 255 1
129 782 1
129 807 1
129 813 1
129 846 1
129 871 1
129 872 1
129 877 1
129 935 1
129 936 1
129 974 1
129 992 1
129 999 1
129 1005 1
129 1023 1
130 9 1
130 15 1
130 27 1
130 42 1
130 97 1
130 106 1
130 129 1
130 138 1
130 156 1
130 169 1
130 175 1
130 233 1
130 784 1
130 809 1
130 815 1
130 848 1
130 873 1
130 874 1
130 879 1
130 897 1
130 937 1
130 938 1
130 976 1
130 994 1
130 1001 1
130 1007 1
131 11 1
131 17 1
131 29 1
131 44 1
131 99 1
131 108 1
131 131 1
131 140 1
131 158 1
131 171 1
131 177 1
131 235 1
131 786 1
131 811 1
131 817 1
131 850 1
131 875 1
131 876 1
131 881 1
131 899 1
131 939 1
131 940 1
131 978 1
131 996 1
131 1003 1
131 1009 1
132 13 1
132 19 1
132 31 1
132 46 1
132 101 1
132 110 1
132 133 1
132 142 1
132 160 1
132 173 1
132 179 1
132 237 1
132 788 1
132 813 1
132 819 1
132 852 1
132 877 1
132 878 1
132 883 1
132 901 1
132 941 1
132 942 1
132 980 1
132 998 1
132 1005 1
132 1011 1
133 15 1
133 21 1
133 33 1
133 48 1
133 103 1
133 112 1
133 135 1
133 144 1
133 162 1
133 175 1
133 181 1
133 239 1
133 790 1
133 815 1
133 821 1
133 854 1
133 879 1
133 880 1
133 885 1
133 903 1
133 943 1
133 944 1
133 982 1
133 1000 1
133 1007 1
133 1013 1
134 17 1
134 23 1
134 35 1
134 50 1
134 105 1
134 114 1
134 137 1
134 146 1
134 164 1
134 177 1
134 183 1
134 241 1
134 792 1
134 817 1
134 823 1
134 856 1
134 881 1
134 882 1
134 887 1
134 905 1
134 945 1
134 946 1
134 984 1
134 1002 1
134 1009 1
134 1015 1
135 19 1
135 25 1
135 37 1
135 52 1
135 107 1
135 116 1
135 139 1
135 148 1
135 166 1
135 179 1
135 185 1
135 243 1
135 794 1
135 819 1
135 825 1
135 858 1
135 883 1
135 884 1
135 889 1
135 907 1
135 947 1
135 948 1
135 986 1
135 1004 1
135 1011 1
135 1017 1
136 21 1
136 27 1
136 39 1
136 54 1
136 109 1
136 118 1
136 141 1
136 150 1
136 168 1
136 181 1
136 187 1
136 245 1
136 796 1
136 821 1
136 827 1
136 860 1
136 885 1
136 886 1
136 891 1
136 909 1
136 949 1
136 950 1
136 988 1
136 1006 1
136 1013 1
136 1019 1
137 23 1
137 29 1
137 41 1
137 56 1
137 111 1
137 120 1
137 143 1
137 152 1
137 170 1
137 183 1
137 189 1
137 247 1
137 798 1
137 823 1
137 829 1
137 862 1
137 887 1
137 888 1
137 893 1
137 911 1
137 951 1
137 952 1
137 990 1
137 1008 1
137 1015 1
137 1021 1
138 25 1
138 31 1
138 43 1
138 58 1
138 113 1
138 122 1
138 145 1
138 154 1
138 172 1
138 185 1
138 191 1
138 249 1
138 800 1
138 825 1
138 831 1
138 864 1
138 889 1
138 890 1
138 895 1
138 913 1
138 953 1
138 954 1
138 992 1
138 1010 1
138 1017 1
138 1023 1
139 27 1
139 33 1
139 45 1
139 60 1
139 115 1
139 124 1
139 147 1
139 156 1
139 174 1
139 187 1
139 193 1
139 251 1
139 769 1
139 802 1
139 827 1
139 833 1
139 866 1
139 891 1
139 892 1
139 897 1
139 915 1
139 955 1
139 956 1
139 994 1
139 1012 1
139 1019 1
140 29 1
140 35 1
140 47 1
140 62 1
140 117 1
140 126 1
140 149 1
140 158 1
140 176 1
140 189 1
140 195 1
140 253 1
140 771 1
140 804 1
140 829 1
140 835 1
140 868 1
140 893 1
140 894 1
140 899 1
140 917 1
140 957 1
140 958 1
140 996 1
140 1014 1
140 1021 1
141 31 1
141 37 1
141 49 1
141 64 1
141 119 1
141 128 1
141 151 1
141 160 1
141 178 1
141 191 1
141 197 1
141 255 1
141 773 1
141 806 1
141 831 1
141 837 1
141 870 1
141 895 1
141 896 1
141 901 1
141 919 1
141 959 1
141 960 1
141 998 1
141 1016 1
141 1023 1
142 2 1
142 33 1
142 39 1
142 51 1
142 66 1
142 121 1
142 129 1
142 153 1
142 162 1
142 180 1
142 193 1
142 199 1
142 769 1
142 770 1
142 775 1
142 808 1
142 833 1
142 839 1
142 872 1
142 897 1
142 903 1
142 921 1
142 961 1
142 962 1
142 1000 1
142 1018 1
143 4 1
143 35 1
143 41 1
143 53 1
143 68 1
143 123 1
143 131 1
143 155 1
143 164 1
143 182 1
143 195 1
143 201 1
143 771 1
143 772 1
143 777 1
143 810 1
143 835 1
143 841 1
143 874 1
143 899 1
143 905 1
143 923 1
143 963 1
143 964 1
143 1002 1
143 1020 1
144 6 1
144 37 1
144 43 1
144 55 1
144 70 1
144 125 1
144 133 1
144 157 1
144 166 1
144 184 1
144 197 1
144 203 1
144 773 1
144 774 1
144 779 1
144 812 1
144 837 1
144 843 1
144 876 1
144 901 1
144 907 1
144 925 1
144 965 1
144 966 1
144 1004 1
144 1022 1
145 8 1
145 39 1
145 45 1
145 57 1
145 72 1
145 127 1
145 135 1
145 159 1
145 168 1
145 186 1
145 199 1
145 205 1
145 775 1
145 776 1
145 781 1
145 814 1
145 839 1
145 845 1
145 878 1
145 903 1
145 909 1
145 927 1
145 967 1
145 968 1
145 1006 1
145 1024 1
146 1 1
146 10 1
146 41 1
146 47 1
146 59 1
146 74 1
146 137 1
146 161 1
146 170 1
146 188 1
146 201 1
146 207 1
146 777 1
146 778 1
146 783 1
146 816 1
146 841 1
146 847 1
146 880 1
146 898 1
146 905 1
146 911 1
146 929 1
146 969 1
146 970 1
146 1008 1
147 3 1
147 12 1
147 43 1
147 49 1
147 61 1
147 76 1
147 139 1
147 163 1
147 172 1
147 190 1
147 203 1
147 209 1
147 779 1
147 780 1
147 785 1
147 818 1
147 843 1
147 849 1
147 882 1
147 900 1
147 907 1
147 913 1
147 931 1
147 971 1
147 972 1
147 1010 1
148 5 1
148 14 1
148 45 1
148 51 1
148 63 1
148 78 1
148 141 1
148 165 1
148 174 1
148 192 1
148 205 1
148 211 1
148 781 1
148 782 1
148 787 1
148 820 1
148 845 1
148 851 1
148 884 1
148 902 1
148 909 1
148 915 1
148 933 1
148 973 1
148 974 1
148 1012 1
149 7 1
149 16 1
149 47 1
149 53 1
149 65 1
149 80 1
149 143 1
149 167 1
149 176 1
149 194 1
149 207 1
149 213 1
149 783 1
149 784 1
149 789 1
149 822 1
149 847 1
149 853 1
149 886 1
149 904 1
149 911 1
149 917 1
149 935 1
149 975 1
149 976 1
149 1014 1
150 9 1
150 18 1
150 49 1
150 55 1
150 67 1
150 82 1
150 145 1
150 169 1
150 178 1
150 196 1
150 209 1
150 215 1
150 785 1
150 786 1
150 791 1
150 824 1
150 849 1
150 855 1
150 888 1
150 906 1
150 913 1
150 919 1
150 937 1
150 977 1
150 978 1
150 1016 1
151 11 1
151 20 1
151 51 1
151 57 1
151 69 1
151 84 1
151 147 1
151 171 1
151 180 1
151 198 1
151 211 1
151 217 1
151 787 1
151 788 1
151 793 1
151 826 1
151 851 1
151 857 1
151 890 1
151 908 1
151 915 1
151 921 1
151 939 1
151 979 1
151 980 1
151 1018 1
152 13 1
152 22 1
152 53 1
152 59 1
152 71 1
152 86 1
152 149 1
152 173 1
152 182 1
152 200 1
152 213 1
152 219 1
152 789 1
152 790 1
152 795 1
152 828 1
152 853 1
152 859 1
152 892 1
152 910 1
152 917 1
152 923 1
152 941 1
152 981 1
152 982 1
152 1020 1
153 15 1
153 24 1
153 55 1
153 61 1
153 73 1
153 88 1
153 151 1
153 175 1
153 184 1
153 202 1
153 215 1
153 221 1
153 791 1
153 792 1
153 797 1
153 830 1
153 855 1
153 861 1
153 894 1
153 912 1
153 919 1
153 925 1
153 943 1
153 983 1
153 984 1
153 1022 1
154 17 1
154 26 1
154 57 1
154 63 1
154 75 1
154 90 1
154 153 1
154 177 1
154 186 1
154 204 1
154 217 1
154 223 1
154 793 1
154 794 1
154 799 1
154 832 1
154 857 1
154 863 1
154 896 1
154 914 1
154 921 1
154 927 1
154 945 1
154 985 1
154 986 1
154 1024 1
155 19 1
155 28 1
155 59 1
155 65 1
155 77 1
155 92 1
155 155 1
155 179 1
155 188 1
155 206 1
155 219 1
155 225 1
155 770 1
155 795 1
155 796 1
155 801 1
155 834 1
155 859 1
155 865 1
155 898 1
155 916 1
155 923 1
155 929 1
155 947 1
155 987 1
155 988 1
156 21 1
156 30 1
156 61 1
156 67 1
156 79 1
156 94 1
156 157 1
156 181 1
156 190 1
156 208 1
156 221 1
156 227 1
156 772 1
156 797 1
156 798 1
156 803 1
156 836 1
156 861 1
156 867 1
156 900 1
156 918 1
156 925 1
156 931 1
156 949 1
156 989 1
156 990 1
157 23 1
157 32 1
157 63 1
157 69 1
157 81 1
157 96 1
157 159 1
157 183 1
157 192 1
157 210 1
157 223 1
157 229 1
157 774 1
157 799 1
157 800 1
157 805 1
157 838 1
157 863 1
157 869 1
157 902 1
157 920 1
157 927 1
157 933 1
157 951 1
157 991 1
157 992 1
158 25 1
158 34 1
158 65 1
158 71 1
158 83 1
158 98 1
158 161 1
158 185 1
158 194 1
158 212 1
158 225 1
158 231 1
158 776 1
158 801 1
158 802 1
158 807 1
158 840 1
158 865 1
158 871 1
158 904 1
158 922 1
158 929 1
158 935 1
158 953 1
158 993 1
158 994 1
159 27 1
159 36 1
159 67 1
159 73 1
159 85 1
159 100 1
159 163 1
159 187 1
159 196 1
159 214 1
159 227 1
159 233 1
159 778 1
159 803 1
159 804 1
159 809 1
159 842 1
159 867 1
159 873 1
159 906 1
159 924 1
159 931 1
159 937 1
159 955 1
159 995 1
159 996 1
160 29 1
160 38 1
160 69 1
160 75 1
160 87 1
160 102 1
160 165 1
160 189 1
160 198 1
160 216 1
160 229 1
160 235 1
160 780 1
160 805 1
160 806 1
160 811 1
160 844 1
160 869 1
160 875 1
160 908 1
160 926 1
160 933 1
160 939 1
160 957 1
160 997 1
160 998 1
161 31 1
161 40 1
161 71 1
161 77 1
161 89 1
161 104 1
161 167 1
161 191 1
161 200 1
161 218 1
161 231 1
161 237 1
161 782 1
161 807 1
161 808 1
161 813 1
161 846 1
161 871 1
161 877 1
161 910 1
161 928 1
161 935 1
161 941 1
161 959 1
161 999 1
161 1000 1
162 33 1
162 42 1
162 73 1
162 79 1
162 91 1
162 106 1
162 169 1
162 193 1
162 202 1
162 220 1
162 233 1
162 239 1
162 784 1
162 809 1
162 810 1
162 815 1
162 848 1
162 873 1
162 879 1
162 912 1
162 930 1
162 937 1
162 943 1
162 961 1
162 1001 1
162 1002 1
163 35 1
163 44 1
163 75 1
163 81 1
163 93 1
163 108 1
163 171 1
163 195 1
163 204 1
163 222 1
163 235 1
163 241 1
163 786 1
163 811 1
163 812 1
163 817 1
163 850 1
163 875 1
163 881 1
163 914 1
163 932 1
163 939 1
163 945 1
163 963 1
163 1003 1
163 1004 1
164 37 1
164 46 1
164 77 1
164 83 1
164 95 1
164 110 1
164 173 1
164 197 1
164 206 1
164 224 1
164 237 1
164 243 1
164 788 1
164 813 1
164 814 1
164 819 1
164 852 1
164 877 1
164 883 1
164 916 1
164 934 1
164 941 1
164 947 1
164 965 1
164 1005 1
164 1006 1
165 39 1
165 48 1
165 79 1
165 85 1
165 97 1
165 112 1
165 175 1
165 199 1
165 208 1
165 226 1
165 239 1
165 245 1
165 790 1
165 815 1
165 816 1
165 821 1
165 854 1
165 879 1
165 885 1
165 918 1
165 936 1
165 943 1
165 949 1
165 967 1
165 1007 1
165 1008 1
166 41 1
166 50 1
166 81 1
166 87 1
166 99 1
166 114 1
166 177 1
166 201 1
166 210 1
166 228 1
166 241 1
166 247 1
166 792 1
166 817 1
166 818 1
166 823 1
166 856 1
166 881 1
166 887 1
166 920 1
166 938 1
166 945 1
166 951 1
166 969 1
166 1009 1
166 1010 1
167 43 1
167 52 1
167 83 1
167 89 1
167 101 1
167 116 1
167 179 1
167 203 1
167 212 1
167 230 1
167 243 1
167 249 1
167 794 1
167 819 1
167 820 1
167 825 1
167 858 1
167 883 1
167 889 1
167 922 1
167 940 1
167 947 1
167 953 1
167 971 1
167 1011 1
167 1012 1
168 45 1
168 54 1
168 85 1
168 91 1
168 103 1
168 118 1
168 181 1
168 205 1
168 214 1
168 232 1
168 245 1
168 251 1
168 796 1
168 821 1
168 822 1
168 827 1
168 860 1
168 885 1
168 891 1
168 924 1
168 942 1
168 949 1
168 955 1
168 973 1
168 1013 1
168 1014 1
169 47 1
169 56 1
169 87 1
169 93 1
169 105 1
169 120 1
169 183 1
169 207 1
169 216 1
169 234 1
169 247 1
169 253 1
169 798 1
169 823 1
169 824 1
169 829 1
169 862 1
169 887 1
169 893 1
169 926 1
169 944 1
169 951 1
169 957 1
169 975 1
169 1015 1
169 1016 1
170 49 1
170 58 1
170 89 1
170 95 1
170 107 1
170 122 1
170 185 1
170 209 1
170 218 1
170 236 1
170 249 1
170 255 1
170 800 1
170 825 1
170 826 1
170 831 1
170 864 1
170 889 1
170 895 1
170 928 1
170 946 1
170 953 1
170 959 1
170 977 1
170 1017 1
170 1018 1
171 51 1
171 60 1
171 91 1
171 97 1
171 109 1
171 124 1
171 129 1
171 187 1
171 211 1
171 220 1
171 238 1
171 251 1
171 769 1
171 802 1
171 827 1
171 828 1
171 833 1
171 866 1
171 891 1
171 930 1
171 948 1
171 955 1
171 961 1
171 979 1
171 1019 1
171 1020 1
172 53 1
172 62 1
172 93 1
172 99 1
172 111 1
172 126 1
172 131 1
172 189 1
172 213 1
172 222 1
172 240 1
172 253 1
172 771 1
172 804 1
172 829 1
172 830 1
172 835 1
172 868 1
172 893 1
172 932 1
172 950 1
172 957 1
172 963 1
172 981 1
172 1021 1
172 1022 1
173 55 1
173 64 1
173 95 1
173 101 1
173 113 1
173 128 1
173 133 1
173 191 1
173 215 1
173 224 1
173 242 1
173 255 1
173 773 1
173 806 1
173 831 1
173 832 1
173 837 1
173 870 1
173 895 1
173 934 1
173 952 1
173 959 1
173 965 1
173 983 1
173 1023 1
173 1024 1
174 2 1
174 57 1
174 66 1
174 97 1
174 103 1
174 115 1
174 129 1
174 135 1
174 193 1
174 217 1
174 226 1
174 244 1
174 769 1
174 775 1
174 808 1
174 833 1
174 834 1
174 839 1
174 872 1
174 897 1
174 898 1
174 936 1
174 954 1
174 961 1
174 967 1
174 985 1
175 4 1
175 59 1
175 68 1
175 99 1
175 105 1
175 117 1
175 131 1
175 137 1
175 195 1
175 219 1
175 228 1
175 246 1
175 771 1
175 777 1
175 810 1
175 835 1
175 836 1
175 841 1
175 874 1
175 899 1
175 900 1
175 938 1
175 956 1
175 963 1
175 969 1
175 987 1
176 6 1
176 61 1
176 70 1
176 101 1
176 107 1
176 119 1
176 133 1
176 139 1
176 197 1
176 221 1
176 230 1
176 248 1
176 773 1
176 779 1
176 812 1
176 837 1
176 838 1
176 843 1
176 876 1
176 901 1
176 902 1
176 940 1
176 958 1
176 965 1
176 971 1
176 989 1
177 8 1
177 63 1
177 72 1
177 103 1
177 109 1
177 121 1
177 135 1
177 141 1
177 199 1
177 223 1
177 232 1
177 250 1
177 775 1
177 781 1
177 814 1
177 839 1
177 840 1
177 845 1
177 878 1
177 903 1
177 904 1
177 942 1
177 960 1
177 967 1
177 973 1
177 991 1
178 10 1
178 65 1
178 74 1
178 105 1
178 111 1
178 123 1
178 137 1
178 143 1
178 201 1
178 225 1
178 234 1
178 252 1
178 777 1
178 783 1
178 816 1
178 841 1
178 842 1
178 847 1
178 880 1
178 905 1
178 906 1
178 944 1
178 962 1
178 969 1
178 975 1
178 993 1
179 12 1
179 67 1
179 76 1
179 107 1
179 113 1
179 125 1
179 139 1
179 145 1
179 203 1
179 227 1
179 236 1
179 254 1
179 779 1
179 785 1
179 818 1
179 843 1
179 844 1
179 849 1
179 882 1
179 907 1
179 908 1
179 946 1
179 964 1
179 971 1
179 977 1
179 995 1
180 14 1
180 69 1
180 78 1
180 109 1
180 115 1
180 127 1
180 141 1
180 147 1
180 205 1
180 229 1
180 238 1
180 256 1
180 781 1
180 787 1
180 820 1
180 845 1
180 846 1
180 851 1
180 884 1
180 909 1
180 910 1
180 948 1
180 966 1
180 973 1
180 979 1
180 997 1
181 1 1
181 16 1
181 71 1
181 80 1
181 111 1
181 117 1
181 130 1
181 143 1
181 149 1
181 207 1
181 231 1
181 240 1
181 783 1
181 789 1
181 822 1
181 847 1
181 848 1
181 853 1
181 886 1
181 911 1
181 912 1
181 950 1
181 968 1
181 975 1
181 981 1
181 999 1
182 3 1
182 18 1
182 73 1
182 82 1
182 113 1
182 119 1
182 132 1
182 145 1
182 151 1
182 209 1
182 233 1
182 242 1
182 785 1
182 791 1
182 824 1
182 849 1
182 850 1
182 855 1
182 888 1
182 913 1
182 914 1
182 952 1
182 970 1
182 977 1
182 983 1
182 1001 1
183 5 1
183 20 1
183 75 1
183 84 1
183 115 1
183 121 1
183 134 1
183 147 1
183 153 1
183 211 1
183 235 1
183 244 1
183 787 1
183 793 1
183 826 1
183 851 1
183 852 1
183 857 1
183 890 1
183 915 1
183 916 1
183 954 1
183 972 1
183 979 1
183 985 1
183 1003 1
184 7 1
184 22 1
184 77 1
184 86 1
184 117 1
184 123 1
184 136 1
184 149 1
184 155 1
184 213 1
184 237 1
184 246 1
184 789 1
184 795 1
184 828 1
184 853 1
184 854 1
184 859 1
184 892 1
184 917 1
184 918 1
184 956 1
184 974 1
184 981 1
184 987 1
184 1005 1
185 9 1
185 24 1
185 79 1
185 88 1
185 119 1
185 125 1
185 138 1
185 151 1
185 157 1
185 215 1
185 239 1
185 248 1
185 791 1
185 797 1
185 830 1
185 855 1
185 856 1
185 861 1
185 894 1
185 919 1
185 920 1
185 958 1
185 976 1
185 983 1
185 989 1
185 1007 1
186 11 1
186 26 1
186 81 1
186 90 1
186 121 1
186 127 1
186 140 1
186 153 1
186 159 1
186 217 1
186 241 1
186 250 1
186 793 1
186 799 1
186 832 1
186 857 1
186 858 1
186 863 1
186 896 1
186 921 1
186 922 1
186 960 1
186 978 1
186 985 1
186 991 1
186 1009 1
187 1 1
187 13 1
187 28 1
187 83 1
187 92 1
187 123 1
187 142 1
187 155 1
187 161 1
187 219 1
187 243 1
187 252 1
187 770 1
187 795 1
187 801 1
187 834 1
187 859 1
187 860 1
187 865 1
187 923 1
187 924 1
187 962 1
187 980 1
187 987 1
187 993 1
187 1011 1
188 3 1
188 15 1
188 30 1
188 85 1
188 94 1
188 125 1
188 144 1
188 157 1
188 163 1
188 221 1
188 245 1
188 254 1
188 772 1
188 797 1
188 803 1
188 836 1
188 861 1
188 862 1
188 867 1
188 925 1
188 926 1
188 964 1
188 982 1
188 989 1
188 995 1
188 1013 1
189 5 1
189 17 1
189 32 1
189 87 1
189 96 1
189 127 1
189 146 1
189 159 1
189 165 1
189 223 1
189 247 1
189 256 1
189 774 1
189 799 1
189 805 1
189 838 1
189 863 1
189 864 1
189 869 1
189 927 1
189 928 1
189 966 1
189 984 1
189 991 1
189 997 1
189 1015 1
190 1 1
190 7 1
190 19 1
190 34 1
190 89 1
190 98 1
190 130 1
190 148 1
190 161 1
190 167 1
190 225 1
190 249 1
190 776 1
190 801 1
190 807 1
190 840 1
190 865 1
190 866 1
190 871 1
190 929 1
190 930 1
190 968 1
190 986 1
190 993 1
190 999 1
190 1017 1
191 3 1
191 9 1
191 21 1
191 36 1
191 91 1
191 100 1
191 132 1
191 150 1
191 163 1
191 169 1
191 227 1
191 251 1
191 778 1
191 803 1
191 809 1
191 842 1
191 867 1
191 868 1
191 873 1
191 931 1
191 932 1
191 970 1
191 988 1
191 995 1
191 1001 1
191 1019 1
192 5 1
192 11 1
192 23 1
192 38 1
192 93 1
192 102 1
192 134 1
192 152 1
192 165 1
192 171 1
192 229 1
192 253 1
192 780 1
192 805 1
192 811 1
192 844 1
192 869 1
192 870 1
192 875 1
192 933 1
192 934 1
192 972 1
192 990 1
192 997 1
192 1003 1
192 1021 1
193 8 1
193 14 1
193 26 1
193 39 1
193 40 1
193 96 1
193 103 1
193 104 1
193 135 1
193 136 1
193 153 1
193 154 1
193 168 1
193 174 1
193 232 1
193 256 1
193 781 1
193 782 1
193 808 1
193 814 1
193 845 1
193 846 1
193 871 1
193 878 1
193 935 1
193 973 1
193 974 1
193 991 1
193 992 1
193 1000 1
193 1006 1
193 1024 1
194 10 1
194 16 1
194 28 1
194 41 1
194 42 1
194 98 1
194 105 1
194 106 1
194 130 1
194 137 1
194 138 1
194 155 1
194 156 1
194 170 1
194 176 1
194 234 1
194 783 1
194 784 1
194 810 1
194 816 1
194 847 1
194 848 1
194 873 1
194 880 1
194 898 1
194 937 1
194 975 1
194 976 1
194 993 1
194 994 1
194 1002 1
194 1008 1
195 12 1
195 18 1
195 30 1
195 43 1
195 44 1
195 100 1
195 107 1
195 108 1
195 132 1
195 139 1
195 140 1
195 157 1
195 158 1
195 172 1
195 178 1
195 236 1
195 785 1
195 786 1
195 812 1
195 818 1
195 849 1
195 850 1
195 875 1
195 882 1
195 900 1
195 939 1
195 977 1
195 978 1
195 995 1
195 996 1
195 1004 1
195 1010 1
196 14 1
196 20 1
196 32 1
196 45 1
196 46 1
196 102 1
196 109 1
196 110 1
196 134 1
196 141 1
196 142 1
196 159 1
196 160 1
196 174 1
196 180 1
196 238 1
196 787 1
196 788 1
196 814 1
196 820 1
196 851 1
196 852 1
196 877 1
196 884 1
196 902 1
196 941 1
196 979 1
196 980 1
196 997 1
196 998 1
196 1006 1
196 1012 1
197 16 1
197 22 1
197 34 1
197 47 1
197 48 1
197 104 1
197 111 1
197 112 1
197 136 1
197 143 1
197 144 1
197 161 1
197 162 1
197 176 1
197 182 1
197 240 1
197 789 1
197 790 1
197 816 1
197 822 1
197 853 1
197 854 1
197 879 1
197 886 1
197 904 1
197 943 1
197 981 1
197 982 1
197 999 1
197 1000 1
197 1008 1
197 1014 1
198 18 1
198 24 1
198 36 1
198 49 1
198 50 1
198 106 1
198 113 1
198 114 1
198 138 1
198 145 1
198 146 1
198 163 1
198 164 1
198 178 1
198 184 1
198 242 1
198 791 1
198 792 1
198 818 1
198 824 1
198 855 1
198 856 1
198 881 1
198 888 1
198 906 1
198 945 1
198 983 1
198 984 1
198 1001 1
198 1002 1
198 1010 1
198 1016 1
199 20 1
199 26 1
199 38 1
199 51 1
199 52 1
199 108 1
199 115 1
199 116 1
199 140 1
199 147 1
199 148 1
199 165 1
199 166 1
199 180 1
199 186 1
199 244 1
199 793 1
199 794 1
199 820 1
199 826 1
199 857 1
199 858 1
199 883 1
199 890 1
199 908 1
199 947 1
199 985 1
199 986 1
199 1003 1
199 1004 1
199 1012 1
199 1018 1
200 22 1
200 28 1
200 40 1
200 53 1
200 54 1
200 110 1
200 117 1
200 118 1
200 142 1
200 149 1
200 150 1
200 167 1
200 168 1
200 182 1
200 188 1
200 246 1
200 795 1
200 796 1
200 822 1
200 828 1
200 859 1
200 860 1
200 885 1
200 892 1
200 910 1
200 949 1
200 987 1
200 988 1
200 1005 1
200 1006 1
200 1014 1
200 1020 1
201 24 1
201 30 1
201 42 1
201 55 1
201 56 1
201 112 1
201 119 1
201 120 1
201 144 1
201 151 1
201 152 1
201 169 1
201 170 1
201 184 1
201 190 1
201 248 1
201 797 1
201 798 1
201 824 1
201 830 1
201 861 1
201 862 1
201 887 1
201 894 1
201 912 1
201 951 1
201 989 1
201 990 1
201 1007 1
201 1008 1
201 1016 1
201 1022 1
202 26 1
202 32 1
202 44 1
202 57 1
202 58 1
202 114 1
202 121 1
202 122 1
202 146 1
202 153 1
202 154 1
202 171 1
202 172 1
202 186 1
202 192 1
202 250 1
202 799 1
202 800 1
202 826 1
202 832 1
202 863 1
202 864 1
202 889 1
202 896 1
202 914 1
202 953 1
202 991 1
202 992 1
202 1009 1
202 1010 1
202 1018 1
202 1024 1
203 28 1
203 34 1
203 46 1
203 59 1
203 60 1
203 116 1
203 123 1
203 124 1
203 148 1
203 155 1
203 156 1
203 173 1
203 174 1
203 188 1
203 194 1
203 252 1
203 770 1
203 801 1
203 802 1
203 828 1
203 834 1
203 865 1
203 866 1
203 891 1
203 898 1
203 916 1
203 955 1
203 993 1
203 994 1
203 1011 1
203 1012 1
203 1020 1
204 30 1
204 36 1
204 48 1
204 61 1
204 62 1
204 118 1
204 125 1
204 126 1
204 150 1
204 157 1
204 158 1
204 175 1
204 176 1
204 190 1
204 196 1
204 254 1
204 772 1
204 803 1
204 804 1
204 830 1
204 836 1
204 867 1
204 868 1
204 893 1
204 900 1
204 918 1
204 957 1
204 995 1
204 996 1
204 1013 1
204 1014 1
204 1022 1
205 32 1
205 38 1
205 50 1
205 63 1
205 64 1
205 120 1
205 127 1
205 128 1
205 152 1
205 159 1
205 160 1
205 177 1
205 178 1
205 192 1
205 198 1
205 256 1
205 774 1
205 805 1
205 806 1
205 832 1
205 838 1
205 869 1
205 870 1
205 895 1
205 902 1
205 920 1
205 959 1
205 997 1
205 998 1
205 1015 1
205 1016 1
205 1024 1
206 1 1
206 2 1
206 34 1
206 40 1
206 52 1
206 65 1
206 66 1
206 122 1
206 130 1
206 154 1
206 161 1
206 162 1
206 179 1
206 180 1
206 194 1
206 200 1
206 769 1
206 776 1
206 807 1
206 808 1
206 834 1
206 840 1
206 871 1
206 872 1
206 898 1
206 904 1
206 922 1
206 961 1
206 999 1
206 1000 1
206 1017 1
206 1018 1
207 3 1
207 4 1
207 36 1
207 42 1
207 54 1
207 67 1
207 68 1
207 124 1
207 132 1
207 156 1
207 163 1
207 164 1
207 181 1
207 182 1
207 196 1
207 202 1
207 771 1
207 778 1
207 809 1
207 810 1
207 836 1
207 842 1
207 873 1
207 874 1
207 900 1
207 906 1
207 924 1
207 963 1
207 1001 1
207 1002 1
207 1019 1
207 1020 1
208 5 1
208 6 1
208 38 1
208 44 1
208 56 1
208 69 1
208 70 1
208 126 1
208 134 1
208 158 1
208 165 1
208 166 1
208 183 1
208 184 1
208 198 1
208 204 1
208 773 1
208 780 1
208 811 1
208 812 1
208 838 1
208 844 1
208 875 1
208 876 1
208 902 1
208 908 1
208 926 1
208 965 1
208 1003 1
208 1004 1
208 1021 1
208 1022 1
209 7 1
209 8 1
209 40 1
209 46 1
209 58 1
209 71 1
209 72 1
209 128 1
209 136 1
209 160 1
209 167 1
209 168 1
209 185 1
209 186 1
209 200 1
209 206 1
209 775 1
209 782 1
209 813 1
209 814 1
209 840 1
209 846 1
209 877 1
209 878 1
209 904 1
209 910 1
209 928 1
209 967 1
209 1005 1
209 1006 1
209 1023 1
209 1024 1
210 2 1
210 9 1
210 10 1
210 42 1
210 48 1
210 60 1
210 73 1
210 74 1
210 138 1
210 162 1
210 169 1
210 170 1
210 187 1
210 188 1
210 202 1
210 208 1
210 777 1
210 784 1
210 815 1
210 816 1
210 842 1
210 848 1
210 879 1
210 880 1
210 897 1
210 898 1
210 906 1
210 912 1
210 930 1
210 969 1
210 1007 1
210 1008 1
211 4 1
211 11 1
211 12 1
211 44 1
211 50 1
211 62 1
211 75 1
211 76 1
211 140 1
211 164 1
211 171 1
211 172 1
211 189 1
211 190 1
211 204 1
211 210 1
211 779 1
211 786 1
211 817 1
211 818 1
211 844 1
211 850 1
211 881 1
211 882 1
211 899 1
211 900 1
211 908 1
211 914 1
211 932 1
211 971 1
211 1009 1
211 1010 1
212 6 1
212 13 1
212 14 1
212 46 1
212 52 1
212 64 1
212 77 1
212 78 1
212 142 1
212 166 1
212 173 1
212 174 1
212 191 1
212 192 1
212 206 1
212 212 1
212 781 1
212 788 1
212 819 1
212 820 1
212 846 1
212 852 1
212 883 1
212 884 1
212 901 1
212 902 1
212 910 1
212 916 1
212 934 1
212 973 1
212 1011 1
212 1012 1
213 8 1
213 15 1
213 16 1
213 48 1
213 54 1
213 66 1
213 79 1
213 80 1
213 144 1
213 168 1
213 175 1
213 176 1
213 193 1
213 194 1
213 208 1
213 214 1
213 783 1
213 790 1
213 821 1
213 822 1
213 848 1
213 854 1
213 885 1
213 886 1
213 903 1
213 904 1
213 912 1
213 918 1
213 936 1
213 975 1
213 1013 1
213 1014 1
214 10 1
214 17 1
214 18 1
214 50 1
214 56 1
214 68 1
214 81 1
214 82 1
214 146 1
214 170 1
214 177 1
214 178 1
214 195 1
214 196 1
214 210 1
214 216 1
214 785 1
214 792 1
214 823 1
214 824 1
214 850 1
214 856 1
214 887 1
214 888 1
214 905 1
214 906 1
214 914 1
214 920 1
214 938 1
214 977 1
214 1015 1
214 1016 1
215 12 1
215 19 1
215 20 1
215 52 1
215 58 1
215 70 1
215 83 1
215 84 1
215 148 1
215 172 1
215 179 1
215 180 1
215 197 1
215 198 1
215 212 1
215 218 1
215 787 1
215 794 1
215 825 1
215 826 1
215 852 1
215 858 1
215 889 1
215 890 1
215 907 1
215 908 1
215 916 1
215 922 1
215 940 1
215 979 1
215 1017 1
215 1018 1
216 14 1
216 21 1
216 22 1
216 54 1
216 60 1
216 72 1
216 85 1
216 86 1
216 150 1
216 174 1
216 181 1
216 182 1
216 199 1
216 200 1
216 214 1
216 220 1
216 789 1
216 796 1
216 827 1
216 828 1
216 854 1
216 860 1
216 891 1
216 892 1
216 909 1
216 910 1
216 918 1
216 924 1
216 942 1
216 981 1
216 1019 1
216 1020 1
217 16 1
217 23 1
217 24 1
217 56 1
217 62 1
217 74 1
217 87 1
217 88 1
217 152 1
217 176 1
217 183 1
217 184 1
217 201 1
217 202 1
217 216 1
217 222 1
217 791 1
217 798 1
217 829 1
217 830 1
217 856 1
217 862 1
217 893 1
217 894 1
217 911 1
217 912 1
217 920 1
217 926 1
217 944 1
217 983 1
217 1021 1
217 1022 1
218 18 1
218 25 1
218 26 1
218 58 1
218 64 1
218 76 1
218 89 1
218 90 1
218 154 1
218 178 1
218 185 1
218 186 1
218 203 1
218 204 1
218 218 1
218 224 1
218 793 1
218 800 1
218 831 1
218 832 1
218 858 1
218 864 1
218 895 1
218 896 1
218 913 1
218 914 1
218 922 1
218 928 1
218 946 1
218 985 1
218 1023 1
218 1024 1
219 20 1
219 27 1
219 28 1
219 60 1
219 66 1
219 78 1
219 91 1
219 92 1
219 156 1
219 180 1
219 187 1
219 188 1
219 205 1
219 206 1
219 220 1
219 226 1
219 769 1
219 770 1
219 795 1
219 802 1
219 833 1
219 834 1
219 860 1
219 866 1
219 897 1
219 898 1
219 915 1
219 916 1
219 924 1
219 930 1
219 948 1
219 987 1
220 22 1
220 29 1
220 30 1
220 62 1
220 68 1
220 80 1
220 93 1
220 94 1
220 158 1
220 182 1
220 189 1
220 190 1
220 207 1
220 208 1
220 222 1
220 228 1
220 771 1
220 772 1
220 797 1
220 804 1
220 835 1
220 836 1
220 862 1
220 868 1
220 899 1
220 900 1
220 917 1
220 918 1
220 926 1
220 932 1
220 950 1
220 989 1
221 24 1
221 31 1
221 32 1
221 64 1
221 70 1
221 82 1
221 95 1
221 96 1
221 160 1
221 184 1
221 191 1
221 192 1
221 209 1
221 210 1
221 224 1
221 230 1
221 773 1
221 774 1
221 799 1
221 806 1
221 837 1
221 838 1
221 864 1
221 870 1
221 901 1
221 902 1
221 919 1
221 920 1
221 928 1
221 934 1
221 952 1
221 991 1
222 26 1
222 33 1
222 34 1
222 66 1
222 72 1
222 84 1
222 97 1
222 98 1
222 162 1
222 186 1
222 193 1
222 194 1
222 211 1
222 212 1
222 226 1
222 232 1
222 775 1
222 776 1
222 801 1
222 808 1
222 839 1
222 840 1
222 866 1
222 872 1
222 903 1
222 904 1
222 921 1
222 922 1
222 930 1
222 936 1
222 954 1
222 993 1
223 28 1
223 35 1
223 36 1
223 68 1
223 74 1
223 86 1
223 99 1
223 100 1
223 164 1
223 188 1
223 195 1
223 196 1
223 213 1
223 214 1
223 228 1
223 234 1
223 777 1
223 778 1
223 803 1
223 810 1
223 841 1
223 842 1
223 868 1
223 874 1
223 905 1
223 906 1
223 923 1
223 924 1
223 932 1
223 938 1
223 956 1
223 995 1
224 30 1
224 37 1
224 38 1
224 70 1
224 76 1
224 88 1
224 101 1
224 102 1
224 166 1
224 190 1
224 197 1
224 198 1
224 215 1
224 216 1
224 230 1
224 236 1
224 779 1
224 780 1
224 805 1
224 812 1
224 843 1
224 844 1
224 870 1
224 876 1
224 907 1
224 908 1
224 925 1
224 926 1
224 934 1
224 940 1
224 958 1
224 997 1
225 32 1
225 39 1
225 40 1
225 72 1
225 78 1
225 90 1
225 103 1
225 104 1
225 168 1
225 192 1
225 199 1
225 200 1
225 217 1
225 218 1
225 232 1
225 238 1
225 781 1
225 782 1
225 807 1
225 814 1
225 845 1
225 846 1
225 872 1
225 878 1
225 909 1
225 910 1
225 927 1
225 928 1
225 936 1
225 942 1
225 960 1
225 999 1
226 34 1
226 41 1
226 42 1
226 74 1
226 80 1
226 92 1
226 105 1
226 106 1
226 170 1
226 194 1
226 201 1
226 202 1
226 219 1
226 220 1
226 234 1
226 240 1
226 783 1
226 784 1
226 809 1
226 816 1
226 847 1
226 848 1
226 874 1
226 880 1
226 911 1
226 912 1
226 929 1
226 930 1
226 938 1
226 944 1
226 962 1
226 1001 1
227 36 1
227 43 1
227 44 1
227 76 1
227 82 1
227 94 1
227 107 1
227 108 1
227 172 1
227 196 1
227 203 1
227 204 1
227 221 1
227 222 1
227 236 1
227 242 1
227 785 1
227 786 1
227 811 1
227 818 1
227 849 1
227 850 1
227 876 1
227 882 1
227 913 1
227 914 1
227 931 1
227 932 1
227 940 1
227 946 1
227 964 1
227 1003 1
228 38 1
228 45 1
228 46 1
228 78 1
228 84 1
228 96 1
228 109 1
228 110 1
228 174 1
228 198 1
228 205 1
228 206 1
228 223 1
228 224 1
228 238 1
228 244 1
228 787 1
228 788 1
228 813 1
228 820 1
228 851 1
228 852 1
228 878 1
228 884 1
228 915 1
228 916 1
228 933 1
228 934 1
228 942 1
228 948 1
228 966 1
228 1005 1
229 40 1
229 47 1
229 48 1
229 80 1
229 86 1
229 98 1
229 111 1
229 112 1
229 176 1
229 200 1
229 207 1
229 208 1
229 225 1
229 226 1
229 240 1
229 246 1
229 789 1
229 790 1
229 815 1
229 822 1
229 853 1
229 854 1
229 880 1
229 886 1
229 917 1
229 918 1
229 935 1
229 936 1
229 944 1
229 950 1
229 968 1
229 1007 1
230 42 1
230 49 1
230 50 1
230 82 1
230 88 1
230 100 1
230 113 1
230 114 1
230 178 1
230 202 1
230 209 1
230 210 1
230 227 1
230 228 1
230 242 1
230 248 1
230 791 1
230 792 1
230 817 1
230 824 1
230 855 1
230 856 1
230 882 1
230 888 1
230 919 1
230 920 1
230 937 1
230 938 1
230 946 1
230 952 1
230 970 1
230 1009 1
231 44 1
231 51 1
231 52 1
231 84 1
231 90 1
231 102 1
231 115 1
231 116 1
231 180 1
231 204 1
231 211 1
231 212 1
231 229 1
231 230 1
231 244 1
231 250 1
231 793 1
231 794 1
231 819 1
231 826 1
231 857 1
231 858 1
231 884 1
231 890 1
231 921 1
231 922 1
231 939 1
231 940 1
231 948 1
231 954 1
231 972 1
231 1011 1
232 46 1
232 53 1
232 54 1
232 86 1
232 92 1
232 104 1
232 117 1
232 118 1
232 182 1
232 206 1
232 213 1
232 214 1
232 231 1
232 232 1
232 246 1
232 252 1
232 795 1
232 796 1
232 821 1
232 828 1
232 859 1
232 860 1
232 886 1
232 892 1
232 923 1
232 924 1
232 941 1
232 942 1
232 950 1
232 956 1
232 974 1
232 1013 1
233 48 1
233 55 1
233 56 1
233 88 1
233 94 1
233 106 1
233 119 1
233 120 1
233 184 1
233 208 1
233 215 1
233 216 1
233 233 1
233 234 1
233 248 1
233 254 1
233 797 1
233 798 1
233 823 1
233 830 1
233 861 1
233 862 1
233 888 1
233 894 1
233 925 1
233 926 1
233 943 1
233 944 1
233 952 1
233 958 1
233 976 1
233 1015 1
234 50 1
234 57 1
234 58 1
234 90 1
234 96 1
234 108 1
234 121 1
234 122 1
234 186 1
234 210 1
234 217 1
234 218 1
234 235 1
234 236 1
234 250 1
234 256 1
234 799 1
234 800 1
234 825 1
234 832 1
234 863 1
234 864 1
234 890 1
234 896 1
234 927 1
234 928 1
234 945 1
234 946 1
234 954 1
234 960 1
234 978 1
234 1017 1
235 52 1
235 59 1
235 60 1
235 92 1
235 98 1
235 110 1
235 123 1
235 124 1
235 130 1
235 188 1
235 212 1
235 219 1
235 220 1
235 237 1
235 238 1
235 252 1
235 770 1
235 801 1
235 802 1
235 827 1
235 834 1
235 865 1
235 866 1
235 892 1
235 929 1
235 930 1
235 947 1
235 948 1
235 956 1
235 962 1
235 980 1
235 1019 1
236 54 1
236 61 1
236 62 1
236 94 1
236 100 1
236 112 1
236 125 1
236 126 1
236 132 1
236 190 1
236 214 1
236 221 1
236 222 1
236 239 1
236 240 1
236 254 1
236 772 1
236 803 1
236 804 1
236 829 1
236 836 1
236 867 1
236 868 1
236 894 1
236 931 1
236 932 1
236 949 1
236 950 1
236 958 1
236 964 1
236 982 1
236 1021 1
237 56 1
237 63 1
237 64 1
237 96 1
237 102 1
237 114 1
237 127 1
237 128 1
237 134 1
237 192 1
237 216 1
237 223 1
237 224 1
237 241 1
237 242 1
237 256 1
237 774 1
237 805 1
237 806 1
237 831 1
237 838 1
237 869 1
237 870 1
237 896 1
237 933 1
237 934 1
237 951 1
237 952 1
237 960 1
237 966 1
237 984 1
237 1023 1
238 1 1
238 2 1
238 58 1
238 65 1
238 66 1
238 98 1
238 104 1
238 116 1
238 130 1
238 136 1
238 194 1
238 218 1
238 225 1
238 226 1
238 243 1
238 244 1
238 770 1
238 776 1
238 807 1
238 808 1
238 833 1
238 840 1
238 871 1
238 872 1
238 897 1
238 935 1
238 936 1
238 953 1
238 954 1
238 962 1
238 968 1
238 986 1
239 3 1
239 4 1
239 60 1
239 67 1
239 68 1
239 100 1
239 106 1
239 118 1
239 132 1
239 138 1
239 196 1
239 220 1
239 227 1
239 228 1
239 245 1
239 246 1
239 772 1
239 778 1
239 809 1
239 810 1
239 835 1
239 842 1
239 873 1
239 874 1
239 899 1
239 937 1
239 938 1
239 955 1
239 956 1
239 964 1
239 970 1
239 988 1
240 5 1
240 6 1
240 62 1
240 69 1
240 70 1
240 102 1
240 108 1
240 120 1
240 134 1
240 140 1
240 198 1
240 222 1
240 229 1
240 230 1
240 247 1
240 248 1
240 774 1
240 780 1
240 811 1
240 812 1
240 837 1
240 844 1
240 875 1
240 876 1
240 901 1
240 939 1
240 940 1
240 957 1
240 958 1
240 966 1
240 972 1
240 990 1
241 7 1
241 8 1
241 64 1
241 71 1
241 72 1
241 104 1
241 110 1
241 122 1
241 136 1
241 142 1
241 200 1
241 224 1
241 231 1
241 232 1
241 249 1
241 250 1
241 776 1
241 782 1
241 813 1
241 814 1
241 839 1
241 846 1
241 877 1
241 878 1
241 903 1
241 941 1
241 942 1
241 959 1
241 960 1
241 968 1
241 974 1
241 992 1
242 9 1
242 10 1
242 66 1
242 73 1
242 74 1
242 106 1
242 112 1
242 124 1
242 138 1
242 144 1
242 202 1
242 226 1
242 233 1
242 234 1
242 251 1
242 252 1
242 778 1
242 784 1
242 815 1
242 816 1
242 841 1
242 848 1
242 879 1
242 880 1
242 905 1
242 943 1
242 944 1
242 961 1
242 962 1
242 970 1
242 976 1
242 994 1
243 11 1
243 12 1
243 68 1
243 75 1
243 76 1
243 108 1
243 114 1
243 126 1
243 140 1
243 146 1
243 204 1
243 228 1
243 235 1
243 236 1
243 253 1
243 254 1
243 780 1
243 786 1
243 817 1
243 818 1
243 843 1
243 850 1
243 881 1
243 882 1
243 907 1
243 945 1
243 946 1
243 963 1
243 964 1
243 972 1
243 978 1
243 996 1
244 13 1
244 14 1
244 70 1
244 77 1
244 78 1
244 110 1
244 116 1
244 128 1
244 142 1
244 148 1
244 206 1
244 230 1
244 237 1
244 238 1
244 255 1
244 256 1
244 782 1
244 788 1
244 819 1
244 820 1
244 845 1
244 852 1
244 883 1
244 884 1
244 909 1
244 947 1
244 948 1
244 965 1
244 966 1
244 974 1
244 980 1
244 998 1
245 2 1
245 15 1
245 16 1
245 72 1
245 79 1
245 80 1
245 112 1
245 118 1
245 129 1
245 130 1
245 144 1
245 150 1
245 208 1
245 232 1
245 239 1
245 240 1
245 784 1
245 790 1
245 821 1
245 822 1
245 847 1
245 854 1
245 885 1
245 886 1
245 911 1
245 949 1
245 950 1
245 967 1
245 968 1
245 976 1
245 982 1
245 1000 1
246 4 1
246 17 1
246 18 1
246 74 1
246 81 1
246 82 1
246 114 1
246 120 1
246 131 1
246 132 1
246 146 1
246 152 1
246 210 1
246 234 1
246 241 1
246 242 1
246 786 1
246 792 1
246 823 1
246 824 1
246 849 1
246 856 1
246 887 1
246 888 1
246 913 1
246 951 1
246 952 1
246 969 1
246 970 1
246 978 1
246 984 1
246 1002 1
247 6 1
247 19 1
247 20 1
247 76 1
247 83 1
247 84 1
247 116 1
247 122 1
247 133 1
247 134 1
247 148 1
247 154 1
247 212 1
247 236 1
247 243 1
247 244 1
247 788 1
247 794 1
247 825 1
247 826 1
247 851 1
247 858 1
247 889 1
247 890 1
247 915 1
247 953 1
247 954 1
247 971 1
247 972 1
247 980 1
247 986 1
247 1004 1
248 8 1
248 21 1
248 22 1
248 78 1
248 85 1
248 86 1
248 118 1
248 124 1
248 135 1
248 136 1
248 150 1
248 156 1
248 214 1
248 238 1
248 245 1
248 246 1
248 790 1
248 796 1
248 827 1
248 828 1
248 853 1
248 860 1
248 891 1
248 892 1
248 917 1
248 955 1
248 956 1
248 973 1
248 974 1
248 982 1
248 988 1
248 1006 1
249 10 1
249 23 1
249 24 1
249 80 1
249 87 1
249 88 1
249 120 1
249 126 1
249 137 1
249 138 1
249 152 1
249 158 1
249 216 1
249 240 1
249 247 1
249 248 1
249 792 1
249 798 1
249 829 1
249 830 1
249 855 1
249 862 1
249 893 1
249 894 1
249 919 1
249 957 1
249 958 1
249 975 1
249 976 1
249 984 1
249 990 1
249 1008 1
250 12 1
250 25 1
250 26 1
250 82 1
250 89 1
250 90 1
250 122 1
250 128 1
250 139 1
250 140 1
250 154 1
250 160 1
250 218 1
250 242 1
250 249 1
250 250 1
250 794 1
250 800 1
250 831 1
250 832 1
250 857 1
250 864 1
250 895 1
250 896 1
250 921 1
250 959 1
250 960 1
250 977 1
250 978 1
250 986 1
250 992 1
250 1010 1
251 2 1
251 14 1
251 27 1
251 28 1
251 84 1
251 91 1
251 92 1
251 124 1
251 141 1
251 142 1
251 156 1
251 162 1
251 220 1
251 244 1
251 251 1
251 252 1
251 769 1
251 770 1
251 796 1
251 802 1
251 833 1
251 834 1
251 859 1
251 866 1
251 923 1
251 961 1
251 962 1
251 979 1
251 980 1
251 988 1
251 994 1
251 1012 1
252 4 1
252 16 1
252 29 1
252 30 1
252 86 1
252 93 1
252 94 1
252 126 1
252 143 1
252 144 1
252 158 1
252 164 1
252 222 1
252 246 1
252 253 1
252 254 1
252 771 1
252 772 1
252 798 1
252 804 1
252 835 1
252 836 1
252 861 1
252 868 1
252 925 1
252 963 1
252 964 1
252 981 1
252 982 1
252 990 1
252 996 1
252 1014 1
253 6 1
253 18 1
253 31 1
253 32 1
253 88 1
253 95 1
253 96 1
253 128 1
253 145 1
253 146 1
253 160 1
253 166 1
253 224 1
253 248 1
253 255 1
253 256 1
253 773 1
253 774 1
253 800 1
253 806 1
253 837 1
253 838 1
253 863 1
253 870 1
253 927 1
253 965 1
253 966 1
253 983 1
253 984 1
253 992 1
253 998 1
253 1016 1
254 2 1
254 8 1
254 20 1
254 33 1
254 34 1
254 90 1
254 97 1
254 98 1
254 129 1
254 130 1
254 147 1
254 148 1
254 162 1
254 168 1
254 226 1
254 250 1
254 775 1
254 776 1
254 802 1
254 808 1
254 839 1
254 840 1
254 865 1
254 872 1
254 929 1
254 967 1
254 968 1
254 985 1
254 986 1
254 994 1
254 1000 1
254 1018 1
255 4 1
255 10 1
255 22 1
255 35 1
255 36 1
255 92 1
255 99 1
255 100 1
255 131 1
255 132 1
255 149 1
255 150 1
255 164 1
255 170 1
255 228 1
255 252 1
255 777 1
255 778 1
255 804 1
255 810 1
255 841 1
255 842 1
255 867 1
255 874 1
255 931 1
255 969 1
255 970 1
255 987 1
255 988 1
255 996 1
255 1002 1
255 1020 1
256 6 1
256 12 1
256 24 1
256 37 1
256 38 1
256 94 1
256 101 1
256 102 1
256 133 1
256 134 1
256 151 1
256 152 1
256 166 1
256 172 1
256 230 1
256 254 1
256 779 1
256 780 1
256 806 1
256 812 1
256 843 1
256 844 1
256 869 1
256 876 1
256 933 1
256 971 1
256 972 1
256 989 1
256 990 1
256 998 1
256 1004 1
256 1022 1
