%%MatrixMarket matrix coordinate integer general
% GF(4) labels 0,1,2=omega,3=omega+1; arithmetic is NOT integer arithmetic.
% Coordinate indices are 1-based; omitted entries are zero.
128 512 2880
1 7 3
1 21 2
1 52 3
1 55 3
1 56 2
1 72 2
1 84 2
1 85 3
1 87 2
1 103 3
1 119 1
1 135 3
1 148 2
1 151 2
1 167 3
1 180 1
1 183 2
1 455 2
1 456 2
1 503 2
1 504 3
2 8 3
2 22 2
2 53 3
2 56 3
2 57 2
2 73 2
2 85 2
2 86 3
2 88 2
2 104 3
2 120 1
2 136 3
2 149 2
2 152 2
2 168 3
2 181 1
2 184 2
2 456 2
2 457 2
2 504 2
2 505 3
3 9 3
3 23 2
3 54 3
3 57 3
3 58 2
3 74 2
3 86 2
3 87 3
3 89 2
3 105 3
3 121 1
3 137 3
3 150 2
3 153 2
3 169 3
3 182 1
3 185 2
3 457 2
3 458 2
3 505 2
3 506 3
4 10 3
4 24 2
4 55 3
4 58 3
4 59 2
4 75 2
4 87 2
4 88 3
4 90 2
4 106 3
4 122 1
4 138 3
4 151 2
4 154 2
4 170 3
4 183 1
4 186 2
4 458 2
4 459 2
4 506 2
4 507 3
5 11 3
5 25 2
5 56 3
5 59 3
5 60 2
5 76 2
5 88 2
5 89 3
5 91 2
5 107 3
5 123 1
5 139 3
5 152 2
5 155 2
5 171 3
5 184 1
5 187 2
5 459 2
5 460 2
5 507 2
5 508 3
6 12 3
6 26 2
6 57 3
6 60 3
6 61 2
6 77 2
6 89 2
6 90 3
6 92 2
6 108 3
6 124 1
6 140 3
6 153 2
6 156 2
6 172 3
6 185 1
6 188 2
6 460 2
6 461 2
6 508 2
6 509 3
7 13 3
7 27 2
7 58 3
7 61 3
7 62 2
7 78 2
7 90 2
7 91 3
7 93 2
7 109 3
7 125 1
7 141 3
7 154 2
7 157 2
7 173 3
7 186 1
7 189 2
7 461 2
7 462 2
7 509 2
7 510 3
8 14 3
8 28 2
8 59 3
8 62 3
8 63 2
8 79 2
8 91 2
8 92 3
8 94 2
8 110 3
8 126 1
8 142 3
8 155 2
8 158 2
8 174 3
8 187 1
8 190 2
8 462 2
8 463 2
8 510 2
8 511 3
9 15 3
9 29 2
9 60 3
9 63 3
9 64 2
9 80 2
9 92 2
9 93 3
9 95 2
9 111 3
9 127 1
9 143 3
9 156 2
9 159 2
9 175 3
9 188 1
9 191 2
9 463 2
9 464 2
9 511 2
9 512 3
10 1 2
10 16 3
10 30 2
10 61 3
10 64 3
10 81 2
10 93 2
10 94 3
10 96 2
10 112 3
10 128 1
10 144 3
10 157 2
10 160 2
10 176 3
10 189 1
10 192 2
10 449 3
10 464 2
10 465 2
10 512 2
11 1 3
11 2 2
11 17 3
11 31 2
11 62 3
11 65 1
11 82 2
11 94 2
11 95 3
11 97 2
11 113 3
11 129 2
11 145 3
11 158 2
11 161 2
11 177 3
11 190 1
11 449 2
11 450 3
11 465 2
11 466 2
12 2 3
12 3 2
12 18 3
12 32 2
12 63 3
12 66 1
12 83 2
12 95 2
12 96 3
12 98 2
12 114 3
12 130 2
12 146 3
12 159 2
12 162 2
12 178 3
12 191 1
12 450 2
12 451 3
12 466 2
12 467 2
13 3 3
13 4 2
13 19 3
13 33 2
13 64 3
13 67 1
13 84 2
13 96 2
13 97 3
13 99 2
13 115 3
13 131 2
13 147 3
13 160 2
13 163 2
13 179 3
13 192 1
13 451 2
13 452 3
13 467 2
13 468 2
14 1 3
14 4 3
14 5 2
14 20 3
14 34 2
14 68 1
14 85 2
14 97 2
14 98 3
14 100 2
14 116 3
14 129 1
14 132 2
14 148 3
14 161 2
14 164 2
14 180 3
14 452 2
14 453 3
14 468 2
14 469 2
15 2 3
15 5 3
15 6 2
15 21 3
15 35 2
15 69 1
15 86 2
15 98 2
15 99 3
15 101 2
15 117 3
15 130 1
15 133 2
15 149 3
15 162 2
15 165 2
15 181 3
15 453 2
15 454 3
15 469 2
15 470 2
16 3 3
16 6 3
16 7 2
16 22 3
16 36 2
16 70 1
16 87 2
16 99 2
16 100 3
16 102 2
16 118 3
16 131 1
16 134 2
16 150 3
16 163 2
16 166 2
16 182 3
16 454 2
16 455 3
16 470 2
16 471 2
17 4 3
17 7 3
17 8 2
17 23 3
17 37 2
17 71 1
17 88 2
17 100 2
17 101 3
17 103 2
17 119 3
17 132 1
17 135 2
17 151 3
17 164 2
17 167 2
17 183 3
17 455 2
17 456 3
17 471 2
17 472 2
18 5 3
18 8 3
18 9 2
18 24 3
18 38 2
18 72 1
18 89 2
18 101 2
18 102 3
18 104 2
18 120 3
18 133 1
18 136 2
18 152 3
18 165 2
18 168 2
18 184 3
18 456 2
18 457 3
18 472 2
18 473 2
19 6 3
19 9 3
19 10 2
19 25 3
19 39 2
19 73 1
19 90 2
19 102 2
19 103 3
19 105 2
19 121 3
19 134 1
19 137 2
19 153 3
19 166 2
19 169 2
19 185 3
19 457 2
19 458 3
19 473 2
19 474 2
20 7 3
20 10 3
20 11 2
20 26 3
20 40 2
20 74 1
20 91 2
20 103 2
20 104 3
20 106 2
20 122 3
20 135 1
20 138 2
20 154 3
20 167 2
20 170 2
20 186 3
20 458 2
20 459 3
20 474 2
20 475 2
21 8 3
21 11 3
21 12 2
21 27 3
21 41 2
21 75 1
21 92 2
21 104 2
21 105 3
21 107 2
21 123 3
21 136 1
21 139 2
21 155 3
21 168 2
21 171 2
21 187 3
21 459 2
21 460 3
21 475 2
21 476 2
22 9 3
22 12 3
22 13 2
22 28 3
22 42 2
22 76 1
22 93 2
22 105 2
22 106 3
22 108 2
22 124 3
22 137 1
22 140 2
22 156 3
22 169 2
22 172 2
22 188 3
22 460 2
22 461 3
22 476 2
22 477 2
23 10 3
23 13 3
23 14 2
23 29 3
23 43 2
23 77 1
23 94 2
23 106 2
23 107 3
23 109 2
23 125 3
23 138 1
23 141 2
23 157 3
23 170 2
23 173 2
23 189 3
23 461 2
23 462 3
23 477 2
23 478 2
24 11 3
24 14 3
24 15 2
24 30 3
24 44 2
24 78 1
24 95 2
24 107 2
24 108 3
24 110 2
24 126 3
24 139 1
24 142 2
24 158 3
24 171 2
24 174 2
24 190 3
24 462 2
24 463 3
24 478 2
24 479 2
25 12 3
25 15 3
25 16 2
25 31 3
25 45 2
25 79 1
25 96 2
25 108 2
25 109 3
25 111 2
25 127 3
25 140 1
25 143 2
25 159 3
25 172 2
25 175 2
25 191 3
25 463 2
25 464 3
25 479 2
25 480 2
26 13 3
26 16 3
26 17 2
26 32 3
26 46 2
26 80 1
26 97 2
26 109 2
26 110 3
26 112 2
26 128 3
26 141 1
26 144 2
26 160 3
26 173 2
26 176 2
26 192 3
26 464 2
26 465 3
26 480 2
26 481 2
27 14 3
27 17 3
27 18 2
27 33 3
27 47 2
27 65 3
27 81 1
27 98 2
27 110 2
27 111 3
27 113 2
27 129 3
27 142 1
27 145 2
27 161 3
27 174 2
27 177 2
27 465 2
27 466 3
27 481 2
27 482 2
28 15 3
28 18 3
28 19 2
28 34 3
28 48 2
28 66 3
28 82 1
28 99 2
28 111 2
28 112 3
28 114 2
28 130 3
28 143 1
28 146 2
28 162 3
28 175 2
28 178 2
28 466 2
28 467 3
28 482 2
28 483 2
29 16 3
29 19 3
29 20 2
29 35 3
29 49 2
29 67 3
29 83 1
29 100 2
29 112 2
29 113 3
29 115 2
29 131 3
29 144 1
29 147 2
29 163 3
29 176 2
29 179 2
29 467 2
29 468 3
29 483 2
29 484 2
30 17 3
30 20 3
30 21 2
30 36 3
30 50 2
30 68 3
30 84 1
30 101 2
30 113 2
30 114 3
30 116 2
30 132 3
30 145 1
30 148 2
30 164 3
30 177 2
30 180 2
30 468 2
30 469 3
30 484 2
30 485 2
31 18 3
31 21 3
31 22 2
31 37 3
31 51 2
31 69 3
31 85 1
31 102 2
31 114 2
31 115 3
31 117 2
31 133 3
31 146 1
31 149 2
31 165 3
31 178 2
31 181 2
31 469 2
31 470 3
31 485 2
31 486 2
32 19 3
32 22 3
32 23 2
32 38 3
32 52 2
32 70 3
32 86 1
32 103 2
32 115 2
32 116 3
32 118 2
32 134 3
32 147 1
32 150 2
32 166 3
32 179 2
32 182 2
32 470 2
32 471 3
32 486 2
32 487 2
33 20 3
33 23 3
33 24 2
33 39 3
33 53 2
33 71 3
33 87 1
33 104 2
33 116 2
33 117 3
33 119 2
33 135 3
33 148 1
33 151 2
33 167 3
33 180 2
33 183 2
33 471 2
33 472 3
33 487 2
33 488 2
34 21 3
34 24 3
34 25 2
34 40 3
34 54 2
34 72 3
34 88 1
34 105 2
34 117 2
34 118 3
34 120 2
34 136 3
34 149 1
34 152 2
34 168 3
34 181 2
34 184 2
34 472 2
34 473 3
34 488 2
34 489 2
35 22 3
35 25 3
35 26 2
35 41 3
35 55 2
35 73 3
35 89 1
35 106 2
35 118 2
35 119 3
35 121 2
35 137 3
35 150 1
35 153 2
35 169 3
35 182 2
35 185 2
35 473 2
35 474 3
35 489 2
35 490 2
36 23 3
36 26 3
36 27 2
36 42 3
36 56 2
36 74 3
36 90 1
36 107 2
36 119 2
36 120 3
36 122 2
36 138 3
36 151 1
36 154 2
36 170 3
36 183 2
36 186 2
36 474 2
36 475 3
36 490 2
36 491 2
37 24 3
37 27 3
37 28 2
37 43 3
37 57 2
37 75 3
37 91 1
37 108 2
37 120 2
37 121 3
37 123 2
37 139 3
37 152 1
37 155 2
37 171 3
37 184 2
37 187 2
37 475 2
37 476 3
37 491 2
37 492 2
38 25 3
38 28 3
38 29 2
38 44 3
38 58 2
38 76 3
38 92 1
38 109 2
38 121 2
38 122 3
38 124 2
38 140 3
38 153 1
38 156 2
38 172 3
38 185 2
38 188 2
38 476 2
38 477 3
38 492 2
38 493 2
39 26 3
39 29 3
39 30 2
39 45 3
39 59 2
39 77 3
39 93 1
39 110 2
39 122 2
39 123 3
39 125 2
39 141 3
39 154 1
39 157 2
39 173 3
39 186 2
39 189 2
39 477 2
39 478 3
39 493 2
39 494 2
40 27 3
40 30 3
40 31 2
40 46 3
40 60 2
40 78 3
40 94 1
40 111 2
40 123 2
40 124 3
40 126 2
40 142 3
40 155 1
40 158 2
40 174 3
40 187 2
40 190 2
40 478 2
40 479 3
40 494 2
40 495 2
41 28 3
41 31 3
41 32 2
41 47 3
41 61 2
41 79 3
41 95 1
41 112 2
41 124 2
41 125 3
41 127 2
41 143 3
41 156 1
41 159 2
41 175 3
41 188 2
41 191 2
41 479 2
41 480 3
41 495 2
41 496 2
42 29 3
42 32 3
42 33 2
42 48 3
42 62 2
42 80 3
42 96 1
42 113 2
42 125 2
42 126 3
42 128 2
42 144 3
42 157 1
42 160 2
42 176 3
42 189 2
42 192 2
42 480 2
42 481 3
42 496 2
42 497 2
43 30 3
43 33 3
43 34 2
43 49 3
43 63 2
43 65 2
43 81 3
43 97 1
43 114 2
43 126 2
43 127 3
43 129 2
43 145 3
43 158 1
43 161 2
43 177 3
43 190 2
43 481 2
43 482 3
43 497 2
43 498 2
44 31 3
44 34 3
44 35 2
44 50 3
44 64 2
44 66 2
44 82 3
44 98 1
44 115 2
44 127 2
44 128 3
44 130 2
44 146 3
44 159 1
44 162 2
44 178 3
44 191 2
44 482 2
44 483 3
44 498 2
44 499 2
45 1 2
45 32 3
45 35 3
45 36 2
45 51 3
45 65 3
45 67 2
45 83 3
45 99 1
45 116 2
45 128 2
45 131 2
45 147 3
45 160 1
45 163 2
45 179 3
45 192 2
45 483 2
45 484 3
45 499 2
45 500 2
46 2 2
46 33 3
46 36 3
46 37 2
46 52 3
46 65 2
46 66 3
46 68 2
46 84 3
46 100 1
46 117 2
46 129 2
46 132 2
46 148 3
46 161 1
46 164 2
46 180 3
46 484 2
46 485 3
46 500 2
46 501 2
47 3 2
47 34 3
47 37 3
47 38 2
47 53 3
47 66 2
47 67 3
47 69 2
47 85 3
47 101 1
47 118 2
47 130 2
47 133 2
47 149 3
47 162 1
47 165 2
47 181 3
47 485 2
47 486 3
47 501 2
47 502 2
48 4 2
48 35 3
48 38 3
48 39 2
48 54 3
48 67 2
48 68 3
48 70 2
48 86 3
48 102 1
48 119 2
48 131 2
48 134 2
48 150 3
48 163 1
48 166 2
48 182 3
48 486 2
48 487 3
48 502 2
48 503 2
49 5 2
49 36 3
49 39 3
49 40 2
49 55 3
49 68 2
49 69 3
49 71 2
49 87 3
49 103 1
49 120 2
49 132 2
49 135 2
49 151 3
49 164 1
49 167 2
49 183 3
49 487 2
49 488 3
49 503 2
49 504 2
50 6 2
50 37 3
50 40 3
50 41 2
50 56 3
50 69 2
50 70 3
50 72 2
50 88 3
50 104 1
50 121 2
50 133 2
50 136 2
50 152 3
50 165 1
50 168 2
50 184 3
50 488 2
50 489 3
50 504 2
50 505 2
51 7 2
51 38 3
51 41 3
51 42 2
51 57 3
51 70 2
51 71 3
51 73 2
51 89 3
51 105 1
51 122 2
51 134 2
51 137 2
51 153 3
51 166 1
51 169 2
51 185 3
51 489 2
51 490 3
51 505 2
51 506 2
52 8 2
52 39 3
52 42 3
52 43 2
52 58 3
52 71 2
52 72 3
52 74 2
52 90 3
52 106 1
52 123 2
52 135 2
52 138 2
52 154 3
52 167 1
52 170 2
52 186 3
52 490 2
52 491 3
52 506 2
52 507 2
53 9 2
53 40 3
53 43 3
53 44 2
53 59 3
53 72 2
53 73 3
53 75 2
53 91 3
53 107 1
53 124 2
53 136 2
53 139 2
53 155 3
53 168 1
53 171 2
53 187 3
53 491 2
53 492 3
53 507 2
53 508 2
54 10 2
54 41 3
54 44 3
54 45 2
54 60 3
54 73 2
54 74 3
54 76 2
54 92 3
54 108 1
54 125 2
54 137 2
54 140 2
54 156 3
54 169 1
54 172 2
54 188 3
54 492 2
54 493 3
54 508 2
54 509 2
55 11 2
55 42 3
55 45 3
55 46 2
55 61 3
55 74 2
55 75 3
55 77 2
55 93 3
55 109 1
55 126 2
55 138 2
55 141 2
55 157 3
55 170 1
55 173 2
55 189 3
55 493 2
55 494 3
55 509 2
55 510 2
56 12 2
56 43 3
56 46 3
56 47 2
56 62 3
56 75 2
56 76 3
56 78 2
56 94 3
56 110 1
56 127 2
56 139 2
56 142 2
56 158 3
56 171 1
56 174 2
56 190 3
56 494 2
56 495 3
56 510 2
56 511 2
57 13 2
57 44 3
57 47 3
57 48 2
57 63 3
57 76 2
57 77 3
57 79 2
57 95 3
57 111 1
57 128 2
57 140 2
57 143 2
57 159 3
57 172 1
57 175 2
57 191 3
57 495 2
57 496 3
57 511 2
57 512 2
58 14 2
58 45 3
58 48 3
58 49 2
58 64 3
58 65 2
58 77 2
58 78 3
58 80 2
58 96 3
58 112 1
58 141 2
58 144 2
58 160 3
58 173 1
58 176 2
58 192 3
58 449 2
58 496 2
58 497 3
58 512 2
59 1 3
59 15 2
59 46 3
59 49 3
59 50 2
59 66 2
59 78 2
59 79 3
59 81 2
59 97 3
59 113 1
59 129 3
59 142 2
59 145 2
59 161 3
59 174 1
59 177 2
59 449 2
59 450 2
59 497 2
59 498 3
60 2 3
60 16 2
60 47 3
60 50 3
60 51 2
60 67 2
60 79 2
60 80 3
60 82 2
60 98 3
60 114 1
60 130 3
60 143 2
60 146 2
60 162 3
60 175 1
60 178 2
60 450 2
60 451 2
60 498 2
60 499 3
61 3 3
61 17 2
61 48 3
61 51 3
61 52 2
61 68 2
61 80 2
61 81 3
61 83 2
61 99 3
61 115 1
61 131 3
61 144 2
61 147 2
61 163 3
61 176 1
61 179 2
61 451 2
61 452 2
61 499 2
61 500 3
62 4 3
62 18 2
62 49 3
62 52 3
62 53 2
62 69 2
62 81 2
62 82 3
62 84 2
62 100 3
62 116 1
62 132 3
62 145 2
62 148 2
62 164 3
62 177 1
62 180 2
62 452 2
62 453 2
62 500 2
62 501 3
63 5 3
63 19 2
63 50 3
63 53 3
63 54 2
63 70 2
63 82 2
63 83 3
63 85 2
63 101 3
63 117 1
63 133 3
63 146 2
63 149 2
63 165 3
63 178 1
63 181 2
63 453 2
63 454 2
63 501 2
63 502 3
64 6 3
64 20 2
64 51 3
64 54 3
64 55 2
64 71 2
64 83 2
64 84 3
64 86 2
64 102 3
64 118 1
64 134 3
64 147 2
64 150 2
64 166 3
64 179 1
64 182 2
64 454 2
64 455 2
64 502 2
64 503 3
65 4 1
65 7 1
65 13 1
65 20 2
65 48 1
65 52 2
65 68 2
65 77 2
65 84 1
65 87 1
65 116 1
65 128 1
65 391 2
65 404 1
65 407 1
65 423 2
65 436 3
65 439 1
65 468 3
65 487 2
65 496 2
65 500 1
65 503 1
65 512 1
66 5 1
66 8 1
66 14 1
66 21 2
66 49 1
66 53 2
66 65 1
66 69 2
66 78 2
66 85 1
66 88 1
66 117 1
66 392 2
66 405 1
66 408 1
66 424 2
66 437 3
66 440 1
66 449 1
66 469 3
66 488 2
66 497 2
66 501 1
66 504 1
67 6 1
67 9 1
67 15 1
67 22 2
67 50 1
67 54 2
67 66 1
67 70 2
67 79 2
67 86 1
67 89 1
67 118 1
67 393 2
67 406 1
67 409 1
67 425 2
67 438 3
67 441 1
67 450 1
67 470 3
67 489 2
67 498 2
67 502 1
67 505 1
68 7 1
68 10 1
68 16 1
68 23 2
68 51 1
68 55 2
68 67 1
68 71 2
68 80 2
68 87 1
68 90 1
68 119 1
68 394 2
68 407 1
68 410 1
68 426 2
68 439 3
68 442 1
68 451 1
68 471 3
68 490 2
68 499 2
68 503 1
68 506 1
69 8 1
69 11 1
69 17 1
69 24 2
69 52 1
69 56 2
69 68 1
69 72 2
69 81 2
69 88 1
69 91 1
69 120 1
69 395 2
69 408 1
69 411 1
69 427 2
69 440 3
69 443 1
69 452 1
69 472 3
69 491 2
69 500 2
69 504 1
69 507 1
70 9 1
70 12 1
70 18 1
70 25 2
70 53 1
70 57 2
70 69 1
70 73 2
70 82 2
70 89 1
70 92 1
70 121 1
70 396 2
70 409 1
70 412 1
70 428 2
70 441 3
70 444 1
70 453 1
70 473 3
70 492 2
70 501 2
70 505 1
70 508 1
71 10 1
71 13 1
71 19 1
71 26 2
71 54 1
71 58 2
71 70 1
71 74 2
71 83 2
71 90 1
71 93 1
71 122 1
71 397 2
71 410 1
71 413 1
71 429 2
71 442 3
71 445 1
71 454 1
71 474 3
71 493 2
71 502 2
71 506 1
71 509 1
72 11 1
72 14 1
72 20 1
72 27 2
72 55 1
72 59 2
72 71 1
72 75 2
72 84 2
72 91 1
72 94 1
72 123 1
72 398 2
72 411 1
72 414 1
72 430 2
72 443 3
72 446 1
72 455 1
72 475 3
72 494 2
72 503 2
72 507 1
72 510 1
73 12 1
73 15 1
73 21 1
73 28 2
73 56 1
73 60 2
73 72 1
73 76 2
73 85 2
73 92 1
73 95 1
73 124 1
73 399 2
73 412 1
73 415 1
73 431 2
73 444 3
73 447 1
73 456 1
73 476 3
73 495 2
73 504 2
73 508 1
73 511 1
74 13 1
74 16 1
74 22 1
74 29 2
74 57 1
74 61 2
74 73 1
74 77 2
74 86 2
74 93 1
74 96 1
74 125 1
74 400 2
74 413 1
74 416 1
74 432 2
74 445 3
74 448 1
74 457 1
74 477 3
74 496 2
74 505 2
74 509 1
74 512 1
75 14 1
75 17 1
75 23 1
75 30 2
75 58 1
75 62 2
75 74 1
75 78 2
75 87 2
75 94 1
75 97 1
75 126 1
75 385 1
75 401 2
75 414 1
75 417 1
75 433 2
75 446 3
75 449 1
75 458 1
75 478 3
75 497 2
75 506 2
75 510 1
76 15 1
76 18 1
76 24 1
76 31 2
76 59 1
76 63 2
76 75 1
76 79 2
76 88 2
76 95 1
76 98 1
76 127 1
76 386 1
76 402 2
76 415 1
76 418 1
76 434 2
76 447 3
76 450 1
76 459 1
76 479 3
76 498 2
76 507 2
76 511 1
77 16 1
77 19 1
77 25 1
77 32 2
77 60 1
77 64 2
77 76 1
77 80 2
77 89 2
77 96 1
77 99 1
77 128 1
77 387 1
77 403 2
77 416 1
77 419 1
77 435 2
77 448 3
77 451 1
77 460 1
77 480 3
77 499 2
77 508 2
77 512 1
78 1 2
78 17 1
78 20 1
78 26 1
78 33 2
78 61 1
78 65 1
78 77 1
78 81 2
78 90 2
78 97 1
78 100 1
78 385 3
78 388 1
78 404 2
78 417 1
78 420 1
78 436 2
78 449 1
78 452 1
78 461 1
78 481 3
78 500 2
78 509 2
79 2 2
79 18 1
79 21 1
79 27 1
79 34 2
79 62 1
79 66 1
79 78 1
79 82 2
79 91 2
79 98 1
79 101 1
79 386 3
79 389 1
79 405 2
79 418 1
79 421 1
79 437 2
79 450 1
79 453 1
79 462 1
79 482 3
79 501 2
79 510 2
80 3 2
80 19 1
80 22 1
80 28 1
80 35 2
80 63 1
80 67 1
80 79 1
80 83 2
80 92 2
80 99 1
80 102 1
80 387 3
80 390 1
80 406 2
80 419 1
80 422 1
80 438 2
80 451 1
80 454 1
80 463 1
80 483 3
80 502 2
80 511 2
81 4 2
81 20 1
81 23 1
81 29 1
81 36 2
81 64 1
81 68 1
81 80 1
81 84 2
81 93 2
81 100 1
81 103 1
81 388 3
81 391 1
81 407 2
81 420 1
81 423 1
81 439 2
81 452 1
81 455 1
81 464 1
81 484 3
81 503 2
81 512 2
82 1 1
82 5 2
82 21 1
82 24 1
82 30 1
82 37 2
82 69 1
82 81 1
82 85 2
82 94 2
82 101 1
82 104 1
82 389 3
82 392 1
82 408 2
82 421 1
82 424 1
82 440 2
82 449 2
82 453 1
82 456 1
82 465 1
82 485 3
82 504 2
83 2 1
83 6 2
83 22 1
83 25 1
83 31 1
83 38 2
83 70 1
83 82 1
83 86 2
83 95 2
83 102 1
83 105 1
83 390 3
83 393 1
83 409 2
83 422 1
83 425 1
83 441 2
83 450 2
83 454 1
83 457 1
83 466 1
83 486 3
83 505 2
84 3 1
84 7 2
84 23 1
84 26 1
84 32 1
84 39 2
84 71 1
84 83 1
84 87 2
84 96 2
84 103 1
84 106 1
84 391 3
84 394 1
84 410 2
84 423 1
84 426 1
84 442 2
84 451 2
84 455 1
84 458 1
84 467 1
84 487 3
84 506 2
85 4 1
85 8 2
85 24 1
85 27 1
85 33 1
85 40 2
85 72 1
85 84 1
85 88 2
85 97 2
85 104 1
85 107 1
85 392 3
85 395 1
85 411 2
85 424 1
85 427 1
85 443 2
85 452 2
85 456 1
85 459 1
85 468 1
85 488 3
85 507 2
86 5 1
86 9 2
86 25 1
86 28 1
86 34 1
86 41 2
86 73 1
86 85 1
86 89 2
86 98 2
86 105 1
86 108 1
86 393 3
86 396 1
86 412 2
86 425 1
86 428 1
86 444 2
86 453 2
86 457 1
86 460 1
86 469 1
86 489 3
86 508 2
87 6 1
87 10 2
87 26 1
87 29 1
87 35 1
87 42 2
87 74 1
87 86 1
87 90 2
87 99 2
87 106 1
87 109 1
87 394 3
87 397 1
87 413 2
87 426 1
87 429 1
87 445 2
87 454 2
87 458 1
87 461 1
87 470 1
87 490 3
87 509 2
88 7 1
88 11 2
88 27 1
88 30 1
88 36 1
88 43 2
88 75 1
88 87 1
88 91 2
88 100 2
88 107 1
88 110 1
88 395 3
88 398 1
88 414 2
88 427 1
88 430 1
88 446 2
88 455 2
88 459 1
88 462 1
88 471 1
88 491 3
88 510 2
89 8 1
89 12 2
89 28 1
89 31 1
89 37 1
89 44 2
89 76 1
89 88 1
89 92 2
89 101 2
89 108 1
89 111 1
89 396 3
89 399 1
89 415 2
89 428 1
89 431 1
89 447 2
89 456 2
89 460 1
89 463 1
89 472 1
89 492 3
89 511 2
90 9 1
90 13 2
90 29 1
90 32 1
90 38 1
90 45 2
90 77 1
90 89 1
90 93 2
90 102 2
90 109 1
90 112 1
90 397 3
90 400 1
90 416 2
90 429 1
90 432 1
90 448 2
90 457 2
90 461 1
90 464 1
90 473 1
90 493 3
90 512 2
91 10 1
91 14 2
91 30 1
91 33 1
91 39 1
91 46 2
91 78 1
91 90 1
91 94 2
91 103 2
91 110 1
91 113 1
91 385 2
91 398 3
91 401 1
91 417 2
91 430 1
91 433 1
91 449 2
91 458 2
91 462 1
91 465 1
91 474 1
91 494 3
92 11 1
92 15 2
92 31 1
92 34 1
92 40 1
92 47 2
92 79 1
92 91 1
92 95 2
92 104 2
92 111 1
92 114 1
92 386 2
92 399 3
92 402 1
92 418 2
92 431 1
92 434 1
92 450 2
92 459 2
92 463 1
92 466 1
92 475 1
92 495 3
93 12 1
93 16 2
93 32 1
93 35 1
93 41 1
93 48 2
93 80 1
93 92 1
93 96 2
93 105 2
93 112 1
93 115 1
93 387 2
93 400 3
93 403 1
93 419 2
93 432 1
93 435 1
93 451 2
93 460 2
93 464 1
93 467 1
93 476 1
93 496 3
94 13 1
94 17 2
94 33 1
94 36 1
94 42 1
94 49 2
94 81 1
94 93 1
94 97 2
94 106 2
94 113 1
94 116 1
94 388 2
94 401 3
94 404 1
94 420 2
94 433 1
94 436 1
94 452 2
94 461 2
94 465 1
94 468 1
94 477 1
94 497 3
95 14 1
95 18 2
95 34 1
95 37 1
95 43 1
95 50 2
95 82 1
95 94 1
95 98 2
95 107 2
95 114 1
95 117 1
95 389 2
95 402 3
95 405 1
95 421 2
95 434 1
95 437 1
95 453 2
95 462 2
95 466 1
95 469 1
95 478 1
95 498 3
96 15 1
96 19 2
96 35 1
96 38 1
96 44 1
96 51 2
96 83 1
96 95 1
96 99 2
96 108 2
96 115 1
96 118 1
96 390 2
96 403 3
96 406 1
96 422 2
96 435 1
96 438 1
96 454 2
96 463 2
96 467 1
96 470 1
96 479 1
96 499 3
97 16 1
97 20 2
97 36 1
97 39 1
97 45 1
97 52 2
97 84 1
97 96 1
97 100 2
97 109 2
97 116 1
97 119 1
97 391 2
97 404 3
97 407 1
97 423 2
97 436 1
97 439 1
97 455 2
97 464 2
97 468 1
97 471 1
97 480 1
97 500 3
98 17 1
98 21 2
98 37 1
98 40 1
98 46 1
98 53 2
98 85 1
98 97 1
98 101 2
98 110 2
98 117 1
98 120 1
98 392 2
98 405 3
98 408 1
98 424 2
98 437 1
98 440 1
98 456 2
98 465 2
98 469 1
98 472 1
98 481 1
98 501 3
99 18 1
99 22 2
99 38 1
99 41 1
99 47 1
99 54 2
99 86 1
99 98 1
99 102 2
99 111 2
99 118 1
99 121 1
99 393 2
99 406 3
99 409 1
99 425 2
99 438 1
99 441 1
99 457 2
99 466 2
99 470 1
99 473 1
99 482 1
99 502 3
100 19 1
100 23 2
100 39 1
100 42 1
100 48 1
100 55 2
100 87 1
100 99 1
100 103 2
100 112 2
100 119 1
100 122 1
100 394 2
100 407 3
100 410 1
100 426 2
100 439 1
100 442 1
100 458 2
100 467 2
100 471 1
100 474 1
100 483 1
100 503 3
101 20 1
101 24 2
101 40 1
101 43 1
101 49 1
101 56 2
101 88 1
101 100 1
101 104 2
101 113 2
101 120 1
101 123 1
101 395 2
101 408 3
101 411 1
101 427 2
101 440 1
101 443 1
101 459 2
101 468 2
101 472 1
101 475 1
101 484 1
101 504 3
102 21 1
102 25 2
102 41 1
102 44 1
102 50 1
102 57 2
102 89 1
102 101 1
102 105 2
102 114 2
102 121 1
102 124 1
102 396 2
102 409 3
102 412 1
102 428 2
102 441 1
102 444 1
102 460 2
102 469 2
102 473 1
102 476 1
102 485 1
102 505 3
103 22 1
103 26 2
103 42 1
103 45 1
103 51 1
103 58 2
103 90 1
103 102 1
103 106 2
103 115 2
103 122 1
103 125 1
103 397 2
103 410 3
103 413 1
103 429 2
103 442 1
103 445 1
103 461 2
103 470 2
103 474 1
103 477 1
103 486 1
103 506 3
104 23 1
104 27 2
104 43 1
104 46 1
104 52 1
104 59 2
104 91 1
104 103 1
104 107 2
104 116 2
104 123 1
104 126 1
104 398 2
104 411 3
104 414 1
104 430 2
104 443 1
104 446 1
104 462 2
104 471 2
104 475 1
104 478 1
104 487 1
104 507 3
105 24 1
105 28 2
105 44 1
105 47 1
105 53 1
105 60 2
105 92 1
105 104 1
105 108 2
105 117 2
105 124 1
105 127 1
105 399 2
105 412 3
105 415 1
105 431 2
105 444 1
105 447 1
105 463 2
105 472 2
105 476 1
105 479 1
105 488 1
105 508 3
106 25 1
106 29 2
106 45 1
106 48 1
106 54 1
106 61 2
106 93 1
106 105 1
106 109 2
106 118 2
106 125 1
106 128 1
106 400 2
106 413 3
106 416 1
106 432 2
106 445 1
106 448 1
106 464 2
106 473 2
106 477 1
106 480 1
106 489 1
106 509 3
107 26 1
107 30 2
107 46 1
107 49 1
107 55 1
107 62 2
107 65 1
107 94 1
107 106 1
107 110 2
107 119 2
107 126 1
107 385 1
107 401 2
107 414 3
107 417 1
107 433 2
107 446 1
107 465 2
107 474 2
107 478 1
107 481 1
107 490 1
107 510 3
108 27 1
108 31 2
108 47 1
108 50 1
108 56 1
108 63 2
108 66 1
108 95 1
108 107 1
108 111 2
108 120 2
108 127 1
108 386 1
108 402 2
108 415 3
108 418 1
108 434 2
108 447 1
108 466 2
108 475 2
108 479 1
108 482 1
108 491 1
108 511 3
109 28 1
109 32 2
109 48 1
109 51 1
109 57 1
109 64 2
109 67 1
109 96 1
109 108 1
109 112 2
109 121 2
109 128 1
109 387 1
109 403 2
109 416 3
109 419 1
109 435 2
109 448 1
109 467 2
109 476 2
109 480 1
109 483 1
109 492 1
109 512 3
110 1 2
110 29 1
110 33 2
110 49 1
110 52 1
110 58 1
110 65 1
110 68 1
110 97 1
110 109 1
110 113 2
110 122 2
110 385 1
110 388 1
110 404 2
110 417 3
110 420 1
110 436 2
110 449 3
110 468 2
110 477 2
110 481 1
110 484 1
110 493 1
111 2 2
111 30 1
111 34 2
111 50 1
111 53 1
111 59 1
111 66 1
111 69 1
111 98 1
111 110 1
111 114 2
111 123 2
111 386 1
111 389 1
111 405 2
111 418 3
111 421 1
111 437 2
111 450 3
111 469 2
111 478 2
111 482 1
111 485 1
111 494 1
112 3 2
112 31 1
112 35 2
112 51 1
112 54 1
112 60 1
112 67 1
112 70 1
112 99 1
112 111 1
112 115 2
112 124 2
112 387 1
112 390 1
112 406 2
112 419 3
112 422 1
112 438 2
112 451 3
112 470 2
112 479 2
112 483 1
112 486 1
112 495 1
113 4 2
113 32 1
113 36 2
113 52 1
113 55 1
113 61 1
113 68 1
113 71 1
113 100 1
113 112 1
113 116 2
113 125 2
113 388 1
113 391 1
113 407 2
113 420 3
113 423 1
113 439 2
113 452 3
113 471 2
113 480 2
113 484 1
113 487 1
113 496 1
114 5 2
114 33 1
114 37 2
114 53 1
114 56 1
114 62 1
114 69 1
114 72 1
114 101 1
114 113 1
114 117 2
114 126 2
114 389 1
114 392 1
114 408 2
114 421 3
114 424 1
114 440 2
114 453 3
114 472 2
114 481 2
114 485 1
114 488 1
114 497 1
115 6 2
115 34 1
115 38 2
115 54 1
115 57 1
115 63 1
115 70 1
115 73 1
115 102 1
115 114 1
115 118 2
115 127 2
115 390 1
115 393 1
115 409 2
115 422 3
115 425 1
115 441 2
115 454 3
115 473 2
115 482 2
115 486 1
115 489 1
115 498 1
116 7 2
116 35 1
116 39 2
116 55 1
116 58 1
116 64 1
116 71 1
116 74 1
116 103 1
116 115 1
116 119 2
116 128 2
116 391 1
116 394 1
116 410 2
116 423 3
116 426 1
116 442 2
116 455 3
116 474 2
116 483 2
116 487 1
116 490 1
116 499 1
117 1 1
117 8 2
117 36 1
117 40 2
117 56 1
117 59 1
117 65 2
117 72 1
117 75 1
117 104 1
117 116 1
117 120 2
117 392 1
117 395 1
117 411 2
117 424 3
117 427 1
117 443 2
117 456 3
117 475 2
117 484 2
117 488 1
117 491 1
117 500 1
118 2 1
118 9 2
118 37 1
118 41 2
118 57 1
118 60 1
118 66 2
118 73 1
118 76 1
118 105 1
118 117 1
118 121 2
118 393 1
118 396 1
118 412 2
118 425 3
118 428 1
118 444 2
118 457 3
118 476 2
118 485 2
118 489 1
118 492 1
118 501 1
119 3 1
119 10 2
119 38 1
119 42 2
119 58 1
119 61 1
119 67 2
119 74 1
119 77 1
119 106 1
119 118 1
119 122 2
119 394 1
119 397 1
119 413 2
119 426 3
119 429 1
119 445 2
119 458 3
119 477 2
119 486 2
119 490 1
119 493 1
119 502 1
120 4 1
120 11 2
120 39 1
120 43 2
120 59 1
120 62 1
120 68 2
120 75 1
120 78 1
120 107 1
120 119 1
120 123 2
120 395 1
120 398 1
120 414 2
120 427 3
120 430 1
120 446 2
120 459 3
120 478 2
120 487 2
120 491 1
120 494 1
120 503 1
121 5 1
121 12 2
121 40 1
121 44 2
121 60 1
121 63 1
121 69 2
121 76 1
121 79 1
121 108 1
121 120 1
121 124 2
121 396 1
121 399 1
121 415 2
121 428 3
121 431 1
121 447 2
121 460 3
121 479 2
121 488 2
121 492 1
121 495 1
121 504 1
122 6 1
122 13 2
122 41 1
122 45 2
122 61 1
122 64 1
122 70 2
122 77 1
122 80 1
122 109 1
122 121 1
122 125 2
122 397 1
122 400 1
122 416 2
122 429 3
122 432 1
122 448 2
122 461 3
122 480 2
122 489 2
122 493 1
122 496 1
122 505 1
123 1 1
123 7 1
123 14 2
123 42 1
123 46 2
123 62 1
123 71 2
123 78 1
123 81 1
123 110 1
123 122 1
123 126 2
123 385 2
123 398 1
123 401 1
123 417 2
123 430 3
123 433 1
123 462 3
123 481 2
123 490 2
123 494 1
123 497 1
123 506 1
124 2 1
124 8 1
124 15 2
124 43 1
124 47 2
124 63 1
124 72 2
124 79 1
124 82 1
124 111 1
124 123 1
124 127 2
124 386 2
124 399 1
124 402 1
124 418 2
124 431 3
124 434 1
124 463 3
124 482 2
124 491 2
124 495 1
124 498 1
124 507 1
125 3 1
125 9 1
125 16 2
125 44 1
125 48 2
125 64 1
125 73 2
125 80 1
125 83 1
125 112 1
125 124 1
125 128 2
125 387 2
125 400 1
125 403 1
125 419 2
125 432 3
125 435 1
125 464 3
125 483 2
125 492 2
125 496 1
125 499 1
125 508 1
126 1 1
126 4 1
126 10 1
126 17 2
126 45 1
126 49 2
126 65 2
126 74 2
126 81 1
126 84 1
126 113 1
126 125 1
126 388 2
126 401 1
126 404 1
126 420 2
126 433 3
126 436 1
126 465 3
126 484 2
126 493 2
126 497 1
126 500 1
126 509 1
127 2 1
127 5 1
127 11 1
127 18 2
127 46 1
127 50 2
127 66 2
127 75 2
127 82 1
127 85 1
127 114 1
127 126 1
127 389 2
127 402 1
127 405 1
127 421 2
127 434 3
127 437 1
127 466 3
127 485 2
127 494 2
127 498 1
127 501 1
127 510 1
128 3 1
128 6 1
128 12 1
128 19 2
128 47 1
128 51 2
128 67 2
128 76 2
128 83 1
128 86 1
128 115 1
128 127 1
128 390 2
128 403 1
128 406 1
128 422 2
128 435 3
128 438 1
128 467 3
128 486 2
128 495 2
128 499 1
128 502 1
128 511 1
