%%MatrixMarket matrix coordinate integer general
% Binary matrix over GF(2).
% Coordinate indices are 1-based; omitted entries are zero.
120 320 1020
1 2 1
1 41 1
1 81 1
1 121 1
1 161 1
1 201 1
1 241 1
1 281 1
2 1 1
2 2 1
2 42 1
2 82 1
2 122 1
2 162 1
2 202 1
2 242 1
2 282 1
3 4 1
3 43 1
3 83 1
3 123 1
3 163 1
3 203 1
3 243 1
3 283 1
4 3 1
4 4 1
4 44 1
4 84 1
4 124 1
4 164 1
4 204 1
4 244 1
4 284 1
5 6 1
5 45 1
5 85 1
5 125 1
5 165 1
5 205 1
5 245 1
5 285 1
6 5 1
6 6 1
6 46 1
6 86 1
6 126 1
6 166 1
6 206 1
6 246 1
6 286 1
7 8 1
7 47 1
7 87 1
7 127 1
7 167 1
7 207 1
7 247 1
7 287 1
8 7 1
8 8 1
8 48 1
8 88 1
8 128 1
8 168 1
8 208 1
8 248 1
8 288 1
9 10 1
9 49 1
9 89 1
9 129 1
9 169 1
9 209 1
9 249 1
9 289 1
10 9 1
10 10 1
10 50 1
10 90 1
10 130 1
10 170 1
10 210 1
10 250 1
10 290 1
11 12 1
11 51 1
11 91 1
11 131 1
11 171 1
11 211 1
11 251 1
11 291 1
12 11 1
12 12 1
12 52 1
12 92 1
12 132 1
12 172 1
12 212 1
12 252 1
12 292 1
13 14 1
13 53 1
13 93 1
13 133 1
13 173 1
13 213 1
13 253 1
13 293 1
14 13 1
14 14 1
14 54 1
14 94 1
14 134 1
14 174 1
14 214 1
14 254 1
14 294 1
15 16 1
15 55 1
15 95 1
15 135 1
15 175 1
15 215 1
15 255 1
15 295 1
16 15 1
16 16 1
16 56 1
16 96 1
16 136 1
16 176 1
16 216 1
16 256 1
16 296 1
17 18 1
17 57 1
17 97 1
17 137 1
17 177 1
17 217 1
17 257 1
17 297 1
18 17 1
18 18 1
18 58 1
18 98 1
18 138 1
18 178 1
18 218 1
18 258 1
18 298 1
19 20 1
19 59 1
19 99 1
19 139 1
19 179 1
19 219 1
19 259 1
19 299 1
20 19 1
20 20 1
20 60 1
20 100 1
20 140 1
20 180 1
20 220 1
20 260 1
20 300 1
21 22 1
21 61 1
21 101 1
21 141 1
21 181 1
21 221 1
21 261 1
21 301 1
22 21 1
22 22 1
22 62 1
22 102 1
22 142 1
22 182 1
22 222 1
22 262 1
22 302 1
23 24 1
23 63 1
23 103 1
23 143 1
23 183 1
23 223 1
23 263 1
23 303 1
24 23 1
24 24 1
24 64 1
24 104 1
24 144 1
24 184 1
24 224 1
24 264 1
24 304 1
25 26 1
25 65 1
25 105 1
25 145 1
25 185 1
25 225 1
25 265 1
25 305 1
26 25 1
26 26 1
26 66 1
26 106 1
26 146 1
26 186 1
26 226 1
26 266 1
26 306 1
27 28 1
27 67 1
27 107 1
27 147 1
27 187 1
27 227 1
27 267 1
27 307 1
28 27 1
28 28 1
28 68 1
28 108 1
28 148 1
28 188 1
28 228 1
28 268 1
28 308 1
29 30 1
29 69 1
29 109 1
29 149 1
29 189 1
29 229 1
29 269 1
29 309 1
30 29 1
30 30 1
30 70 1
30 110 1
30 150 1
30 190 1
30 230 1
30 270 1
30 310 1
31 32 1
31 71 1
31 111 1
31 151 1
31 191 1
31 231 1
31 271 1
31 311 1
32 31 1
32 32 1
32 72 1
32 112 1
32 152 1
32 192 1
32 232 1
32 272 1
32 312 1
33 34 1
33 73 1
33 113 1
33 153 1
33 193 1
33 233 1
33 273 1
33 313 1
34 33 1
34 34 1
34 74 1
34 114 1
34 154 1
34 194 1
34 234 1
34 274 1
34 314 1
35 36 1
35 75 1
35 115 1
35 155 1
35 195 1
35 235 1
35 275 1
35 315 1
36 35 1
36 36 1
36 76 1
36 116 1
36 156 1
36 196 1
36 236 1
36 276 1
36 316 1
37 38 1
37 77 1
37 117 1
37 157 1
37 197 1
37 237 1
37 277 1
37 317 1
38 37 1
38 38 1
38 78 1
38 118 1
38 158 1
38 198 1
38 238 1
38 278 1
38 318 1
39 40 1
39 79 1
39 119 1
39 159 1
39 199 1
39 239 1
39 279 1
39 319 1
40 39 1
40 40 1
40 80 1
40 120 1
40 160 1
40 200 1
40 240 1
40 280 1
40 320 1
41 1 1
41 52 1
41 85 1
41 141 1
41 199 1
41 237 1
41 257 1
41 305 1
42 2 1
42 51 1
42 52 1
42 86 1
42 142 1
42 200 1
42 238 1
42 258 1
42 306 1
43 3 1
43 54 1
43 87 1
43 143 1
43 161 1
43 239 1
43 259 1
43 307 1
44 4 1
44 53 1
44 54 1
44 88 1
44 144 1
44 162 1
44 240 1
44 260 1
44 308 1
45 5 1
45 56 1
45 89 1
45 145 1
45 163 1
45 201 1
45 261 1
45 309 1
46 6 1
46 55 1
46 56 1
46 90 1
46 146 1
46 164 1
46 202 1
46 262 1
46 310 1
47 7 1
47 58 1
47 91 1
47 147 1
47 165 1
47 203 1
47 263 1
47 311 1
48 8 1
48 57 1
48 58 1
48 92 1
48 148 1
48 166 1
48 204 1
48 264 1
48 312 1
49 9 1
49 60 1
49 93 1
49 149 1
49 167 1
49 205 1
49 265 1
49 313 1
50 10 1
50 59 1
50 60 1
50 94 1
50 150 1
50 168 1
50 206 1
50 266 1
50 314 1
51 11 1
51 62 1
51 95 1
51 151 1
51 169 1
51 207 1
51 267 1
51 315 1
52 12 1
52 61 1
52 62 1
52 96 1
52 152 1
52 170 1
52 208 1
52 268 1
52 316 1
53 13 1
53 64 1
53 97 1
53 153 1
53 171 1
53 209 1
53 269 1
53 317 1
54 14 1
54 63 1
54 64 1
54 98 1
54 154 1
54 172 1
54 210 1
54 270 1
54 318 1
55 15 1
55 66 1
55 99 1
55 155 1
55 173 1
55 211 1
55 271 1
55 319 1
56 16 1
56 65 1
56 66 1
56 100 1
56 156 1
56 174 1
56 212 1
56 272 1
56 320 1
57 17 1
57 68 1
57 101 1
57 157 1
57 175 1
57 213 1
57 273 1
57 281 1
58 18 1
58 67 1
58 68 1
58 102 1
58 158 1
58 176 1
58 214 1
58 274 1
58 282 1
59 19 1
59 70 1
59 103 1
59 159 1
59 177 1
59 215 1
59 275 1
59 283 1
60 20 1
60 69 1
60 70 1
60 104 1
60 160 1
60 178 1
60 216 1
60 276 1
60 284 1
61 21 1
61 72 1
61 105 1
61 121 1
61 179 1
61 217 1
61 277 1
61 285 1
62 22 1
62 71 1
62 72 1
62 106 1
62 122 1
62 180 1
62 218 1
62 278 1
62 286 1
63 23 1
63 74 1
63 107 1
63 123 1
63 181 1
63 219 1
63 279 1
63 287 1
64 24 1
64 73 1
64 74 1
64 108 1
64 124 1
64 182 1
64 220 1
64 280 1
64 288 1
65 25 1
65 76 1
65 109 1
65 125 1
65 183 1
65 221 1
65 241 1
65 289 1
66 26 1
66 75 1
66 76 1
66 110 1
66 126 1
66 184 1
66 222 1
66 242 1
66 290 1
67 27 1
67 78 1
67 111 1
67 127 1
67 185 1
67 223 1
67 243 1
67 291 1
68 28 1
68 77 1
68 78 1
68 112 1
68 128 1
68 186 1
68 224 1
68 244 1
68 292 1
69 29 1
69 80 1
69 113 1
69 129 1
69 187 1
69 225 1
69 245 1
69 293 1
70 30 1
70 79 1
70 80 1
70 114 1
70 130 1
70 188 1
70 226 1
70 246 1
70 294 1
71 31 1
71 42 1
71 115 1
71 131 1
71 189 1
71 227 1
71 247 1
71 295 1
72 32 1
72 41 1
72 42 1
72 116 1
72 132 1
72 190 1
72 228 1
72 248 1
72 296 1
73 33 1
73 44 1
73 117 1
73 133 1
73 191 1
73 229 1
73 249 1
73 297 1
74 34 1
74 43 1
74 44 1
74 118 1
74 134 1
74 192 1
74 230 1
74 250 1
74 298 1
75 35 1
75 46 1
75 119 1
75 135 1
75 193 1
75 231 1
75 251 1
75 299 1
76 36 1
76 45 1
76 46 1
76 120 1
76 136 1
76 194 1
76 232 1
76 252 1
76 300 1
77 37 1
77 48 1
77 81 1
77 137 1
77 195 1
77 233 1
77 253 1
77 301 1
78 38 1
78 47 1
78 48 1
78 82 1
78 138 1
78 196 1
78 234 1
78 254 1
78 302 1
79 39 1
79 50 1
79 83 1
79 139 1
79 197 1
79 235 1
79 255 1
79 303 1
80 40 1
80 49 1
80 50 1
80 84 1
80 140 1
80 198 1
80 236 1
80 256 1
80 304 1
81 1 1
81 71 1
81 116 1
81 145 1
81 183 1
81 215 1
81 273 1
81 301 1
82 2 1
82 72 1
82 115 1
82 116 1
82 146 1
82 184 1
82 216 1
82 274 1
82 302 1
83 3 1
83 73 1
83 118 1
83 147 1
83 185 1
83 217 1
83 275 1
83 303 1
84 4 1
84 74 1
84 117 1
84 118 1
84 148 1
84 186 1
84 218 1
84 276 1
84 304 1
85 5 1
85 75 1
85 120 1
85 149 1
85 187 1
85 219 1
85 277 1
85 305 1
86 6 1
86 76 1
86 119 1
86 120 1
86 150 1
86 188 1
86 220 1
86 278 1
86 306 1
87 7 1
87 77 1
87 82 1
87 151 1
87 189 1
87 221 1
87 279 1
87 307 1
88 8 1
88 78 1
88 81 1
88 82 1
88 152 1
88 190 1
88 222 1
88 280 1
88 308 1
89 9 1
89 79 1
89 84 1
89 153 1
89 191 1
89 223 1
89 241 1
89 309 1
90 10 1
90 80 1
90 83 1
90 84 1
90 154 1
90 192 1
90 224 1
90 242 1
90 310 1
91 11 1
91 41 1
91 86 1
91 155 1
91 193 1
91 225 1
91 243 1
91 311 1
92 12 1
92 42 1
92 85 1
92 86 1
92 156 1
92 194 1
92 226 1
92 244 1
92 312 1
93 13 1
93 43 1
93 88 1
93 157 1
93 195 1
93 227 1
93 245 1
93 313 1
94 14 1
94 44 1
94 87 1
94 88 1
94 158 1
94 196 1
94 228 1
94 246 1
94 314 1
95 15 1
95 45 1
95 90 1
95 159 1
95 197 1
95 229 1
95 247 1
95 315 1
96 16 1
96 46 1
96 89 1
96 90 1
96 160 1
96 198 1
96 230 1
96 248 1
96 316 1
97 17 1
97 47 1
97 92 1
97 121 1
97 199 1
97 231 1
97 249 1
97 317 1
98 18 1
98 48 1
98 91 1
98 92 1
98 122 1
98 200 1
98 232 1
98 250 1
98 318 1
99 19 1
99 49 1
99 94 1
99 123 1
99 161 1
99 233 1
99 251 1
99 319 1
100 20 1
100 50 1
100 93 1
100 94 1
100 124 1
100 162 1
100 234 1
100 252 1
100 320 1
101 21 1
101 51 1
101 96 1
101 125 1
101 163 1
101 235 1
101 253 1
101 281 1
102 22 1
102 52 1
102 95 1
102 96 1
102 126 1
102 164 1
102 236 1
102 254 1
102 282 1
103 23 1
103 53 1
103 98 1
103 127 1
103 165 1
103 237 1
103 255 1
103 283 1
104 24 1
104 54 1
104 97 1
104 98 1
104 128 1
104 166 1
104 238 1
104 256 1
104 284 1
105 25 1
105 55 1
105 100 1
105 129 1
105 167 1
105 239 1
105 257 1
105 285 1
106 26 1
106 56 1
106 99 1
106 100 1
106 130 1
106 168 1
106 240 1
106 258 1
106 286 1
107 27 1
107 57 1
107 102 1
107 131 1
107 169 1
107 201 1
107 259 1
107 287 1
108 28 1
108 58 1
108 101 1
108 102 1
108 132 1
108 170 1
108 202 1
108 260 1
108 288 1
109 29 1
109 59 1
109 104 1
109 133 1
109 171 1
109 203 1
109 261 1
109 289 1
110 30 1
110 60 1
110 103 1
110 104 1
110 134 1
110 172 1
110 204 1
110 262 1
110 290 1
111 31 1
111 61 1
111 106 1
111 135 1
111 173 1
111 205 1
111 263 1
111 291 1
112 32 1
112 62 1
112 105 1
112 106 1
112 136 1
112 174 1
112 206 1
112 264 1
112 292 1
113 33 1
113 63 1
113 108 1
113 137 1
113 175 1
113 207 1
113 265 1
113 293 1
114 34 1
114 64 1
114 107 1
114 108 1
114 138 1
114 176 1
114 208 1
114 266 1
114 294 1
115 35 1
115 65 1
115 110 1
115 139 1
115 177 1
115 209 1
115 267 1
115 295 1
116 36 1
116 66 1
116 109 1
116 110 1
116 140 1
116 178 1
116 210 1
116 268 1
116 296 1
117 37 1
117 67 1
117 112 1
117 141 1
117 179 1
117 211 1
117 269 1
117 297 1
118 38 1
118 68 1
118 111 1
118 112 1
118 142 1
118 180 1
118 212 1
118 270 1
118 298 1
119 39 1
119 69 1
119 114 1
119 143 1
119 181 1
119 213 1
119 271 1
119 299 1
120 40 1
120 70 1
120 113 1
120 114 1
120 144 1
120 182 1
120 214 1
120 272 1
120 300 1
