%%MatrixMarket matrix coordinate integer general
% GF(4) labels 0,1,2=omega,3=omega+1; arithmetic is NOT integer arithmetic.
% Coordinate indices are 1-based; omitted entries are zero.
60 160 480
1 1 2
1 21 1
1 41 1
1 61 1
1 81 1
1 101 1
1 121 1
1 141 1
2 2 2
2 22 1
2 42 1
2 62 1
2 82 1
2 102 1
2 122 1
2 142 1
3 3 2
3 23 1
3 43 1
3 63 1
3 83 1
3 103 1
3 123 1
3 143 1
4 4 2
4 24 1
4 44 1
4 64 1
4 84 1
4 104 1
4 124 1
4 144 1
5 5 2
5 25 1
5 45 1
5 65 1
5 85 1
5 105 1
5 125 1
5 145 1
6 6 2
6 26 1
6 46 1
6 66 1
6 86 1
6 106 1
6 126 1
6 146 1
7 7 2
7 27 1
7 47 1
7 67 1
7 87 1
7 107 1
7 127 1
7 147 1
8 8 2
8 28 1
8 48 1
8 68 1
8 88 1
8 108 1
8 128 1
8 148 1
9 9 2
9 29 1
9 49 1
9 69 1
9 89 1
9 109 1
9 129 1
9 149 1
10 10 2
10 30 1
10 50 1
10 70 1
10 90 1
10 110 1
10 130 1
10 150 1
11 11 2
11 31 1
11 51 1
11 71 1
11 91 1
11 111 1
11 131 1
11 151 1
12 12 2
12 32 1
12 52 1
12 72 1
12 92 1
12 112 1
12 132 1
12 152 1
13 13 2
13 33 1
13 53 1
13 73 1
13 93 1
13 113 1
13 133 1
13 153 1
14 14 2
14 34 1
14 54 1
14 74 1
14 94 1
14 114 1
14 134 1
14 154 1
15 15 2
15 35 1
15 55 1
15 75 1
15 95 1
15 115 1
15 135 1
15 155 1
16 16 2
16 36 1
16 56 1
16 76 1
16 96 1
16 116 1
16 136 1
16 156 1
17 17 2
17 37 1
17 57 1
17 77 1
17 97 1
17 117 1
17 137 1
17 157 1
18 18 2
18 38 1
18 58 1
18 78 1
18 98 1
18 118 1
18 138 1
18 158 1
19 19 2
19 39 1
19 59 1
19 79 1
19 99 1
19 119 1
19 139 1
19 159 1
20 20 2
20 40 1
20 60 1
20 80 1
20 100 1
20 120 1
20 140 1
20 160 1
21 1 1
21 26 2
21 43 1
21 71 1
21 100 1
21 119 1
21 129 1
21 153 1
22 2 1
22 27 2
22 44 1
22 72 1
22 81 1
22 120 1
22 130 1
22 154 1
23 3 1
23 28 2
23 45 1
23 73 1
23 82 1
23 101 1
23 131 1
23 155 1
24 4 1
24 29 2
24 46 1
24 74 1
24 83 1
24 102 1
24 132 1
24 156 1
25 5 1
25 30 2
25 47 1
25 75 1
25 84 1
25 103 1
25 133 1
25 157 1
26 6 1
26 31 2
26 48 1
26 76 1
26 85 1
26 104 1
26 134 1
26 158 1
27 7 1
27 32 2
27 49 1
27 77 1
27 86 1
27 105 1
27 135 1
27 159 1
28 8 1
28 33 2
28 50 1
28 78 1
28 87 1
28 106 1
28 136 1
28 160 1
29 9 1
29 34 2
29 51 1
29 79 1
29 88 1
29 107 1
29 137 1
29 141 1
30 10 1
30 35 2
30 52 1
30 80 1
30 89 1
30 108 1
30 138 1
30 142 1
31 11 1
31 36 2
31 53 1
31 61 1
31 90 1
31 109 1
31 139 1
31 143 1
32 12 1
32 37 2
32 54 1
32 62 1
32 91 1
32 110 1
32 140 1
32 144 1
33 13 1
33 38 2
33 55 1
33 63 1
33 92 1
33 111 1
33 121 1
33 145 1
34 14 1
34 39 2
34 56 1
34 64 1
34 93 1
34 112 1
34 122 1
34 146 1
35 15 1
35 40 2
35 57 1
35 65 1
35 94 1
35 113 1
35 123 1
35 147 1
36 16 1
36 21 2
36 58 1
36 66 1
36 95 1
36 114 1
36 124 1
36 148 1
37 17 1
37 22 2
37 59 1
37 67 1
37 96 1
37 115 1
37 125 1
37 149 1
38 18 1
38 23 2
38 60 1
38 68 1
38 97 1
38 116 1
38 126 1
38 150 1
39 19 1
39 24 2
39 41 1
39 69 1
39 98 1
39 117 1
39 127 1
39 151 1
40 20 1
40 25 2
40 42 1
40 70 1
40 99 1
40 118 1
40 128 1
40 152 1
41 1 1
41 36 1
41 58 2
41 73 1
41 92 1
41 108 1
41 137 1
41 151 1
42 2 1
42 37 1
42 59 2
42 74 1
42 93 1
42 109 1
42 138 1
42 152 1
43 3 1
43 38 1
43 60 2
43 75 1
43 94 1
43 110 1
43 139 1
43 153 1
44 4 1
44 39 1
44 41 2
44 76 1
44 95 1
44 111 1
44 140 1
44 154 1
45 5 1
45 40 1
45 42 2
45 77 1
45 96 1
45 112 1
45 121 1
45 155 1
46 6 1
46 21 1
46 43 2
46 78 1
46 97 1
46 113 1
46 122 1
46 156 1
47 7 1
47 22 1
47 44 2
47 79 1
47 98 1
47 114 1
47 123 1
47 157 1
48 8 1
48 23 1
48 45 2
48 80 1
48 99 1
48 115 1
48 124 1
48 158 1
49 9 1
49 24 1
49 46 2
49 61 1
49 100 1
49 116 1
49 125 1
49 159 1
50 10 1
50 25 1
50 47 2
50 62 1
50 81 1
50 117 1
50 126 1
50 160 1
51 11 1
51 26 1
51 48 2
51 63 1
51 82 1
51 118 1
51 127 1
51 141 1
52 12 1
52 27 1
52 49 2
52 64 1
52 83 1
52 119 1
52 128 1
52 142 1
53 13 1
53 28 1
53 50 2
53 65 1
53 84 1
53 120 1
53 129 1
53 143 1
54 14 1
54 29 1
54 51 2
54 66 1
54 85 1
54 101 1
54 130 1
54 144 1
55 15 1
55 30 1
55 52 2
55 67 1
55 86 1
55 102 1
55 131 1
55 145 1
56 16 1
56 31 1
56 53 2
56 68 1
56 87 1
56 103 1
56 132 1
56 146 1
57 17 1
57 32 1
57 54 2
57 69 1
57 88 1
57 104 1
57 133 1
57 147 1
58 18 1
58 33 1
58 55 2
58 70 1
58 89 1
58 105 1
58 134 1
58 148 1
59 19 1
59 34 1
59 56 2
59 71 1
59 90 1
59 106 1
59 135 1
59 149 1
60 20 1
60 35 1
60 57 2
60 72 1
60 91 1
60 107 1
60 136 1
60 150 1
