%%MatrixMarket matrix coordinate integer general
% Binary matrix over GF(2).
% Coordinate indices are 1-based; omitted entries are zero.
120 320 1020
1 1 1
1 53 1
1 93 1
1 157 1
1 162 1
1 237 1
1 273 1
1 313 1
2 2 1
2 54 1
2 94 1
2 158 1
2 161 1
2 162 1
2 238 1
2 274 1
2 314 1
3 3 1
3 55 1
3 95 1
3 159 1
3 164 1
3 239 1
3 275 1
3 315 1
4 4 1
4 56 1
4 96 1
4 160 1
4 163 1
4 164 1
4 240 1
4 276 1
4 316 1
5 5 1
5 57 1
5 97 1
5 121 1
5 166 1
5 201 1
5 277 1
5 317 1
6 6 1
6 58 1
6 98 1
6 122 1
6 165 1
6 166 1
6 202 1
6 278 1
6 318 1
7 7 1
7 59 1
7 99 1
7 123 1
7 168 1
7 203 1
7 279 1
7 319 1
8 8 1
8 60 1
8 100 1
8 124 1
8 167 1
8 168 1
8 204 1
8 280 1
8 320 1
9 9 1
9 61 1
9 101 1
9 125 1
9 170 1
9 205 1
9 241 1
9 281 1
10 10 1
10 62 1
10 102 1
10 126 1
10 169 1
10 170 1
10 206 1
10 242 1
10 282 1
11 11 1
11 63 1
11 103 1
11 127 1
11 172 1
11 207 1
11 243 1
11 283 1
12 12 1
12 64 1
12 104 1
12 128 1
12 171 1
12 172 1
12 208 1
12 244 1
12 284 1
13 13 1
13 65 1
13 105 1
13 129 1
13 174 1
13 209 1
13 245 1
13 285 1
14 14 1
14 66 1
14 106 1
14 130 1
14 173 1
14 174 1
14 210 1
14 246 1
14 286 1
15 15 1
15 67 1
15 107 1
15 131 1
15 176 1
15 211 1
15 247 1
15 287 1
16 16 1
16 68 1
16 108 1
16 132 1
16 175 1
16 176 1
16 212 1
16 248 1
16 288 1
17 17 1
17 69 1
17 109 1
17 133 1
17 178 1
17 213 1
17 249 1
17 289 1
18 18 1
18 70 1
18 110 1
18 134 1
18 177 1
18 178 1
18 214 1
18 250 1
18 290 1
19 19 1
19 71 1
19 111 1
19 135 1
19 180 1
19 215 1
19 251 1
19 291 1
20 20 1
20 72 1
20 112 1
20 136 1
20 179 1
20 180 1
20 216 1
20 252 1
20 292 1
21 21 1
21 73 1
21 113 1
21 137 1
21 182 1
21 217 1
21 253 1
21 293 1
22 22 1
22 74 1
22 114 1
22 138 1
22 181 1
22 182 1
22 218 1
22 254 1
22 294 1
23 23 1
23 75 1
23 115 1
23 139 1
23 184 1
23 219 1
23 255 1
23 295 1
24 24 1
24 76 1
24 116 1
24 140 1
24 183 1
24 184 1
24 220 1
24 256 1
24 296 1
25 25 1
25 77 1
25 117 1
25 141 1
25 186 1
25 221 1
25 257 1
25 297 1
26 26 1
26 78 1
26 118 1
26 142 1
26 185 1
26 186 1
26 222 1
26 258 1
26 298 1
27 27 1
27 79 1
27 119 1
27 143 1
27 188 1
27 223 1
27 259 1
27 299 1
28 28 1
28 80 1
28 120 1
28 144 1
28 187 1
28 188 1
28 224 1
28 260 1
28 300 1
29 29 1
29 41 1
29 81 1
29 145 1
29 190 1
29 225 1
29 261 1
29 301 1
30 30 1
30 42 1
30 82 1
30 146 1
30 189 1
30 190 1
30 226 1
30 262 1
30 302 1
31 31 1
31 43 1
31 83 1
31 147 1
31 192 1
31 227 1
31 263 1
31 303 1
32 32 1
32 44 1
32 84 1
32 148 1
32 191 1
32 192 1
32 228 1
32 264 1
32 304 1
33 33 1
33 45 1
33 85 1
33 149 1
33 194 1
33 229 1
33 265 1
33 305 1
34 34 1
34 46 1
34 86 1
34 150 1
34 193 1
34 194 1
34 230 1
34 266 1
34 306 1
35 35 1
35 47 1
35 87 1
35 151 1
35 196 1
35 231 1
35 267 1
35 307 1
36 36 1
36 48 1
36 88 1
36 152 1
36 195 1
36 196 1
36 232 1
36 268 1
36 308 1
37 37 1
37 49 1
37 89 1
37 153 1
37 198 1
37 233 1
37 269 1
37 309 1
38 38 1
38 50 1
38 90 1
38 154 1
38 197 1
38 198 1
38 234 1
38 270 1
38 310 1
39 39 1
39 51 1
39 91 1
39 155 1
39 200 1
39 235 1
39 271 1
39 311 1
40 40 1
40 52 1
40 92 1
40 156 1
40 199 1
40 200 1
40 236 1
40 272 1
40 312 1
41 1 1
41 55 1
41 101 1
41 137 1
41 175 1
41 202 1
41 257 1
41 301 1
42 2 1
42 56 1
42 102 1
42 138 1
42 176 1
42 201 1
42 202 1
42 258 1
42 302 1
43 3 1
43 57 1
43 103 1
43 139 1
43 177 1
43 204 1
43 259 1
43 303 1
44 4 1
44 58 1
44 104 1
44 140 1
44 178 1
44 203 1
44 204 1
44 260 1
44 304 1
45 5 1
45 59 1
45 105 1
45 141 1
45 179 1
45 206 1
45 261 1
45 305 1
46 6 1
46 60 1
46 106 1
46 142 1
46 180 1
46 205 1
46 206 1
46 262 1
46 306 1
47 7 1
47 61 1
47 107 1
47 143 1
47 181 1
47 208 1
47 263 1
47 307 1
48 8 1
48 62 1
48 108 1
48 144 1
48 182 1
48 207 1
48 208 1
48 264 1
48 308 1
49 9 1
49 63 1
49 109 1
49 145 1
49 183 1
49 210 1
49 265 1
49 309 1
50 10 1
50 64 1
50 110 1
50 146 1
50 184 1
50 209 1
50 210 1
50 266 1
50 310 1
51 11 1
51 65 1
51 111 1
51 147 1
51 185 1
51 212 1
51 267 1
51 311 1
52 12 1
52 66 1
52 112 1
52 148 1
52 186 1
52 211 1
52 212 1
52 268 1
52 312 1
53 13 1
53 67 1
53 113 1
53 149 1
53 187 1
53 214 1
53 269 1
53 313 1
54 14 1
54 68 1
54 114 1
54 150 1
54 188 1
54 213 1
54 214 1
54 270 1
54 314 1
55 15 1
55 69 1
55 115 1
55 151 1
55 189 1
55 216 1
55 271 1
55 315 1
56 16 1
56 70 1
56 116 1
56 152 1
56 190 1
56 215 1
56 216 1
56 272 1
56 316 1
57 17 1
57 71 1
57 117 1
57 153 1
57 191 1
57 218 1
57 273 1
57 317 1
58 18 1
58 72 1
58 118 1
58 154 1
58 192 1
58 217 1
58 218 1
58 274 1
58 318 1
59 19 1
59 73 1
59 119 1
59 155 1
59 193 1
59 220 1
59 275 1
59 319 1
60 20 1
60 74 1
60 120 1
60 156 1
60 194 1
60 219 1
60 220 1
60 276 1
60 320 1
61 21 1
61 75 1
61 81 1
61 157 1
61 195 1
61 222 1
61 277 1
61 281 1
62 22 1
62 76 1
62 82 1
62 158 1
62 196 1
62 221 1
62 222 1
62 278 1
62 282 1
63 23 1
63 77 1
63 83 1
63 159 1
63 197 1
63 224 1
63 279 1
63 283 1
64 24 1
64 78 1
64 84 1
64 160 1
64 198 1
64 223 1
64 224 1
64 280 1
64 284 1
65 25 1
65 79 1
65 85 1
65 121 1
65 199 1
65 226 1
65 241 1
65 285 1
66 26 1
66 80 1
66 86 1
66 122 1
66 200 1
66 225 1
66 226 1
66 242 1
66 286 1
67 27 1
67 41 1
67 87 1
67 123 1
67 161 1
67 228 1
67 243 1
67 287 1
68 28 1
68 42 1
68 88 1
68 124 1
68 162 1
68 227 1
68 228 1
68 244 1
68 288 1
69 29 1
69 43 1
69 89 1
69 125 1
69 163 1
69 230 1
69 245 1
69 289 1
70 30 1
70 44 1
70 90 1
70 126 1
70 164 1
70 229 1
70 230 1
70 246 1
70 290 1
71 31 1
71 45 1
71 91 1
71 127 1
71 165 1
71 232 1
71 247 1
71 291 1
72 32 1
72 46 1
72 92 1
72 128 1
72 166 1
72 231 1
72 232 1
72 248 1
72 292 1
73 33 1
73 47 1
73 93 1
73 129 1
73 167 1
73 234 1
73 249 1
73 293 1
74 34 1
74 48 1
74 94 1
74 130 1
74 168 1
74 233 1
74 234 1
74 250 1
74 294 1
75 35 1
75 49 1
75 95 1
75 131 1
75 169 1
75 236 1
75 251 1
75 295 1
76 36 1
76 50 1
76 96 1
76 132 1
76 170 1
76 235 1
76 236 1
76 252 1
76 296 1
77 37 1
77 51 1
77 97 1
77 133 1
77 171 1
77 238 1
77 253 1
77 297 1
78 38 1
78 52 1
78 98 1
78 134 1
78 172 1
78 237 1
78 238 1
78 254 1
78 298 1
79 39 1
79 53 1
79 99 1
79 135 1
79 173 1
79 240 1
79 255 1
79 299 1
80 40 1
80 54 1
80 100 1
80 136 1
80 174 1
80 239 1
80 240 1
80 256 1
80 300 1
81 1 1
81 75 1
81 83 1
81 145 1
81 163 1
81 235 1
81 242 1
81 305 1
82 2 1
82 76 1
82 84 1
82 146 1
82 164 1
82 236 1
82 241 1
82 242 1
82 306 1
83 3 1
83 77 1
83 85 1
83 147 1
83 165 1
83 237 1
83 244 1
83 307 1
84 4 1
84 78 1
84 86 1
84 148 1
84 166 1
84 238 1
84 243 1
84 244 1
84 308 1
85 5 1
85 79 1
85 87 1
85 149 1
85 167 1
85 239 1
85 246 1
85 309 1
86 6 1
86 80 1
86 88 1
86 150 1
86 168 1
86 240 1
86 245 1
86 246 1
86 310 1
87 7 1
87 41 1
87 89 1
87 151 1
87 169 1
87 201 1
87 248 1
87 311 1
88 8 1
88 42 1
88 90 1
88 152 1
88 170 1
88 202 1
88 247 1
88 248 1
88 312 1
89 9 1
89 43 1
89 91 1
89 153 1
89 171 1
89 203 1
89 250 1
89 313 1
90 10 1
90 44 1
90 92 1
90 154 1
90 172 1
90 204 1
90 249 1
90 250 1
90 314 1
91 11 1
91 45 1
91 93 1
91 155 1
91 173 1
91 205 1
91 252 1
91 315 1
92 12 1
92 46 1
92 94 1
92 156 1
92 174 1
92 206 1
92 251 1
92 252 1
92 316 1
93 13 1
93 47 1
93 95 1
93 157 1
93 175 1
93 207 1
93 254 1
93 317 1
94 14 1
94 48 1
94 96 1
94 158 1
94 176 1
94 208 1
94 253 1
94 254 1
94 318 1
95 15 1
95 49 1
95 97 1
95 159 1
95 177 1
95 209 1
95 256 1
95 319 1
96 16 1
96 50 1
96 98 1
96 160 1
96 178 1
96 210 1
96 255 1
96 256 1
96 320 1
97 17 1
97 51 1
97 99 1
97 121 1
97 179 1
97 211 1
97 258 1
97 281 1
98 18 1
98 52 1
98 100 1
98 122 1
98 180 1
98 212 1
98 257 1
98 258 1
98 282 1
99 19 1
99 53 1
99 101 1
99 123 1
99 181 1
99 213 1
99 260 1
99 283 1
100 20 1
100 54 1
100 102 1
100 124 1
100 182 1
100 214 1
100 259 1
100 260 1
100 284 1
101 21 1
101 55 1
101 103 1
101 125 1
101 183 1
101 215 1
101 262 1
101 285 1
102 22 1
102 56 1
102 104 1
102 126 1
102 184 1
102 216 1
102 261 1
102 262 1
102 286 1
103 23 1
103 57 1
103 105 1
103 127 1
103 185 1
103 217 1
103 264 1
103 287 1
104 24 1
104 58 1
104 106 1
104 128 1
104 186 1
104 218 1
104 263 1
104 264 1
104 288 1
105 25 1
105 59 1
105 107 1
105 129 1
105 187 1
105 219 1
105 266 1
105 289 1
106 26 1
106 60 1
106 108 1
106 130 1
106 188 1
106 220 1
106 265 1
106 266 1
106 290 1
107 27 1
107 61 1
107 109 1
107 131 1
107 189 1
107 221 1
107 268 1
107 291 1
108 28 1
108 62 1
108 110 1
108 132 1
108 190 1
108 222 1
108 267 1
108 268 1
108 292 1
109 29 1
109 63 1
109 111 1
109 133 1
109 191 1
109 223 1
109 270 1
109 293 1
110 30 1
110 64 1
110 112 1
110 134 1
110 192 1
110 224 1
110 269 1
110 270 1
110 294 1
111 31 1
111 65 1
111 113 1
111 135 1
111 193 1
111 225 1
111 272 1
111 295 1
112 32 1
112 66 1
112 114 1
112 136 1
112 194 1
112 226 1
112 271 1
112 272 1
112 296 1
113 33 1
113 67 1
113 115 1
113 137 1
113 195 1
113 227 1
113 274 1
113 297 1
114 34 1
114 68 1
114 116 1
114 138 1
114 196 1
114 228 1
114 273 1
114 274 1
114 298 1
115 35 1
115 69 1
115 117 1
115 139 1
115 197 1
115 229 1
115 276 1
115 299 1
116 36 1
116 70 1
116 118 1
116 140 1
116 198 1
116 230 1
116 275 1
116 276 1
116 300 1
117 37 1
117 71 1
117 119 1
117 141 1
117 199 1
117 231 1
117 278 1
117 301 1
118 38 1
118 72 1
118 120 1
118 142 1
118 200 1
118 232 1
118 277 1
118 278 1
118 302 1
119 39 1
119 73 1
119 81 1
119 143 1
119 161 1
119 233 1
119 280 1
119 303 1
120 40 1
120 74 1
120 82 1
120 144 1
120 162 1
120 234 1
120 279 1
120 280 1
120 304 1
