%%MatrixMarket matrix coordinate integer general
% GF(4) labels 0,1,2=omega,3=omega+1; arithmetic is NOT integer arithmetic.
% Coordinate indices are 1-based; omitted entries are zero.
60 160 480
1 1 1
1 27 1
1 47 1
1 79 1
1 81 2
1 119 1
1 137 1
1 157 1
2 2 1
2 28 1
2 48 1
2 80 1
2 82 2
2 120 1
2 138 1
2 158 1
3 3 1
3 29 1
3 49 1
3 61 1
3 83 2
3 101 1
3 139 1
3 159 1
4 4 1
4 30 1
4 50 1
4 62 1
4 84 2
4 102 1
4 140 1
4 160 1
5 5 1
5 31 1
5 51 1
5 63 1
5 85 2
5 103 1
5 121 1
5 141 1
6 6 1
6 32 1
6 52 1
6 64 1
6 86 2
6 104 1
6 122 1
6 142 1
7 7 1
7 33 1
7 53 1
7 65 1
7 87 2
7 105 1
7 123 1
7 143 1
8 8 1
8 34 1
8 54 1
8 66 1
8 88 2
8 106 1
8 124 1
8 144 1
9 9 1
9 35 1
9 55 1
9 67 1
9 89 2
9 107 1
9 125 1
9 145 1
10 10 1
10 36 1
10 56 1
10 68 1
10 90 2
10 108 1
10 126 1
10 146 1
11 11 1
11 37 1
11 57 1
11 69 1
11 91 2
11 109 1
11 127 1
11 147 1
12 12 1
12 38 1
12 58 1
12 70 1
12 92 2
12 110 1
12 128 1
12 148 1
13 13 1
13 39 1
13 59 1
13 71 1
13 93 2
13 111 1
13 129 1
13 149 1
14 14 1
14 40 1
14 60 1
14 72 1
14 94 2
14 112 1
14 130 1
14 150 1
15 15 1
15 21 1
15 41 1
15 73 1
15 95 2
15 113 1
15 131 1
15 151 1
16 16 1
16 22 1
16 42 1
16 74 1
16 96 2
16 114 1
16 132 1
16 152 1
17 17 1
17 23 1
17 43 1
17 75 1
17 97 2
17 115 1
17 133 1
17 153 1
18 18 1
18 24 1
18 44 1
18 76 1
18 98 2
18 116 1
18 134 1
18 154 1
19 19 1
19 25 1
19 45 1
19 77 1
19 99 2
19 117 1
19 135 1
19 155 1
20 20 1
20 26 1
20 46 1
20 78 1
20 100 2
20 118 1
20 136 1
20 156 1
21 1 1
21 28 1
21 51 1
21 69 1
21 88 1
21 101 2
21 129 1
21 151 1
22 2 1
22 29 1
22 52 1
22 70 1
22 89 1
22 102 2
22 130 1
22 152 1
23 3 1
23 30 1
23 53 1
23 71 1
23 90 1
23 103 2
23 131 1
23 153 1
24 4 1
24 31 1
24 54 1
24 72 1
24 91 1
24 104 2
24 132 1
24 154 1
25 5 1
25 32 1
25 55 1
25 73 1
25 92 1
25 105 2
25 133 1
25 155 1
26 6 1
26 33 1
26 56 1
26 74 1
26 93 1
26 106 2
26 134 1
26 156 1
27 7 1
27 34 1
27 57 1
27 75 1
27 94 1
27 107 2
27 135 1
27 157 1
28 8 1
28 35 1
28 58 1
28 76 1
28 95 1
28 108 2
28 136 1
28 158 1
29 9 1
29 36 1
29 59 1
29 77 1
29 96 1
29 109 2
29 137 1
29 159 1
30 10 1
30 37 1
30 60 1
30 78 1
30 97 1
30 110 2
30 138 1
30 160 1
31 11 1
31 38 1
31 41 1
31 79 1
31 98 1
31 111 2
31 139 1
31 141 1
32 12 1
32 39 1
32 42 1
32 80 1
32 99 1
32 112 2
32 140 1
32 142 1
33 13 1
33 40 1
33 43 1
33 61 1
33 100 1
33 113 2
33 121 1
33 143 1
34 14 1
34 21 1
34 44 1
34 62 1
34 81 1
34 114 2
34 122 1
34 144 1
35 15 1
35 22 1
35 45 1
35 63 1
35 82 1
35 115 2
35 123 1
35 145 1
36 16 1
36 23 1
36 46 1
36 64 1
36 83 1
36 116 2
36 124 1
36 146 1
37 17 1
37 24 1
37 47 1
37 65 1
37 84 1
37 117 2
37 125 1
37 147 1
38 18 1
38 25 1
38 48 1
38 66 1
38 85 1
38 118 2
38 126 1
38 148 1
39 19 1
39 26 1
39 49 1
39 67 1
39 86 1
39 119 2
39 127 1
39 149 1
40 20 1
40 27 1
40 50 1
40 68 1
40 87 1
40 120 2
40 128 1
40 150 1
41 1 1
41 38 1
41 42 1
41 73 1
41 82 1
41 118 1
41 121 2
41 153 1
42 2 1
42 39 1
42 43 1
42 74 1
42 83 1
42 119 1
42 122 2
42 154 1
43 3 1
43 40 1
43 44 1
43 75 1
43 84 1
43 120 1
43 123 2
43 155 1
44 4 1
44 21 1
44 45 1
44 76 1
44 85 1
44 101 1
44 124 2
44 156 1
45 5 1
45 22 1
45 46 1
45 77 1
45 86 1
45 102 1
45 125 2
45 157 1
46 6 1
46 23 1
46 47 1
46 78 1
46 87 1
46 103 1
46 126 2
46 158 1
47 7 1
47 24 1
47 48 1
47 79 1
47 88 1
47 104 1
47 127 2
47 159 1
48 8 1
48 25 1
48 49 1
48 80 1
48 89 1
48 105 1
48 128 2
48 160 1
49 9 1
49 26 1
49 50 1
49 61 1
49 90 1
49 106 1
49 129 2
49 141 1
50 10 1
50 27 1
50 51 1
50 62 1
50 91 1
50 107 1
50 130 2
50 142 1
51 11 1
51 28 1
51 52 1
51 63 1
51 92 1
51 108 1
51 131 2
51 143 1
52 12 1
52 29 1
52 53 1
52 64 1
52 93 1
52 109 1
52 132 2
52 144 1
53 13 1
53 30 1
53 54 1
53 65 1
53 94 1
53 110 1
53 133 2
53 145 1
54 14 1
54 31 1
54 55 1
54 66 1
54 95 1
54 111 1
54 134 2
54 146 1
55 15 1
55 32 1
55 56 1
55 67 1
55 96 1
55 112 1
55 135 2
55 147 1
56 16 1
56 33 1
56 57 1
56 68 1
56 97 1
56 113 1
56 136 2
56 148 1
57 17 1
57 34 1
57 58 1
57 69 1
57 98 1
57 114 1
57 137 2
57 149 1
58 18 1
58 35 1
58 59 1
58 70 1
58 99 1
58 115 1
58 138 2
58 150 1
59 19 1
59 36 1
59 60 1
59 71 1
59 100 1
59 116 1
59 139 2
59 151 1
60 20 1
60 37 1
60 41 1
60 72 1
60 81 1
60 117 1
60 140 2
60 152 1
