%%MatrixMarket matrix coordinate integer general
% Binary matrix over GF(2).
% Coordinate indices are 1-based; omitted entries are zero.
80 320 1780
1 127 1
1 147 1
1 148 1
1 165 1
1 185 1
1 189 1
1 195 1
1 196 1
1 199 1
1 200 1
1 201 1
1 211 1
1 212 1
1 226 1
1 227 1
1 228 1
1 232 1
1 243 1
1 247 1
1 248 1
1 258 1
1 267 1
1 268 1
1 271 1
1 277 1
1 278 1
2 129 1
2 149 1
2 150 1
2 161 1
2 162 1
2 167 1
2 187 1
2 191 1
2 197 1
2 198 1
2 203 1
2 213 1
2 214 1
2 228 1
2 229 1
2 230 1
2 234 1
2 245 1
2 249 1
2 250 1
2 260 1
2 269 1
2 270 1
2 273 1
2 279 1
2 280 1
3 131 1
3 151 1
3 152 1
3 163 1
3 164 1
3 169 1
3 189 1
3 193 1
3 199 1
3 200 1
3 205 1
3 215 1
3 216 1
3 230 1
3 231 1
3 232 1
3 236 1
3 241 1
3 242 1
3 247 1
3 251 1
3 252 1
3 262 1
3 271 1
3 272 1
3 275 1
4 133 1
4 153 1
4 154 1
4 161 1
4 162 1
4 165 1
4 166 1
4 171 1
4 191 1
4 195 1
4 207 1
4 217 1
4 218 1
4 232 1
4 233 1
4 234 1
4 238 1
4 243 1
4 244 1
4 249 1
4 253 1
4 254 1
4 264 1
4 273 1
4 274 1
4 277 1
5 135 1
5 155 1
5 156 1
5 163 1
5 164 1
5 167 1
5 168 1
5 173 1
5 193 1
5 197 1
5 209 1
5 219 1
5 220 1
5 234 1
5 235 1
5 236 1
5 240 1
5 245 1
5 246 1
5 251 1
5 255 1
5 256 1
5 266 1
5 275 1
5 276 1
5 279 1
6 137 1
6 157 1
6 158 1
6 165 1
6 166 1
6 169 1
6 170 1
6 175 1
6 195 1
6 199 1
6 202 1
6 211 1
6 221 1
6 222 1
6 236 1
6 237 1
6 238 1
6 241 1
6 247 1
6 248 1
6 253 1
6 257 1
6 258 1
6 268 1
6 277 1
6 278 1
7 139 1
7 159 1
7 160 1
7 161 1
7 167 1
7 168 1
7 171 1
7 172 1
7 177 1
7 197 1
7 204 1
7 213 1
7 223 1
7 224 1
7 238 1
7 239 1
7 240 1
7 243 1
7 249 1
7 250 1
7 255 1
7 259 1
7 260 1
7 270 1
7 279 1
7 280 1
8 121 1
8 122 1
8 141 1
8 163 1
8 169 1
8 170 1
8 173 1
8 174 1
8 179 1
8 199 1
8 201 1
8 202 1
8 206 1
8 215 1
8 225 1
8 226 1
8 240 1
8 241 1
8 242 1
8 245 1
8 251 1
8 252 1
8 257 1
8 261 1
8 262 1
8 272 1
9 123 1
9 124 1
9 143 1
9 161 1
9 165 1
9 171 1
9 172 1
9 175 1
9 176 1
9 181 1
9 202 1
9 203 1
9 204 1
9 208 1
9 217 1
9 227 1
9 228 1
9 243 1
9 244 1
9 247 1
9 253 1
9 254 1
9 259 1
9 263 1
9 264 1
9 274 1
10 125 1
10 126 1
10 145 1
10 163 1
10 167 1
10 173 1
10 174 1
10 177 1
10 178 1
10 183 1
10 204 1
10 205 1
10 206 1
10 210 1
10 219 1
10 229 1
10 230 1
10 245 1
10 246 1
10 249 1
10 255 1
10 256 1
10 261 1
10 265 1
10 266 1
10 276 1
11 127 1
11 128 1
11 147 1
11 165 1
11 169 1
11 175 1
11 176 1
11 179 1
11 180 1
11 185 1
11 206 1
11 207 1
11 208 1
11 212 1
11 221 1
11 231 1
11 232 1
11 247 1
11 248 1
11 251 1
11 257 1
11 258 1
11 263 1
11 267 1
11 268 1
11 278 1
12 129 1
12 130 1
12 149 1
12 167 1
12 171 1
12 177 1
12 178 1
12 181 1
12 182 1
12 187 1
12 208 1
12 209 1
12 210 1
12 214 1
12 223 1
12 233 1
12 234 1
12 249 1
12 250 1
12 253 1
12 259 1
12 260 1
12 265 1
12 269 1
12 270 1
12 280 1
13 131 1
13 132 1
13 151 1
13 169 1
13 173 1
13 179 1
13 180 1
13 183 1
13 184 1
13 189 1
13 210 1
13 211 1
13 212 1
13 216 1
13 225 1
13 235 1
13 236 1
13 242 1
13 251 1
13 252 1
13 255 1
13 261 1
13 262 1
13 267 1
13 271 1
13 272 1
14 133 1
14 134 1
14 153 1
14 171 1
14 175 1
14 181 1
14 182 1
14 185 1
14 186 1
14 191 1
14 212 1
14 213 1
14 214 1
14 218 1
14 227 1
14 237 1
14 238 1
14 244 1
14 253 1
14 254 1
14 257 1
14 263 1
14 264 1
14 269 1
14 273 1
14 274 1
15 135 1
15 136 1
15 155 1
15 173 1
15 177 1
15 183 1
15 184 1
15 187 1
15 188 1
15 193 1
15 214 1
15 215 1
15 216 1
15 220 1
15 229 1
15 239 1
15 240 1
15 246 1
15 255 1
15 256 1
15 259 1
15 265 1
15 266 1
15 271 1
15 275 1
15 276 1
16 137 1
16 138 1
16 157 1
16 175 1
16 179 1
16 185 1
16 186 1
16 189 1
16 190 1
16 195 1
16 201 1
16 202 1
16 216 1
16 217 1
16 218 1
16 222 1
16 231 1
16 248 1
16 257 1
16 258 1
16 261 1
16 267 1
16 268 1
16 273 1
16 277 1
16 278 1
17 139 1
17 140 1
17 159 1
17 177 1
17 181 1
17 187 1
17 188 1
17 191 1
17 192 1
17 197 1
17 203 1
17 204 1
17 218 1
17 219 1
17 220 1
17 224 1
17 233 1
17 250 1
17 259 1
17 260 1
17 263 1
17 269 1
17 270 1
17 275 1
17 279 1
17 280 1
18 121 1
18 141 1
18 142 1
18 179 1
18 183 1
18 189 1
18 190 1
18 193 1
18 194 1
18 199 1
18 205 1
18 206 1
18 220 1
18 221 1
18 222 1
18 226 1
18 235 1
18 241 1
18 242 1
18 252 1
18 261 1
18 262 1
18 265 1
18 271 1
18 272 1
18 277 1
19 123 1
19 143 1
19 144 1
19 161 1
19 181 1
19 185 1
19 191 1
19 192 1
19 195 1
19 196 1
19 207 1
19 208 1
19 222 1
19 223 1
19 224 1
19 228 1
19 237 1
19 243 1
19 244 1
19 254 1
19 263 1
19 264 1
19 267 1
19 273 1
19 274 1
19 279 1
20 125 1
20 145 1
20 146 1
20 163 1
20 183 1
20 187 1
20 193 1
20 194 1
20 197 1
20 198 1
20 209 1
20 210 1
20 224 1
20 225 1
20 226 1
20 230 1
20 239 1
20 241 1
20 245 1
20 246 1
20 256 1
20 265 1
20 266 1
20 269 1
20 275 1
20 276 1
21 128 1
21 147 1
21 166 1
21 186 1
21 190 1
21 195 1
21 199 1
21 202 1
21 211 1
21 225 1
21 226 1
21 227 1
21 231 1
21 232 1
21 244 1
21 247 1
21 257 1
21 258 1
21 267 1
21 272 1
21 277 1
22 130 1
22 149 1
22 161 1
22 168 1
22 188 1
22 192 1
22 197 1
22 204 1
22 213 1
22 227 1
22 228 1
22 229 1
22 233 1
22 234 1
22 246 1
22 249 1
22 259 1
22 260 1
22 269 1
22 274 1
22 279 1
23 132 1
23 151 1
23 163 1
23 170 1
23 190 1
23 194 1
23 199 1
23 206 1
23 215 1
23 229 1
23 230 1
23 231 1
23 235 1
23 236 1
23 241 1
23 248 1
23 251 1
23 261 1
23 262 1
23 271 1
23 276 1
24 134 1
24 153 1
24 161 1
24 165 1
24 172 1
24 192 1
24 196 1
24 208 1
24 217 1
24 231 1
24 232 1
24 233 1
24 237 1
24 238 1
24 243 1
24 250 1
24 253 1
24 263 1
24 264 1
24 273 1
24 278 1
25 136 1
25 155 1
25 163 1
25 167 1
25 174 1
25 194 1
25 198 1
25 210 1
25 219 1
25 233 1
25 234 1
25 235 1
25 239 1
25 240 1
25 245 1
25 252 1
25 255 1
25 265 1
25 266 1
25 275 1
25 280 1
26 138 1
26 157 1
26 165 1
26 169 1
26 176 1
26 196 1
26 200 1
26 201 1
26 202 1
26 212 1
26 221 1
26 235 1
26 236 1
26 237 1
26 242 1
26 247 1
26 254 1
26 257 1
26 267 1
26 268 1
26 277 1
27 140 1
27 159 1
27 162 1
27 167 1
27 171 1
27 178 1
27 198 1
27 203 1
27 204 1
27 214 1
27 223 1
27 237 1
27 238 1
27 239 1
27 244 1
27 249 1
27 256 1
27 259 1
27 269 1
27 270 1
27 279 1
28 121 1
28 142 1
28 164 1
28 169 1
28 173 1
28 180 1
28 200 1
28 201 1
28 205 1
28 206 1
28 216 1
28 225 1
28 239 1
28 240 1
28 241 1
28 246 1
28 251 1
28 258 1
28 261 1
28 271 1
28 272 1
29 123 1
29 144 1
29 162 1
29 166 1
29 171 1
29 175 1
29 182 1
29 201 1
29 202 1
29 203 1
29 207 1
29 208 1
29 218 1
29 227 1
29 243 1
29 248 1
29 253 1
29 260 1
29 263 1
29 273 1
29 274 1
30 125 1
30 146 1
30 164 1
30 168 1
30 173 1
30 177 1
30 184 1
30 203 1
30 204 1
30 205 1
30 209 1
30 210 1
30 220 1
30 229 1
30 245 1
30 250 1
30 255 1
30 262 1
30 265 1
30 275 1
30 276 1
31 127 1
31 148 1
31 166 1
31 170 1
31 175 1
31 179 1
31 186 1
31 205 1
31 206 1
31 207 1
31 211 1
31 212 1
31 222 1
31 231 1
31 247 1
31 252 1
31 257 1
31 264 1
31 267 1
31 277 1
31 278 1
32 129 1
32 150 1
32 168 1
32 172 1
32 177 1
32 181 1
32 188 1
32 207 1
32 208 1
32 209 1
32 213 1
32 214 1
32 224 1
32 233 1
32 249 1
32 254 1
32 259 1
32 266 1
32 269 1
32 279 1
32 280 1
33 131 1
33 152 1
33 170 1
33 174 1
33 179 1
33 183 1
33 190 1
33 209 1
33 210 1
33 211 1
33 215 1
33 216 1
33 226 1
33 235 1
33 241 1
33 242 1
33 251 1
33 256 1
33 261 1
33 268 1
33 271 1
34 133 1
34 154 1
34 172 1
34 176 1
34 181 1
34 185 1
34 192 1
34 211 1
34 212 1
34 213 1
34 217 1
34 218 1
34 228 1
34 237 1
34 243 1
34 244 1
34 253 1
34 258 1
34 263 1
34 270 1
34 273 1
35 135 1
35 156 1
35 174 1
35 178 1
35 183 1
35 187 1
35 194 1
35 213 1
35 214 1
35 215 1
35 219 1
35 220 1
35 230 1
35 239 1
35 245 1
35 246 1
35 255 1
35 260 1
35 265 1
35 272 1
35 275 1
36 137 1
36 158 1
36 176 1
36 180 1
36 185 1
36 189 1
36 196 1
36 201 1
36 215 1
36 216 1
36 217 1
36 221 1
36 222 1
36 232 1
36 247 1
36 248 1
36 257 1
36 262 1
36 267 1
36 274 1
36 277 1
37 139 1
37 160 1
37 178 1
37 182 1
37 187 1
37 191 1
37 198 1
37 203 1
37 217 1
37 218 1
37 219 1
37 223 1
37 224 1
37 234 1
37 249 1
37 250 1
37 259 1
37 264 1
37 269 1
37 276 1
37 279 1
38 122 1
38 141 1
38 180 1
38 184 1
38 189 1
38 193 1
38 200 1
38 205 1
38 219 1
38 220 1
38 221 1
38 225 1
38 226 1
38 236 1
38 241 1
38 251 1
38 252 1
38 261 1
38 266 1
38 271 1
38 278 1
39 124 1
39 143 1
39 162 1
39 182 1
39 186 1
39 191 1
39 195 1
39 207 1
39 221 1
39 222 1
39 223 1
39 227 1
39 228 1
39 238 1
39 243 1
39 253 1
39 254 1
39 263 1
39 268 1
39 273 1
39 280 1
40 126 1
40 145 1
40 164 1
40 184 1
40 188 1
40 193 1
40 197 1
40 209 1
40 223 1
40 224 1
40 225 1
40 229 1
40 230 1
40 240 1
40 242 1
40 245 1
40 255 1
40 256 1
40 265 1
40 270 1
40 275 1
41 165 1
41 169 1
41 170 1
41 195 1
41 199 1
41 202 1
41 211 1
41 221 1
41 222 1
41 227 1
41 231 1
41 236 1
41 241 1
41 247 1
41 248 1
41 257 1
41 258 1
41 263 1
41 268 1
41 288 1
41 307 1
42 161 1
42 167 1
42 171 1
42 172 1
42 197 1
42 204 1
42 213 1
42 223 1
42 224 1
42 229 1
42 233 1
42 238 1
42 243 1
42 249 1
42 250 1
42 259 1
42 260 1
42 265 1
42 270 1
42 290 1
42 309 1
43 163 1
43 169 1
43 173 1
43 174 1
43 199 1
43 206 1
43 215 1
43 225 1
43 226 1
43 231 1
43 235 1
43 240 1
43 245 1
43 251 1
43 252 1
43 261 1
43 262 1
43 267 1
43 272 1
43 292 1
43 311 1
44 161 1
44 165 1
44 171 1
44 175 1
44 176 1
44 202 1
44 208 1
44 217 1
44 227 1
44 228 1
44 233 1
44 237 1
44 247 1
44 253 1
44 254 1
44 263 1
44 264 1
44 269 1
44 274 1
44 294 1
44 313 1
45 163 1
45 167 1
45 173 1
45 177 1
45 178 1
45 204 1
45 210 1
45 219 1
45 229 1
45 230 1
45 235 1
45 239 1
45 249 1
45 255 1
45 256 1
45 265 1
45 266 1
45 271 1
45 276 1
45 296 1
45 315 1
46 165 1
46 169 1
46 175 1
46 179 1
46 180 1
46 201 1
46 206 1
46 212 1
46 221 1
46 231 1
46 232 1
46 237 1
46 251 1
46 257 1
46 258 1
46 267 1
46 268 1
46 273 1
46 278 1
46 298 1
46 317 1
47 167 1
47 171 1
47 177 1
47 181 1
47 182 1
47 203 1
47 208 1
47 214 1
47 223 1
47 233 1
47 234 1
47 239 1
47 253 1
47 259 1
47 260 1
47 269 1
47 270 1
47 275 1
47 280 1
47 300 1
47 319 1
48 169 1
48 173 1
48 179 1
48 183 1
48 184 1
48 201 1
48 205 1
48 210 1
48 216 1
48 225 1
48 235 1
48 236 1
48 242 1
48 255 1
48 261 1
48 262 1
48 271 1
48 272 1
48 277 1
48 281 1
48 302 1
49 171 1
49 175 1
49 181 1
49 185 1
49 186 1
49 203 1
49 207 1
49 212 1
49 218 1
49 227 1
49 237 1
49 238 1
49 244 1
49 257 1
49 263 1
49 264 1
49 273 1
49 274 1
49 279 1
49 283 1
49 304 1
50 173 1
50 177 1
50 183 1
50 187 1
50 188 1
50 205 1
50 209 1
50 214 1
50 220 1
50 229 1
50 239 1
50 240 1
50 241 1
50 246 1
50 259 1
50 265 1
50 266 1
50 275 1
50 276 1
50 285 1
50 306 1
51 175 1
51 179 1
51 185 1
51 189 1
51 190 1
51 201 1
51 202 1
51 207 1
51 211 1
51 216 1
51 222 1
51 231 1
51 243 1
51 248 1
51 261 1
51 267 1
51 268 1
51 277 1
51 278 1
51 287 1
51 308 1
52 177 1
52 181 1
52 187 1
52 191 1
52 192 1
52 203 1
52 204 1
52 209 1
52 213 1
52 218 1
52 224 1
52 233 1
52 245 1
52 250 1
52 263 1
52 269 1
52 270 1
52 279 1
52 280 1
52 289 1
52 310 1
53 179 1
53 183 1
53 189 1
53 193 1
53 194 1
53 205 1
53 206 1
53 211 1
53 215 1
53 220 1
53 226 1
53 235 1
53 241 1
53 242 1
53 247 1
53 252 1
53 265 1
53 271 1
53 272 1
53 291 1
53 312 1
54 181 1
54 185 1
54 191 1
54 195 1
54 196 1
54 207 1
54 208 1
54 213 1
54 217 1
54 222 1
54 228 1
54 237 1
54 243 1
54 244 1
54 249 1
54 254 1
54 267 1
54 273 1
54 274 1
54 293 1
54 314 1
55 183 1
55 187 1
55 193 1
55 197 1
55 198 1
55 209 1
55 210 1
55 215 1
55 219 1
55 224 1
55 230 1
55 239 1
55 245 1
55 246 1
55 251 1
55 256 1
55 269 1
55 275 1
55 276 1
55 295 1
55 316 1
56 185 1
56 189 1
56 195 1
56 199 1
56 200 1
56 201 1
56 211 1
56 212 1
56 217 1
56 221 1
56 226 1
56 232 1
56 247 1
56 248 1
56 253 1
56 258 1
56 271 1
56 277 1
56 278 1
56 297 1
56 318 1
57 161 1
57 162 1
57 187 1
57 191 1
57 197 1
57 203 1
57 213 1
57 214 1
57 219 1
57 223 1
57 228 1
57 234 1
57 249 1
57 250 1
57 255 1
57 260 1
57 273 1
57 279 1
57 280 1
57 299 1
57 320 1
58 163 1
58 164 1
58 189 1
58 193 1
58 199 1
58 205 1
58 215 1
58 216 1
58 221 1
58 225 1
58 230 1
58 236 1
58 241 1
58 242 1
58 251 1
58 252 1
58 257 1
58 262 1
58 275 1
58 282 1
58 301 1
59 161 1
59 165 1
59 166 1
59 191 1
59 195 1
59 207 1
59 217 1
59 218 1
59 223 1
59 227 1
59 232 1
59 238 1
59 243 1
59 244 1
59 253 1
59 254 1
59 259 1
59 264 1
59 277 1
59 284 1
59 303 1
60 163 1
60 167 1
60 168 1
60 193 1
60 197 1
60 209 1
60 219 1
60 220 1
60 225 1
60 229 1
60 234 1
60 240 1
60 245 1
60 246 1
60 255 1
60 256 1
60 261 1
60 266 1
60 279 1
60 286 1
60 305 1
61 166 1
61 169 1
61 196 1
61 200 1
61 201 1
61 202 1
61 212 1
61 221 1
61 228 1
61 232 1
61 235 1
61 236 1
61 242 1
61 247 1
61 257 1
61 264 1
61 267 1
61 268 1
61 287 1
61 288 1
61 308 1
62 162 1
62 168 1
62 171 1
62 198 1
62 203 1
62 204 1
62 214 1
62 223 1
62 230 1
62 234 1
62 237 1
62 238 1
62 244 1
62 249 1
62 259 1
62 266 1
62 269 1
62 270 1
62 289 1
62 290 1
62 310 1
63 164 1
63 170 1
63 173 1
63 200 1
63 205 1
63 206 1
63 216 1
63 225 1
63 232 1
63 236 1
63 239 1
63 240 1
63 246 1
63 251 1
63 261 1
63 268 1
63 271 1
63 272 1
63 291 1
63 292 1
63 312 1
64 162 1
64 166 1
64 172 1
64 175 1
64 201 1
64 202 1
64 207 1
64 208 1
64 218 1
64 227 1
64 234 1
64 238 1
64 248 1
64 253 1
64 263 1
64 270 1
64 273 1
64 274 1
64 293 1
64 294 1
64 314 1
65 164 1
65 168 1
65 174 1
65 177 1
65 203 1
65 204 1
65 209 1
65 210 1
65 220 1
65 229 1
65 236 1
65 240 1
65 250 1
65 255 1
65 265 1
65 272 1
65 275 1
65 276 1
65 295 1
65 296 1
65 316 1
66 166 1
66 170 1
66 176 1
66 179 1
66 202 1
66 205 1
66 206 1
66 211 1
66 212 1
66 222 1
66 231 1
66 238 1
66 252 1
66 257 1
66 267 1
66 274 1
66 277 1
66 278 1
66 297 1
66 298 1
66 318 1
67 168 1
67 172 1
67 178 1
67 181 1
67 204 1
67 207 1
67 208 1
67 213 1
67 214 1
67 224 1
67 233 1
67 240 1
67 254 1
67 259 1
67 269 1
67 276 1
67 279 1
67 280 1
67 299 1
67 300 1
67 320 1
68 170 1
68 174 1
68 180 1
68 183 1
68 202 1
68 206 1
68 209 1
68 210 1
68 215 1
68 216 1
68 226 1
68 235 1
68 241 1
68 242 1
68 256 1
68 261 1
68 271 1
68 278 1
68 282 1
68 301 1
68 302 1
69 172 1
69 176 1
69 182 1
69 185 1
69 204 1
69 208 1
69 211 1
69 212 1
69 217 1
69 218 1
69 228 1
69 237 1
69 243 1
69 244 1
69 258 1
69 263 1
69 273 1
69 280 1
69 284 1
69 303 1
69 304 1
70 174 1
70 178 1
70 184 1
70 187 1
70 206 1
70 210 1
70 213 1
70 214 1
70 219 1
70 220 1
70 230 1
70 239 1
70 242 1
70 245 1
70 246 1
70 260 1
70 265 1
70 275 1
70 286 1
70 305 1
70 306 1
71 176 1
71 180 1
71 186 1
71 189 1
71 201 1
71 208 1
71 212 1
71 215 1
71 216 1
71 221 1
71 222 1
71 232 1
71 244 1
71 247 1
71 248 1
71 262 1
71 267 1
71 277 1
71 288 1
71 307 1
71 308 1
72 178 1
72 182 1
72 188 1
72 191 1
72 203 1
72 210 1
72 214 1
72 217 1
72 218 1
72 223 1
72 224 1
72 234 1
72 246 1
72 249 1
72 250 1
72 264 1
72 269 1
72 279 1
72 290 1
72 309 1
72 310 1
73 180 1
73 184 1
73 190 1
73 193 1
73 205 1
73 212 1
73 216 1
73 219 1
73 220 1
73 225 1
73 226 1
73 236 1
73 241 1
73 248 1
73 251 1
73 252 1
73 266 1
73 271 1
73 292 1
73 311 1
73 312 1
74 182 1
74 186 1
74 192 1
74 195 1
74 207 1
74 214 1
74 218 1
74 221 1
74 222 1
74 227 1
74 228 1
74 238 1
74 243 1
74 250 1
74 253 1
74 254 1
74 268 1
74 273 1
74 294 1
74 313 1
74 314 1
75 184 1
75 188 1
75 194 1
75 197 1
75 209 1
75 216 1
75 220 1
75 223 1
75 224 1
75 229 1
75 230 1
75 240 1
75 245 1
75 252 1
75 255 1
75 256 1
75 270 1
75 275 1
75 296 1
75 315 1
75 316 1
76 186 1
76 190 1
76 196 1
76 199 1
76 202 1
76 211 1
76 218 1
76 222 1
76 225 1
76 226 1
76 231 1
76 232 1
76 247 1
76 254 1
76 257 1
76 258 1
76 272 1
76 277 1
76 298 1
76 317 1
76 318 1
77 161 1
77 188 1
77 192 1
77 198 1
77 204 1
77 213 1
77 220 1
77 224 1
77 227 1
77 228 1
77 233 1
77 234 1
77 249 1
77 256 1
77 259 1
77 260 1
77 274 1
77 279 1
77 300 1
77 319 1
77 320 1
78 163 1
78 190 1
78 194 1
78 200 1
78 206 1
78 215 1
78 222 1
78 226 1
78 229 1
78 230 1
78 235 1
78 236 1
78 241 1
78 251 1
78 258 1
78 261 1
78 262 1
78 276 1
78 281 1
78 282 1
78 302 1
79 162 1
79 165 1
79 192 1
79 196 1
79 208 1
79 217 1
79 224 1
79 228 1
79 231 1
79 232 1
79 237 1
79 238 1
79 243 1
79 253 1
79 260 1
79 263 1
79 264 1
79 278 1
79 283 1
79 284 1
79 304 1
80 164 1
80 167 1
80 194 1
80 198 1
80 210 1
80 219 1
80 226 1
80 230 1
80 233 1
80 234 1
80 239 1
80 240 1
80 245 1
80 255 1
80 262 1
80 265 1
80 266 1
80 280 1
80 285 1
80 286 1
80 306 1
