%%MatrixMarket matrix coordinate integer general
% GF(4) labels 0,1,2=omega,3=omega+1; arithmetic is NOT integer arithmetic.
% Coordinate indices are 1-based; omitted entries are zero.
40 160 700
1 64 1
1 74 3
1 83 1
1 93 1
1 95 1
1 98 3
1 100 3
1 101 1
1 106 3
1 113 2
1 114 3
1 116 2
1 122 1
1 124 3
1 129 2
1 134 3
1 136 1
1 139 3
2 65 1
2 75 3
2 81 3
2 84 1
2 94 1
2 96 1
2 99 3
2 102 1
2 107 3
2 114 2
2 115 3
2 117 2
2 123 1
2 125 3
2 130 2
2 135 3
2 137 1
2 140 3
3 66 1
3 76 3
3 82 3
3 85 1
3 95 1
3 97 1
3 100 3
3 103 1
3 108 3
3 115 2
3 116 3
3 118 2
3 121 3
3 124 1
3 126 3
3 131 2
3 136 3
3 138 1
4 67 1
4 77 3
4 81 3
4 83 3
4 86 1
4 96 1
4 98 1
4 104 1
4 109 3
4 116 2
4 117 3
4 119 2
4 122 3
4 125 1
4 127 3
4 132 2
4 137 3
4 139 1
5 68 1
5 78 3
5 82 3
5 84 3
5 87 1
5 97 1
5 99 1
5 105 1
5 110 3
5 117 2
5 118 3
5 120 2
5 123 3
5 126 1
5 128 3
5 133 2
5 138 3
5 140 1
6 69 1
6 79 3
6 83 3
6 85 3
6 88 1
6 98 1
6 100 1
6 101 2
6 106 1
6 111 3
6 118 2
6 119 3
6 121 1
6 124 3
6 127 1
6 129 3
6 134 2
6 139 3
7 70 1
7 80 3
7 81 1
7 84 3
7 86 3
7 89 1
7 99 1
7 102 2
7 107 1
7 112 3
7 119 2
7 120 3
7 122 1
7 125 3
7 128 1
7 130 3
7 135 2
7 140 3
8 61 3
8 71 1
8 82 1
8 85 3
8 87 3
8 90 1
8 100 1
8 101 3
8 103 2
8 108 1
8 113 3
8 120 2
8 121 3
8 123 1
8 126 3
8 129 1
8 131 3
8 136 2
9 62 3
9 72 1
9 81 1
9 83 1
9 86 3
9 88 3
9 91 1
9 101 2
9 102 3
9 104 2
9 109 1
9 114 3
9 122 3
9 124 1
9 127 3
9 130 1
9 132 3
9 137 2
10 63 3
10 73 1
10 82 1
10 84 1
10 87 3
10 89 3
10 92 1
10 102 2
10 103 3
10 105 2
10 110 1
10 115 3
10 123 3
10 125 1
10 128 3
10 131 1
10 133 3
10 138 2
11 64 3
11 74 1
11 83 1
11 85 1
11 88 3
11 90 3
11 93 1
11 103 2
11 104 3
11 106 2
11 111 1
11 116 3
11 124 3
11 126 1
11 129 3
11 132 1
11 134 3
11 139 2
12 65 3
12 75 1
12 84 1
12 86 1
12 89 3
12 91 3
12 94 1
12 104 2
12 105 3
12 107 2
12 112 1
12 117 3
12 125 3
12 127 1
12 130 3
12 133 1
12 135 3
12 140 2
13 66 3
13 76 1
13 85 1
13 87 1
13 90 3
13 92 3
13 95 1
13 105 2
13 106 3
13 108 2
13 113 1
13 118 3
13 121 2
13 126 3
13 128 1
13 131 3
13 134 1
13 136 3
14 67 3
14 77 1
14 86 1
14 88 1
14 91 3
14 93 3
14 96 1
14 106 2
14 107 3
14 109 2
14 114 1
14 119 3
14 122 2
14 127 3
14 129 1
14 132 3
14 135 1
14 137 3
15 68 3
15 78 1
15 87 1
15 89 1
15 92 3
15 94 3
15 97 1
15 107 2
15 108 3
15 110 2
15 115 1
15 120 3
15 123 2
15 128 3
15 130 1
15 133 3
15 136 1
15 138 3
16 69 3
16 79 1
16 88 1
16 90 1
16 93 3
16 95 3
16 98 1
16 101 3
16 108 2
16 109 3
16 111 2
16 116 1
16 124 2
16 129 3
16 131 1
16 134 3
16 137 1
16 139 3
17 70 3
17 80 1
17 89 1
17 91 1
17 94 3
17 96 3
17 99 1
17 102 3
17 109 2
17 110 3
17 112 2
17 117 1
17 125 2
17 130 3
17 132 1
17 135 3
17 138 1
17 140 3
18 61 1
18 71 3
18 90 1
18 92 1
18 95 3
18 97 3
18 100 1
18 103 3
18 110 2
18 111 3
18 113 2
18 118 1
18 121 3
18 126 2
18 131 3
18 133 1
18 136 3
18 139 1
19 62 1
19 72 3
19 81 1
19 91 1
19 93 1
19 96 3
19 98 3
19 104 3
19 111 2
19 112 3
19 114 2
19 119 1
19 122 3
19 127 2
19 132 3
19 134 1
19 137 3
19 140 1
20 63 1
20 73 3
20 82 1
20 92 1
20 94 1
20 97 3
20 99 3
20 105 3
20 112 2
20 113 3
20 115 2
20 120 1
20 121 1
20 123 3
20 128 2
20 133 3
20 135 1
20 138 3
21 83 1
21 85 3
21 98 1
21 100 1
21 101 2
21 106 1
21 111 3
21 114 1
21 116 1
21 118 2
21 121 1
21 124 3
21 129 3
21 132 1
21 134 2
21 144 2
21 154 1
22 81 1
22 84 1
22 86 3
22 99 1
22 102 2
22 107 1
22 112 3
22 115 1
22 117 1
22 119 2
22 122 1
22 125 3
22 130 3
22 133 1
22 135 2
22 145 2
22 155 1
23 82 1
23 85 1
23 87 3
23 100 1
23 103 2
23 108 1
23 113 3
23 116 1
23 118 1
23 120 2
23 123 1
23 126 3
23 131 3
23 134 1
23 136 2
23 146 2
23 156 1
24 81 1
24 83 1
24 86 1
24 88 3
24 101 2
24 104 2
24 109 1
24 114 3
24 117 1
24 119 1
24 124 1
24 127 3
24 132 3
24 135 1
24 137 2
24 147 2
24 157 1
25 82 1
25 84 1
25 87 1
25 89 3
25 102 2
25 105 2
25 110 1
25 115 3
25 118 1
25 120 1
25 125 1
25 128 3
25 133 3
25 136 1
25 138 2
25 148 2
25 158 1
26 83 1
26 85 1
26 88 1
26 90 3
26 101 1
26 103 2
26 106 2
26 111 1
26 116 3
26 119 1
26 126 1
26 129 3
26 134 3
26 137 1
26 139 2
26 149 2
26 159 1
27 84 1
27 86 1
27 89 1
27 91 3
27 102 1
27 104 2
27 107 2
27 112 1
27 117 3
27 120 1
27 127 1
27 130 3
27 135 3
27 138 1
27 140 2
27 150 2
27 160 1
28 85 1
28 87 1
28 90 1
28 92 3
28 101 1
28 103 1
28 105 2
28 108 2
28 113 1
28 118 3
28 121 2
28 128 1
28 131 3
28 136 3
28 139 1
28 141 1
28 151 2
29 86 1
29 88 1
29 91 1
29 93 3
29 102 1
29 104 1
29 106 2
29 109 2
29 114 1
29 119 3
29 122 2
29 129 1
29 132 3
29 137 3
29 140 1
29 142 1
29 152 2
30 87 1
30 89 1
30 92 1
30 94 3
30 103 1
30 105 1
30 107 2
30 110 2
30 115 1
30 120 3
30 121 1
30 123 2
30 130 1
30 133 3
30 138 3
30 143 1
30 153 2
31 88 1
31 90 1
31 93 1
31 95 3
31 101 3
31 104 1
31 106 1
31 108 2
31 111 2
31 116 1
31 122 1
31 124 2
31 131 1
31 134 3
31 139 3
31 144 1
31 154 2
32 89 1
32 91 1
32 94 1
32 96 3
32 102 3
32 105 1
32 107 1
32 109 2
32 112 2
32 117 1
32 123 1
32 125 2
32 132 1
32 135 3
32 140 3
32 145 1
32 155 2
33 90 1
33 92 1
33 95 1
33 97 3
33 103 3
33 106 1
33 108 1
33 110 2
33 113 2
33 118 1
33 121 3
33 124 1
33 126 2
33 133 1
33 136 3
33 146 1
33 156 2
34 91 1
34 93 1
34 96 1
34 98 3
34 104 3
34 107 1
34 109 1
34 111 2
34 114 2
34 119 1
34 122 3
34 125 1
34 127 2
34 134 1
34 137 3
34 147 1
34 157 2
35 92 1
35 94 1
35 97 1
35 99 3
35 105 3
35 108 1
35 110 1
35 112 2
35 115 2
35 120 1
35 123 3
35 126 1
35 128 2
35 135 1
35 138 3
35 148 1
35 158 2
36 93 1
36 95 1
36 98 1
36 100 3
36 101 1
36 106 3
36 109 1
36 111 1
36 113 2
36 116 2
36 124 3
36 127 1
36 129 2
36 136 1
36 139 3
36 149 1
36 159 2
37 81 3
37 94 1
37 96 1
37 99 1
37 102 1
37 107 3
37 110 1
37 112 1
37 114 2
37 117 2
37 125 3
37 128 1
37 130 2
37 137 1
37 140 3
37 150 1
37 160 2
38 82 3
38 95 1
38 97 1
38 100 1
38 103 1
38 108 3
38 111 1
38 113 1
38 115 2
38 118 2
38 121 3
38 126 3
38 129 1
38 131 2
38 138 1
38 141 2
38 151 1
39 81 1
39 83 3
39 96 1
39 98 1
39 104 1
39 109 3
39 112 1
39 114 1
39 116 2
39 119 2
39 122 3
39 127 3
39 130 1
39 132 2
39 139 1
39 142 2
39 152 1
40 82 1
40 84 3
40 97 1
40 99 1
40 105 1
40 110 3
40 113 1
40 115 1
40 117 2
40 120 2
40 123 3
40 128 3
40 131 1
40 133 2
40 140 1
40 143 2
40 153 1
