%%MatrixMarket matrix coordinate integer general
% Binary matrix over GF(2).
% Coordinate indices are 1-based; omitted entries are zero.
80 320 1780
1 4 1
1 7 1
1 13 1
1 14 1
1 23 1
1 24 1
1 29 1
1 43 1
1 44 1
1 53 1
1 64 1
1 70 1
1 73 1
1 77 1
1 103 1
1 104 1
1 107 1
1 113 1
1 117 1
1 128 1
1 147 1
2 6 1
2 9 1
2 15 1
2 16 1
2 25 1
2 26 1
2 31 1
2 45 1
2 46 1
2 55 1
2 66 1
2 72 1
2 75 1
2 79 1
2 105 1
2 106 1
2 109 1
2 115 1
2 119 1
2 130 1
2 149 1
3 8 1
3 11 1
3 17 1
3 18 1
3 27 1
3 28 1
3 33 1
3 41 1
3 47 1
3 48 1
3 57 1
3 68 1
3 74 1
3 77 1
3 81 1
3 107 1
3 108 1
3 111 1
3 117 1
3 132 1
3 151 1
4 10 1
4 13 1
4 19 1
4 20 1
4 29 1
4 30 1
4 35 1
4 43 1
4 49 1
4 50 1
4 59 1
4 70 1
4 76 1
4 79 1
4 83 1
4 109 1
4 110 1
4 113 1
4 119 1
4 134 1
4 153 1
5 12 1
5 15 1
5 21 1
5 22 1
5 31 1
5 32 1
5 37 1
5 41 1
5 45 1
5 51 1
5 52 1
5 61 1
5 72 1
5 78 1
5 81 1
5 85 1
5 111 1
5 112 1
5 115 1
5 136 1
5 155 1
6 14 1
6 17 1
6 23 1
6 24 1
6 33 1
6 34 1
6 39 1
6 43 1
6 47 1
6 53 1
6 54 1
6 63 1
6 74 1
6 80 1
6 83 1
6 87 1
6 113 1
6 114 1
6 117 1
6 138 1
6 157 1
7 1 1
7 16 1
7 19 1
7 25 1
7 26 1
7 35 1
7 36 1
7 42 1
7 45 1
7 49 1
7 55 1
7 56 1
7 65 1
7 76 1
7 85 1
7 89 1
7 115 1
7 116 1
7 119 1
7 140 1
7 159 1
8 3 1
8 18 1
8 21 1
8 27 1
8 28 1
8 37 1
8 38 1
8 44 1
8 47 1
8 51 1
8 57 1
8 58 1
8 67 1
8 78 1
8 81 1
8 87 1
8 91 1
8 117 1
8 118 1
8 121 1
8 142 1
9 5 1
9 20 1
9 23 1
9 29 1
9 30 1
9 39 1
9 40 1
9 46 1
9 49 1
9 53 1
9 59 1
9 60 1
9 69 1
9 80 1
9 83 1
9 89 1
9 93 1
9 119 1
9 120 1
9 123 1
9 144 1
10 1 1
10 2 1
10 7 1
10 22 1
10 25 1
10 31 1
10 32 1
10 42 1
10 48 1
10 51 1
10 55 1
10 61 1
10 62 1
10 71 1
10 81 1
10 82 1
10 85 1
10 91 1
10 95 1
10 125 1
10 146 1
11 3 1
11 4 1
11 9 1
11 24 1
11 27 1
11 33 1
11 34 1
11 44 1
11 50 1
11 53 1
11 57 1
11 63 1
11 64 1
11 73 1
11 83 1
11 84 1
11 87 1
11 93 1
11 97 1
11 127 1
11 148 1
12 5 1
12 6 1
12 11 1
12 26 1
12 29 1
12 35 1
12 36 1
12 46 1
12 52 1
12 55 1
12 59 1
12 65 1
12 66 1
12 75 1
12 85 1
12 86 1
12 89 1
12 95 1
12 99 1
12 129 1
12 150 1
13 7 1
13 8 1
13 13 1
13 28 1
13 31 1
13 37 1
13 38 1
13 48 1
13 54 1
13 57 1
13 61 1
13 67 1
13 68 1
13 77 1
13 87 1
13 88 1
13 91 1
13 97 1
13 101 1
13 131 1
13 152 1
14 9 1
14 10 1
14 15 1
14 30 1
14 33 1
14 39 1
14 40 1
14 50 1
14 56 1
14 59 1
14 63 1
14 69 1
14 70 1
14 79 1
14 89 1
14 90 1
14 93 1
14 99 1
14 103 1
14 133 1
14 154 1
15 1 1
15 2 1
15 11 1
15 12 1
15 17 1
15 32 1
15 35 1
15 41 1
15 52 1
15 58 1
15 61 1
15 65 1
15 71 1
15 72 1
15 91 1
15 92 1
15 95 1
15 101 1
15 105 1
15 135 1
15 156 1
16 3 1
16 4 1
16 13 1
16 14 1
16 19 1
16 34 1
16 37 1
16 43 1
16 54 1
16 60 1
16 63 1
16 67 1
16 73 1
16 74 1
16 93 1
16 94 1
16 97 1
16 103 1
16 107 1
16 137 1
16 158 1
17 5 1
17 6 1
17 15 1
17 16 1
17 21 1
17 36 1
17 39 1
17 45 1
17 56 1
17 62 1
17 65 1
17 69 1
17 75 1
17 76 1
17 95 1
17 96 1
17 99 1
17 105 1
17 109 1
17 139 1
17 160 1
18 1 1
18 7 1
18 8 1
18 17 1
18 18 1
18 23 1
18 38 1
18 47 1
18 58 1
18 64 1
18 67 1
18 71 1
18 77 1
18 78 1
18 97 1
18 98 1
18 101 1
18 107 1
18 111 1
18 122 1
18 141 1
19 3 1
19 9 1
19 10 1
19 19 1
19 20 1
19 25 1
19 40 1
19 49 1
19 60 1
19 66 1
19 69 1
19 73 1
19 79 1
19 80 1
19 99 1
19 100 1
19 103 1
19 109 1
19 113 1
19 124 1
19 143 1
20 2 1
20 5 1
20 11 1
20 12 1
20 21 1
20 22 1
20 27 1
20 41 1
20 42 1
20 51 1
20 62 1
20 68 1
20 71 1
20 75 1
20 101 1
20 102 1
20 105 1
20 111 1
20 115 1
20 126 1
20 145 1
21 3 1
21 4 1
21 8 1
21 13 1
21 23 1
21 30 1
21 43 1
21 54 1
21 63 1
21 64 1
21 69 1
21 70 1
21 74 1
21 78 1
21 103 1
21 108 1
21 114 1
21 118 1
21 127 1
21 128 1
21 148 1
22 5 1
22 6 1
22 10 1
22 15 1
22 25 1
22 32 1
22 45 1
22 56 1
22 65 1
22 66 1
22 71 1
22 72 1
22 76 1
22 80 1
22 105 1
22 110 1
22 116 1
22 120 1
22 129 1
22 130 1
22 150 1
23 7 1
23 8 1
23 12 1
23 17 1
23 27 1
23 34 1
23 42 1
23 47 1
23 58 1
23 67 1
23 68 1
23 73 1
23 74 1
23 78 1
23 82 1
23 107 1
23 112 1
23 118 1
23 131 1
23 132 1
23 152 1
24 9 1
24 10 1
24 14 1
24 19 1
24 29 1
24 36 1
24 44 1
24 49 1
24 60 1
24 69 1
24 70 1
24 75 1
24 76 1
24 80 1
24 84 1
24 109 1
24 114 1
24 120 1
24 133 1
24 134 1
24 154 1
25 11 1
25 12 1
25 16 1
25 21 1
25 31 1
25 38 1
25 42 1
25 46 1
25 51 1
25 62 1
25 71 1
25 72 1
25 77 1
25 78 1
25 82 1
25 86 1
25 111 1
25 116 1
25 135 1
25 136 1
25 156 1
26 13 1
26 14 1
26 18 1
26 23 1
26 33 1
26 40 1
26 44 1
26 48 1
26 53 1
26 64 1
26 73 1
26 74 1
26 79 1
26 80 1
26 84 1
26 88 1
26 113 1
26 118 1
26 137 1
26 138 1
26 158 1
27 2 1
27 15 1
27 16 1
27 20 1
27 25 1
27 35 1
27 41 1
27 42 1
27 46 1
27 50 1
27 55 1
27 66 1
27 75 1
27 76 1
27 86 1
27 90 1
27 115 1
27 120 1
27 139 1
27 140 1
27 160 1
28 4 1
28 17 1
28 18 1
28 22 1
28 27 1
28 37 1
28 43 1
28 44 1
28 48 1
28 52 1
28 57 1
28 68 1
28 77 1
28 78 1
28 82 1
28 88 1
28 92 1
28 117 1
28 122 1
28 141 1
28 142 1
29 6 1
29 19 1
29 20 1
29 24 1
29 29 1
29 39 1
29 45 1
29 46 1
29 50 1
29 54 1
29 59 1
29 70 1
29 79 1
29 80 1
29 84 1
29 90 1
29 94 1
29 119 1
29 124 1
29 143 1
29 144 1
30 1 1
30 8 1
30 21 1
30 22 1
30 26 1
30 31 1
30 41 1
30 42 1
30 47 1
30 48 1
30 52 1
30 56 1
30 61 1
30 72 1
30 81 1
30 86 1
30 92 1
30 96 1
30 126 1
30 145 1
30 146 1
31 3 1
31 10 1
31 23 1
31 24 1
31 28 1
31 33 1
31 43 1
31 44 1
31 49 1
31 50 1
31 54 1
31 58 1
31 63 1
31 74 1
31 83 1
31 88 1
31 94 1
31 98 1
31 128 1
31 147 1
31 148 1
32 5 1
32 12 1
32 25 1
32 26 1
32 30 1
32 35 1
32 45 1
32 46 1
32 51 1
32 52 1
32 56 1
32 60 1
32 65 1
32 76 1
32 85 1
32 90 1
32 96 1
32 100 1
32 130 1
32 149 1
32 150 1
33 7 1
33 14 1
33 27 1
33 28 1
33 32 1
33 37 1
33 47 1
33 48 1
33 53 1
33 54 1
33 58 1
33 62 1
33 67 1
33 78 1
33 87 1
33 92 1
33 98 1
33 102 1
33 132 1
33 151 1
33 152 1
34 9 1
34 16 1
34 29 1
34 30 1
34 34 1
34 39 1
34 49 1
34 50 1
34 55 1
34 56 1
34 60 1
34 64 1
34 69 1
34 80 1
34 89 1
34 94 1
34 100 1
34 104 1
34 134 1
34 153 1
34 154 1
35 1 1
35 11 1
35 18 1
35 31 1
35 32 1
35 36 1
35 42 1
35 51 1
35 52 1
35 57 1
35 58 1
35 62 1
35 66 1
35 71 1
35 91 1
35 96 1
35 102 1
35 106 1
35 136 1
35 155 1
35 156 1
36 3 1
36 13 1
36 20 1
36 33 1
36 34 1
36 38 1
36 44 1
36 53 1
36 54 1
36 59 1
36 60 1
36 64 1
36 68 1
36 73 1
36 93 1
36 98 1
36 104 1
36 108 1
36 138 1
36 157 1
36 158 1
37 5 1
37 15 1
37 22 1
37 35 1
37 36 1
37 40 1
37 46 1
37 55 1
37 56 1
37 61 1
37 62 1
37 66 1
37 70 1
37 75 1
37 95 1
37 100 1
37 106 1
37 110 1
37 140 1
37 159 1
37 160 1
38 2 1
38 7 1
38 17 1
38 24 1
38 37 1
38 38 1
38 48 1
38 57 1
38 58 1
38 63 1
38 64 1
38 68 1
38 72 1
38 77 1
38 97 1
38 102 1
38 108 1
38 112 1
38 121 1
38 122 1
38 142 1
39 4 1
39 9 1
39 19 1
39 26 1
39 39 1
39 40 1
39 50 1
39 59 1
39 60 1
39 65 1
39 66 1
39 70 1
39 74 1
39 79 1
39 99 1
39 104 1
39 110 1
39 114 1
39 123 1
39 124 1
39 144 1
40 1 1
40 2 1
40 6 1
40 11 1
40 21 1
40 28 1
40 41 1
40 52 1
40 61 1
40 62 1
40 67 1
40 68 1
40 72 1
40 76 1
40 101 1
40 106 1
40 112 1
40 116 1
40 125 1
40 126 1
40 146 1
41 3 1
41 4 1
41 14 1
41 23 1
41 24 1
41 27 1
41 33 1
41 34 1
41 39 1
41 53 1
41 54 1
41 63 1
41 74 1
41 77 1
41 78 1
41 80 1
41 83 1
41 87 1
41 107 1
41 113 1
41 114 1
41 117 1
41 118 1
41 287 1
41 307 1
41 308 1
42 1 1
42 5 1
42 6 1
42 16 1
42 25 1
42 26 1
42 29 1
42 35 1
42 36 1
42 42 1
42 55 1
42 56 1
42 65 1
42 76 1
42 79 1
42 80 1
42 85 1
42 89 1
42 109 1
42 115 1
42 116 1
42 119 1
42 120 1
42 289 1
42 309 1
42 310 1
43 3 1
43 7 1
43 8 1
43 18 1
43 27 1
43 28 1
43 31 1
43 37 1
43 38 1
43 41 1
43 42 1
43 44 1
43 57 1
43 58 1
43 67 1
43 78 1
43 81 1
43 82 1
43 87 1
43 91 1
43 111 1
43 117 1
43 118 1
43 291 1
43 311 1
43 312 1
44 5 1
44 9 1
44 10 1
44 20 1
44 29 1
44 30 1
44 33 1
44 39 1
44 40 1
44 43 1
44 44 1
44 46 1
44 59 1
44 60 1
44 69 1
44 80 1
44 83 1
44 84 1
44 89 1
44 93 1
44 113 1
44 119 1
44 120 1
44 293 1
44 313 1
44 314 1
45 1 1
45 2 1
45 7 1
45 11 1
45 12 1
45 22 1
45 31 1
45 32 1
45 35 1
45 42 1
45 45 1
45 46 1
45 48 1
45 61 1
45 62 1
45 71 1
45 81 1
45 82 1
45 85 1
45 86 1
45 91 1
45 95 1
45 115 1
45 295 1
45 315 1
45 316 1
46 3 1
46 4 1
46 9 1
46 13 1
46 14 1
46 24 1
46 33 1
46 34 1
46 37 1
46 44 1
46 47 1
46 48 1
46 50 1
46 63 1
46 64 1
46 73 1
46 83 1
46 84 1
46 87 1
46 88 1
46 93 1
46 97 1
46 117 1
46 297 1
46 317 1
46 318 1
47 5 1
47 6 1
47 11 1
47 15 1
47 16 1
47 26 1
47 35 1
47 36 1
47 39 1
47 46 1
47 49 1
47 50 1
47 52 1
47 65 1
47 66 1
47 75 1
47 85 1
47 86 1
47 89 1
47 90 1
47 95 1
47 99 1
47 119 1
47 299 1
47 319 1
47 320 1
48 1 1
48 7 1
48 8 1
48 13 1
48 17 1
48 18 1
48 28 1
48 37 1
48 38 1
48 48 1
48 51 1
48 52 1
48 54 1
48 67 1
48 68 1
48 77 1
48 81 1
48 87 1
48 88 1
48 91 1
48 92 1
48 97 1
48 101 1
48 281 1
48 282 1
48 301 1
49 3 1
49 9 1
49 10 1
49 15 1
49 19 1
49 20 1
49 30 1
49 39 1
49 40 1
49 50 1
49 53 1
49 54 1
49 56 1
49 69 1
49 70 1
49 79 1
49 83 1
49 89 1
49 90 1
49 93 1
49 94 1
49 99 1
49 103 1
49 283 1
49 284 1
49 303 1
50 1 1
50 2 1
50 5 1
50 11 1
50 12 1
50 17 1
50 21 1
50 22 1
50 32 1
50 41 1
50 52 1
50 55 1
50 56 1
50 58 1
50 71 1
50 72 1
50 85 1
50 91 1
50 92 1
50 95 1
50 96 1
50 101 1
50 105 1
50 285 1
50 286 1
50 305 1
51 3 1
51 4 1
51 7 1
51 13 1
51 14 1
51 19 1
51 23 1
51 24 1
51 34 1
51 43 1
51 54 1
51 57 1
51 58 1
51 60 1
51 73 1
51 74 1
51 87 1
51 93 1
51 94 1
51 97 1
51 98 1
51 103 1
51 107 1
51 287 1
51 288 1
51 307 1
52 5 1
52 6 1
52 9 1
52 15 1
52 16 1
52 21 1
52 25 1
52 26 1
52 36 1
52 45 1
52 56 1
52 59 1
52 60 1
52 62 1
52 75 1
52 76 1
52 89 1
52 95 1
52 96 1
52 99 1
52 100 1
52 105 1
52 109 1
52 289 1
52 290 1
52 309 1
53 7 1
53 8 1
53 11 1
53 17 1
53 18 1
53 23 1
53 27 1
53 28 1
53 38 1
53 47 1
53 58 1
53 61 1
53 62 1
53 64 1
53 77 1
53 78 1
53 91 1
53 97 1
53 98 1
53 101 1
53 102 1
53 107 1
53 111 1
53 291 1
53 292 1
53 311 1
54 9 1
54 10 1
54 13 1
54 19 1
54 20 1
54 25 1
54 29 1
54 30 1
54 40 1
54 49 1
54 60 1
54 63 1
54 64 1
54 66 1
54 79 1
54 80 1
54 93 1
54 99 1
54 100 1
54 103 1
54 104 1
54 109 1
54 113 1
54 293 1
54 294 1
54 313 1
55 2 1
55 11 1
55 12 1
55 15 1
55 21 1
55 22 1
55 27 1
55 31 1
55 32 1
55 41 1
55 42 1
55 51 1
55 62 1
55 65 1
55 66 1
55 68 1
55 95 1
55 101 1
55 102 1
55 105 1
55 106 1
55 111 1
55 115 1
55 295 1
55 296 1
55 315 1
56 4 1
56 13 1
56 14 1
56 17 1
56 23 1
56 24 1
56 29 1
56 33 1
56 34 1
56 43 1
56 44 1
56 53 1
56 64 1
56 67 1
56 68 1
56 70 1
56 97 1
56 103 1
56 104 1
56 107 1
56 108 1
56 113 1
56 117 1
56 297 1
56 298 1
56 317 1
57 6 1
57 15 1
57 16 1
57 19 1
57 25 1
57 26 1
57 31 1
57 35 1
57 36 1
57 45 1
57 46 1
57 55 1
57 66 1
57 69 1
57 70 1
57 72 1
57 99 1
57 105 1
57 106 1
57 109 1
57 110 1
57 115 1
57 119 1
57 299 1
57 300 1
57 319 1
58 8 1
58 17 1
58 18 1
58 21 1
58 27 1
58 28 1
58 33 1
58 37 1
58 38 1
58 47 1
58 48 1
58 57 1
58 68 1
58 71 1
58 72 1
58 74 1
58 81 1
58 101 1
58 107 1
58 108 1
58 111 1
58 112 1
58 117 1
58 281 1
58 301 1
58 302 1
59 10 1
59 19 1
59 20 1
59 23 1
59 29 1
59 30 1
59 35 1
59 39 1
59 40 1
59 49 1
59 50 1
59 59 1
59 70 1
59 73 1
59 74 1
59 76 1
59 83 1
59 103 1
59 109 1
59 110 1
59 113 1
59 114 1
59 119 1
59 283 1
59 303 1
59 304 1
60 1 1
60 2 1
60 12 1
60 21 1
60 22 1
60 25 1
60 31 1
60 32 1
60 37 1
60 51 1
60 52 1
60 61 1
60 72 1
60 75 1
60 76 1
60 78 1
60 81 1
60 85 1
60 105 1
60 111 1
60 112 1
60 115 1
60 116 1
60 285 1
60 305 1
60 306 1
61 3 1
61 13 1
61 14 1
61 23 1
61 28 1
61 33 1
61 40 1
61 53 1
61 64 1
61 73 1
61 74 1
61 77 1
61 79 1
61 80 1
61 84 1
61 88 1
61 108 1
61 113 1
61 117 1
61 288 1
61 307 1
62 2 1
62 5 1
62 15 1
62 16 1
62 25 1
62 30 1
62 35 1
62 41 1
62 42 1
62 55 1
62 66 1
62 75 1
62 76 1
62 79 1
62 86 1
62 90 1
62 110 1
62 115 1
62 119 1
62 290 1
62 309 1
63 4 1
63 7 1
63 17 1
63 18 1
63 27 1
63 32 1
63 37 1
63 41 1
63 43 1
63 44 1
63 57 1
63 68 1
63 77 1
63 78 1
63 81 1
63 88 1
63 92 1
63 112 1
63 117 1
63 292 1
63 311 1
64 6 1
64 9 1
64 19 1
64 20 1
64 29 1
64 34 1
64 39 1
64 43 1
64 45 1
64 46 1
64 59 1
64 70 1
64 79 1
64 80 1
64 83 1
64 90 1
64 94 1
64 114 1
64 119 1
64 294 1
64 313 1
65 1 1
65 8 1
65 11 1
65 21 1
65 22 1
65 31 1
65 36 1
65 41 1
65 42 1
65 45 1
65 47 1
65 48 1
65 61 1
65 72 1
65 81 1
65 85 1
65 92 1
65 96 1
65 116 1
65 296 1
65 315 1
66 3 1
66 10 1
66 13 1
66 23 1
66 24 1
66 33 1
66 38 1
66 43 1
66 44 1
66 47 1
66 49 1
66 50 1
66 63 1
66 74 1
66 83 1
66 87 1
66 94 1
66 98 1
66 118 1
66 298 1
66 317 1
67 5 1
67 12 1
67 15 1
67 25 1
67 26 1
67 35 1
67 40 1
67 45 1
67 46 1
67 49 1
67 51 1
67 52 1
67 65 1
67 76 1
67 85 1
67 89 1
67 96 1
67 100 1
67 120 1
67 300 1
67 319 1
68 2 1
68 7 1
68 14 1
68 17 1
68 27 1
68 28 1
68 37 1
68 47 1
68 48 1
68 51 1
68 53 1
68 54 1
68 67 1
68 78 1
68 82 1
68 87 1
68 91 1
68 98 1
68 102 1
68 281 1
68 302 1
69 4 1
69 9 1
69 16 1
69 19 1
69 29 1
69 30 1
69 39 1
69 49 1
69 50 1
69 53 1
69 55 1
69 56 1
69 69 1
69 80 1
69 84 1
69 89 1
69 93 1
69 100 1
69 104 1
69 283 1
69 304 1
70 1 1
70 6 1
70 11 1
70 18 1
70 21 1
70 31 1
70 32 1
70 42 1
70 51 1
70 52 1
70 55 1
70 57 1
70 58 1
70 71 1
70 86 1
70 91 1
70 95 1
70 102 1
70 106 1
70 285 1
70 306 1
71 3 1
71 8 1
71 13 1
71 20 1
71 23 1
71 33 1
71 34 1
71 44 1
71 53 1
71 54 1
71 57 1
71 59 1
71 60 1
71 73 1
71 88 1
71 93 1
71 97 1
71 104 1
71 108 1
71 287 1
71 308 1
72 5 1
72 10 1
72 15 1
72 22 1
72 25 1
72 35 1
72 36 1
72 46 1
72 55 1
72 56 1
72 59 1
72 61 1
72 62 1
72 75 1
72 90 1
72 95 1
72 99 1
72 106 1
72 110 1
72 289 1
72 310 1
73 7 1
73 12 1
73 17 1
73 24 1
73 27 1
73 37 1
73 38 1
73 48 1
73 57 1
73 58 1
73 61 1
73 63 1
73 64 1
73 77 1
73 92 1
73 97 1
73 101 1
73 108 1
73 112 1
73 291 1
73 312 1
74 9 1
74 14 1
74 19 1
74 26 1
74 29 1
74 39 1
74 40 1
74 50 1
74 59 1
74 60 1
74 63 1
74 65 1
74 66 1
74 79 1
74 94 1
74 99 1
74 103 1
74 110 1
74 114 1
74 293 1
74 314 1
75 1 1
75 2 1
75 11 1
75 16 1
75 21 1
75 28 1
75 31 1
75 41 1
75 52 1
75 61 1
75 62 1
75 65 1
75 67 1
75 68 1
75 96 1
75 101 1
75 105 1
75 112 1
75 116 1
75 295 1
75 316 1
76 3 1
76 4 1
76 13 1
76 18 1
76 23 1
76 30 1
76 33 1
76 43 1
76 54 1
76 63 1
76 64 1
76 67 1
76 69 1
76 70 1
76 98 1
76 103 1
76 107 1
76 114 1
76 118 1
76 297 1
76 318 1
77 5 1
77 6 1
77 15 1
77 20 1
77 25 1
77 32 1
77 35 1
77 45 1
77 56 1
77 65 1
77 66 1
77 69 1
77 71 1
77 72 1
77 100 1
77 105 1
77 109 1
77 116 1
77 120 1
77 299 1
77 320 1
78 7 1
78 8 1
78 17 1
78 22 1
78 27 1
78 34 1
78 37 1
78 47 1
78 58 1
78 67 1
78 68 1
78 71 1
78 73 1
78 74 1
78 82 1
78 102 1
78 107 1
78 111 1
78 118 1
78 282 1
78 301 1
79 9 1
79 10 1
79 19 1
79 24 1
79 29 1
79 36 1
79 39 1
79 49 1
79 60 1
79 69 1
79 70 1
79 73 1
79 75 1
79 76 1
79 84 1
79 104 1
79 109 1
79 113 1
79 120 1
79 284 1
79 303 1
80 1 1
80 11 1
80 12 1
80 21 1
80 26 1
80 31 1
80 38 1
80 51 1
80 62 1
80 71 1
80 72 1
80 75 1
80 77 1
80 78 1
80 82 1
80 86 1
80 106 1
80 111 1
80 115 1
80 286 1
80 305 1
