%%MatrixMarket matrix coordinate integer general
% GF(4) labels 0,1,2=omega,3=omega+1; arithmetic is NOT integer arithmetic.
% Coordinate indices are 1-based; omitted entries are zero.
40 160 700
1 2 2
1 4 1
1 7 3
1 12 3
1 15 1
1 22 3
1 27 1
1 32 2
1 35 2
1 37 1
1 39 1
1 52 3
1 54 1
1 57 1
1 59 1
1 64 2
1 74 1
2 3 2
2 5 1
2 8 3
2 13 3
2 16 1
2 23 3
2 28 1
2 33 2
2 36 2
2 38 1
2 40 1
2 53 3
2 55 1
2 58 1
2 60 1
2 65 2
2 75 1
3 4 2
3 6 1
3 9 3
3 14 3
3 17 1
3 21 1
3 24 3
3 29 1
3 34 2
3 37 2
3 39 1
3 41 1
3 54 3
3 56 1
3 59 1
3 66 2
3 76 1
4 5 2
4 7 1
4 10 3
4 15 3
4 18 1
4 22 1
4 25 3
4 30 1
4 35 2
4 38 2
4 40 1
4 42 1
4 55 3
4 57 1
4 60 1
4 67 2
4 77 1
5 6 2
5 8 1
5 11 3
5 16 3
5 19 1
5 21 1
5 23 1
5 26 3
5 31 1
5 36 2
5 39 2
5 41 1
5 43 1
5 56 3
5 58 1
5 68 2
5 78 1
6 7 2
6 9 1
6 12 3
6 17 3
6 20 1
6 22 1
6 24 1
6 27 3
6 32 1
6 37 2
6 40 2
6 42 1
6 44 1
6 57 3
6 59 1
6 69 2
6 79 1
7 1 1
7 8 2
7 10 1
7 13 3
7 18 3
7 21 2
7 23 1
7 25 1
7 28 3
7 33 1
7 38 2
7 43 1
7 45 1
7 58 3
7 60 1
7 70 2
7 80 1
8 2 1
8 9 2
8 11 1
8 14 3
8 19 3
8 22 2
8 24 1
8 26 1
8 29 3
8 34 1
8 39 2
8 41 1
8 44 1
8 46 1
8 59 3
8 61 1
8 71 2
9 3 1
9 10 2
9 12 1
9 15 3
9 20 3
9 23 2
9 25 1
9 27 1
9 30 3
9 35 1
9 40 2
9 42 1
9 45 1
9 47 1
9 60 3
9 62 1
9 72 2
10 1 3
10 4 1
10 11 2
10 13 1
10 16 3
10 21 2
10 24 2
10 26 1
10 28 1
10 31 3
10 36 1
10 41 3
10 43 1
10 46 1
10 48 1
10 63 1
10 73 2
11 2 3
11 5 1
11 12 2
11 14 1
11 17 3
11 22 2
11 25 2
11 27 1
11 29 1
11 32 3
11 37 1
11 42 3
11 44 1
11 47 1
11 49 1
11 64 1
11 74 2
12 3 3
12 6 1
12 13 2
12 15 1
12 18 3
12 23 2
12 26 2
12 28 1
12 30 1
12 33 3
12 38 1
12 43 3
12 45 1
12 48 1
12 50 1
12 65 1
12 75 2
13 4 3
13 7 1
13 14 2
13 16 1
13 19 3
13 24 2
13 27 2
13 29 1
13 31 1
13 34 3
13 39 1
13 44 3
13 46 1
13 49 1
13 51 1
13 66 1
13 76 2
14 5 3
14 8 1
14 15 2
14 17 1
14 20 3
14 25 2
14 28 2
14 30 1
14 32 1
14 35 3
14 40 1
14 45 3
14 47 1
14 50 1
14 52 1
14 67 1
14 77 2
15 1 3
15 6 3
15 9 1
15 16 2
15 18 1
15 21 1
15 26 2
15 29 2
15 31 1
15 33 1
15 36 3
15 46 3
15 48 1
15 51 1
15 53 1
15 68 1
15 78 2
16 2 3
16 7 3
16 10 1
16 17 2
16 19 1
16 22 1
16 27 2
16 30 2
16 32 1
16 34 1
16 37 3
16 47 3
16 49 1
16 52 1
16 54 1
16 69 1
16 79 2
17 3 3
17 8 3
17 11 1
17 18 2
17 20 1
17 23 1
17 28 2
17 31 2
17 33 1
17 35 1
17 38 3
17 48 3
17 50 1
17 53 1
17 55 1
17 70 1
17 80 2
18 1 1
18 4 3
18 9 3
18 12 1
18 19 2
18 24 1
18 29 2
18 32 2
18 34 1
18 36 1
18 39 3
18 49 3
18 51 1
18 54 1
18 56 1
18 61 2
18 71 1
19 2 1
19 5 3
19 10 3
19 13 1
19 20 2
19 25 1
19 30 2
19 33 2
19 35 1
19 37 1
19 40 3
19 50 3
19 52 1
19 55 1
19 57 1
19 62 2
19 72 1
20 1 2
20 3 1
20 6 3
20 11 3
20 14 1
20 21 3
20 26 1
20 31 2
20 34 2
20 36 1
20 38 1
20 51 3
20 53 1
20 56 1
20 58 1
20 63 2
20 73 1
21 2 3
21 7 2
21 12 3
21 14 1
21 17 3
21 20 1
21 27 3
21 32 1
21 37 2
21 39 3
21 40 2
21 42 1
21 44 1
21 54 1
21 57 3
21 59 3
21 144 1
21 154 3
22 1 1
22 3 3
22 8 2
22 13 3
22 15 1
22 18 3
22 21 2
22 28 3
22 33 1
22 38 2
22 40 3
22 43 1
22 45 1
22 55 1
22 58 3
22 60 3
22 145 1
22 155 3
23 2 1
23 4 3
23 9 2
23 14 3
23 16 1
23 19 3
23 21 3
23 22 2
23 29 3
23 34 1
23 39 2
23 41 3
23 44 1
23 46 1
23 56 1
23 59 3
23 146 1
23 156 3
24 3 1
24 5 3
24 10 2
24 15 3
24 17 1
24 20 3
24 22 3
24 23 2
24 30 3
24 35 1
24 40 2
24 42 3
24 45 1
24 47 1
24 57 1
24 60 3
24 147 1
24 157 3
25 1 3
25 4 1
25 6 3
25 11 2
25 16 3
25 18 1
25 21 2
25 23 3
25 24 2
25 31 3
25 36 1
25 41 3
25 43 3
25 46 1
25 48 1
25 58 1
25 148 1
25 158 3
26 2 3
26 5 1
26 7 3
26 12 2
26 17 3
26 19 1
26 22 2
26 24 3
26 25 2
26 32 3
26 37 1
26 42 3
26 44 3
26 47 1
26 49 1
26 59 1
26 149 1
26 159 3
27 3 3
27 6 1
27 8 3
27 13 2
27 18 3
27 20 1
27 23 2
27 25 3
27 26 2
27 33 3
27 38 1
27 43 3
27 45 3
27 48 1
27 50 1
27 60 1
27 150 1
27 160 3
28 1 1
28 4 3
28 7 1
28 9 3
28 14 2
28 19 3
28 24 2
28 26 3
28 27 2
28 34 3
28 39 1
28 41 1
28 44 3
28 46 3
28 49 1
28 51 1
28 141 3
28 151 1
29 2 1
29 5 3
29 8 1
29 10 3
29 15 2
29 20 3
29 25 2
29 27 3
29 28 2
29 35 3
29 40 1
29 42 1
29 45 3
29 47 3
29 50 1
29 52 1
29 142 3
29 152 1
30 1 3
30 3 1
30 6 3
30 9 1
30 11 3
30 16 2
30 21 1
30 26 2
30 28 3
30 29 2
30 36 3
30 43 1
30 46 3
30 48 3
30 51 1
30 53 1
30 143 3
30 153 1
31 2 3
31 4 1
31 7 3
31 10 1
31 12 3
31 17 2
31 22 1
31 27 2
31 29 3
31 30 2
31 37 3
31 44 1
31 47 3
31 49 3
31 52 1
31 54 1
31 144 3
31 154 1
32 3 3
32 5 1
32 8 3
32 11 1
32 13 3
32 18 2
32 23 1
32 28 2
32 30 3
32 31 2
32 38 3
32 45 1
32 48 3
32 50 3
32 53 1
32 55 1
32 145 3
32 155 1
33 4 3
33 6 1
33 9 3
33 12 1
33 14 3
33 19 2
33 24 1
33 29 2
33 31 3
33 32 2
33 39 3
33 46 1
33 49 3
33 51 3
33 54 1
33 56 1
33 146 3
33 156 1
34 5 3
34 7 1
34 10 3
34 13 1
34 15 3
34 20 2
34 25 1
34 30 2
34 32 3
34 33 2
34 40 3
34 47 1
34 50 3
34 52 3
34 55 1
34 57 1
34 147 3
34 157 1
35 1 2
35 6 3
35 8 1
35 11 3
35 14 1
35 16 3
35 21 3
35 26 1
35 31 2
35 33 3
35 34 2
35 48 1
35 51 3
35 53 3
35 56 1
35 58 1
35 148 3
35 158 1
36 2 2
36 7 3
36 9 1
36 12 3
36 15 1
36 17 3
36 22 3
36 27 1
36 32 2
36 34 3
36 35 2
36 49 1
36 52 3
36 54 3
36 57 1
36 59 1
36 149 3
36 159 1
37 3 2
37 8 3
37 10 1
37 13 3
37 16 1
37 18 3
37 23 3
37 28 1
37 33 2
37 35 3
37 36 2
37 50 1
37 53 3
37 55 3
37 58 1
37 60 1
37 150 3
37 160 1
38 4 2
38 9 3
38 11 1
38 14 3
38 17 1
38 19 3
38 24 3
38 29 1
38 34 2
38 36 3
38 37 2
38 41 1
38 51 1
38 54 3
38 56 3
38 59 1
38 141 1
38 151 3
39 5 2
39 10 3
39 12 1
39 15 3
39 18 1
39 20 3
39 25 3
39 30 1
39 35 2
39 37 3
39 38 2
39 42 1
39 52 1
39 55 3
39 57 3
39 60 1
39 142 1
39 152 3
40 1 3
40 6 2
40 11 3
40 13 1
40 16 3
40 19 1
40 26 3
40 31 1
40 36 2
40 38 3
40 39 2
40 41 1
40 43 1
40 53 1
40 56 3
40 58 3
40 143 1
40 153 3
