%%MatrixMarket matrix coordinate integer general
% Binary matrix over GF(2).
% Coordinate indices are 1-based; omitted entries are zero.
216 576 1836
1 2 1
1 73 1
1 145 1
1 217 1
1 289 1
1 361 1
1 433 1
1 505 1
2 1 1
2 2 1
2 74 1
2 146 1
2 218 1
2 290 1
2 362 1
2 434 1
2 506 1
3 4 1
3 75 1
3 147 1
3 219 1
3 291 1
3 363 1
3 435 1
3 507 1
4 3 1
4 4 1
4 76 1
4 148 1
4 220 1
4 292 1
4 364 1
4 436 1
4 508 1
5 6 1
5 77 1
5 149 1
5 221 1
5 293 1
5 365 1
5 437 1
5 509 1
6 5 1
6 6 1
6 78 1
6 150 1
6 222 1
6 294 1
6 366 1
6 438 1
6 510 1
7 8 1
7 79 1
7 151 1
7 223 1
7 295 1
7 367 1
7 439 1
7 511 1
8 7 1
8 8 1
8 80 1
8 152 1
8 224 1
8 296 1
8 368 1
8 440 1
8 512 1
9 10 1
9 81 1
9 153 1
9 225 1
9 297 1
9 369 1
9 441 1
9 513 1
10 9 1
10 10 1
10 82 1
10 154 1
10 226 1
10 298 1
10 370 1
10 442 1
10 514 1
11 12 1
11 83 1
11 155 1
11 227 1
11 299 1
11 371 1
11 443 1
11 515 1
12 11 1
12 12 1
12 84 1
12 156 1
12 228 1
12 300 1
12 372 1
12 444 1
12 516 1
13 14 1
13 85 1
13 157 1
13 229 1
13 301 1
13 373 1
13 445 1
13 517 1
14 13 1
14 14 1
14 86 1
14 158 1
14 230 1
14 302 1
14 374 1
14 446 1
14 518 1
15 16 1
15 87 1
15 159 1
15 231 1
15 303 1
15 375 1
15 447 1
15 519 1
16 15 1
16 16 1
16 88 1
16 160 1
16 232 1
16 304 1
16 376 1
16 448 1
16 520 1
17 18 1
17 89 1
17 161 1
17 233 1
17 305 1
17 377 1
17 449 1
17 521 1
18 17 1
18 18 1
18 90 1
18 162 1
18 234 1
18 306 1
18 378 1
18 450 1
18 522 1
19 20 1
19 91 1
19 163 1
19 235 1
19 307 1
19 379 1
19 451 1
19 523 1
20 19 1
20 20 1
20 92 1
20 164 1
20 236 1
20 308 1
20 380 1
20 452 1
20 524 1
21 22 1
21 93 1
21 165 1
21 237 1
21 309 1
21 381 1
21 453 1
21 525 1
22 21 1
22 22 1
22 94 1
22 166 1
22 238 1
22 310 1
22 382 1
22 454 1
22 526 1
23 24 1
23 95 1
23 167 1
23 239 1
23 311 1
23 383 1
23 455 1
23 527 1
24 23 1
24 24 1
24 96 1
24 168 1
24 240 1
24 312 1
24 384 1
24 456 1
24 528 1
25 26 1
25 97 1
25 169 1
25 241 1
25 313 1
25 385 1
25 457 1
25 529 1
26 25 1
26 26 1
26 98 1
26 170 1
26 242 1
26 314 1
26 386 1
26 458 1
26 530 1
27 28 1
27 99 1
27 171 1
27 243 1
27 315 1
27 387 1
27 459 1
27 531 1
28 27 1
28 28 1
28 100 1
28 172 1
28 244 1
28 316 1
28 388 1
28 460 1
28 532 1
29 30 1
29 101 1
29 173 1
29 245 1
29 317 1
29 389 1
29 461 1
29 533 1
30 29 1
30 30 1
30 102 1
30 174 1
30 246 1
30 318 1
30 390 1
30 462 1
30 534 1
31 32 1
31 103 1
31 175 1
31 247 1
31 319 1
31 391 1
31 463 1
31 535 1
32 31 1
32 32 1
32 104 1
32 176 1
32 248 1
32 320 1
32 392 1
32 464 1
32 536 1
33 34 1
33 105 1
33 177 1
33 249 1
33 321 1
33 393 1
33 465 1
33 537 1
34 33 1
34 34 1
34 106 1
34 178 1
34 250 1
34 322 1
34 394 1
34 466 1
34 538 1
35 36 1
35 107 1
35 179 1
35 251 1
35 323 1
35 395 1
35 467 1
35 539 1
36 35 1
36 36 1
36 108 1
36 180 1
36 252 1
36 324 1
36 396 1
36 468 1
36 540 1
37 38 1
37 109 1
37 181 1
37 253 1
37 325 1
37 397 1
37 469 1
37 541 1
38 37 1
38 38 1
38 110 1
38 182 1
38 254 1
38 326 1
38 398 1
38 470 1
38 542 1
39 40 1
39 111 1
39 183 1
39 255 1
39 327 1
39 399 1
39 471 1
39 543 1
40 39 1
40 40 1
40 112 1
40 184 1
40 256 1
40 328 1
40 400 1
40 472 1
40 544 1
41 42 1
41 113 1
41 185 1
41 257 1
41 329 1
41 401 1
41 473 1
41 545 1
42 41 1
42 42 1
42 114 1
42 186 1
42 258 1
42 330 1
42 402 1
42 474 1
42 546 1
43 44 1
43 115 1
43 187 1
43 259 1
43 331 1
43 403 1
43 475 1
43 547 1
44 43 1
44 44 1
44 116 1
44 188 1
44 260 1
44 332 1
44 404 1
44 476 1
44 548 1
45 46 1
45 117 1
45 189 1
45 261 1
45 333 1
45 405 1
45 477 1
45 549 1
46 45 1
46 46 1
46 118 1
46 190 1
46 262 1
46 334 1
46 406 1
46 478 1
46 550 1
47 48 1
47 119 1
47 191 1
47 263 1
47 335 1
47 407 1
47 479 1
47 551 1
48 47 1
48 48 1
48 120 1
48 192 1
48 264 1
48 336 1
48 408 1
48 480 1
48 552 1
49 50 1
49 121 1
49 193 1
49 265 1
49 337 1
49 409 1
49 481 1
49 553 1
50 49 1
50 50 1
50 122 1
50 194 1
50 266 1
50 338 1
50 410 1
50 482 1
50 554 1
51 52 1
51 123 1
51 195 1
51 267 1
51 339 1
51 411 1
51 483 1
51 555 1
52 51 1
52 52 1
52 124 1
52 196 1
52 268 1
52 340 1
52 412 1
52 484 1
52 556 1
53 54 1
53 125 1
53 197 1
53 269 1
53 341 1
53 413 1
53 485 1
53 557 1
54 53 1
54 54 1
54 126 1
54 198 1
54 270 1
54 342 1
54 414 1
54 486 1
54 558 1
55 56 1
55 127 1
55 199 1
55 271 1
55 343 1
55 415 1
55 487 1
55 559 1
56 55 1
56 56 1
56 128 1
56 200 1
56 272 1
56 344 1
56 416 1
56 488 1
56 560 1
57 58 1
57 129 1
57 201 1
57 273 1
57 345 1
57 417 1
57 489 1
57 561 1
58 57 1
58 58 1
58 130 1
58 202 1
58 274 1
58 346 1
58 418 1
58 490 1
58 562 1
59 60 1
59 131 1
59 203 1
59 275 1
59 347 1
59 419 1
59 491 1
59 563 1
60 59 1
60 60 1
60 132 1
60 204 1
60 276 1
60 348 1
60 420 1
60 492 1
60 564 1
61 62 1
61 133 1
61 205 1
61 277 1
61 349 1
61 421 1
61 493 1
61 565 1
62 61 1
62 62 1
62 134 1
62 206 1
62 278 1
62 350 1
62 422 1
62 494 1
62 566 1
63 64 1
63 135 1
63 207 1
63 279 1
63 351 1
63 423 1
63 495 1
63 567 1
64 63 1
64 64 1
64 136 1
64 208 1
64 280 1
64 352 1
64 424 1
64 496 1
64 568 1
65 66 1
65 137 1
65 209 1
65 281 1
65 353 1
65 425 1
65 497 1
65 569 1
66 65 1
66 66 1
66 138 1
66 210 1
66 282 1
66 354 1
66 426 1
66 498 1
66 570 1
67 68 1
67 139 1
67 211 1
67 283 1
67 355 1
67 427 1
67 499 1
67 571 1
68 67 1
68 68 1
68 140 1
68 212 1
68 284 1
68 356 1
68 428 1
68 500 1
68 572 1
69 70 1
69 141 1
69 213 1
69 285 1
69 357 1
69 429 1
69 501 1
69 573 1
70 69 1
70 70 1
70 142 1
70 214 1
70 286 1
70 358 1
70 430 1
70 502 1
70 574 1
71 72 1
71 143 1
71 215 1
71 287 1
71 359 1
71 431 1
71 503 1
71 575 1
72 71 1
72 72 1
72 144 1
72 216 1
72 288 1
72 360 1
72 432 1
72 504 1
72 576 1
73 1 1
73 144 1
73 163 1
73 271 1
73 351 1
73 395 1
73 445 1
73 507 1
74 2 1
74 143 1
74 144 1
74 164 1
74 272 1
74 352 1
74 396 1
74 446 1
74 508 1
75 3 1
75 74 1
75 165 1
75 273 1
75 353 1
75 397 1
75 447 1
75 509 1
76 4 1
76 73 1
76 74 1
76 166 1
76 274 1
76 354 1
76 398 1
76 448 1
76 510 1
77 5 1
77 76 1
77 167 1
77 275 1
77 355 1
77 399 1
77 449 1
77 511 1
78 6 1
78 75 1
78 76 1
78 168 1
78 276 1
78 356 1
78 400 1
78 450 1
78 512 1
79 7 1
79 78 1
79 169 1
79 277 1
79 357 1
79 401 1
79 451 1
79 513 1
80 8 1
80 77 1
80 78 1
80 170 1
80 278 1
80 358 1
80 402 1
80 452 1
80 514 1
81 9 1
81 80 1
81 171 1
81 279 1
81 359 1
81 403 1
81 453 1
81 515 1
82 10 1
82 79 1
82 80 1
82 172 1
82 280 1
82 360 1
82 404 1
82 454 1
82 516 1
83 11 1
83 82 1
83 173 1
83 281 1
83 289 1
83 405 1
83 455 1
83 517 1
84 12 1
84 81 1
84 82 1
84 174 1
84 282 1
84 290 1
84 406 1
84 456 1
84 518 1
85 13 1
85 84 1
85 175 1
85 283 1
85 291 1
85 407 1
85 457 1
85 519 1
86 14 1
86 83 1
86 84 1
86 176 1
86 284 1
86 292 1
86 408 1
86 458 1
86 520 1
87 15 1
87 86 1
87 177 1
87 285 1
87 293 1
87 409 1
87 459 1
87 521 1
88 16 1
88 85 1
88 86 1
88 178 1
88 286 1
88 294 1
88 410 1
88 460 1
88 522 1
89 17 1
89 88 1
89 179 1
89 287 1
89 295 1
89 411 1
89 461 1
89 523 1
90 18 1
90 87 1
90 88 1
90 180 1
90 288 1
90 296 1
90 412 1
90 462 1
90 524 1
91 19 1
91 90 1
91 181 1
91 217 1
91 297 1
91 413 1
91 463 1
91 525 1
92 20 1
92 89 1
92 90 1
92 182 1
92 218 1
92 298 1
92 414 1
92 464 1
92 526 1
93 21 1
93 92 1
93 183 1
93 219 1
93 299 1
93 415 1
93 465 1
93 527 1
94 22 1
94 91 1
94 92 1
94 184 1
94 220 1
94 300 1
94 416 1
94 466 1
94 528 1
95 23 1
95 94 1
95 185 1
95 221 1
95 301 1
95 417 1
95 467 1
95 529 1
96 24 1
96 93 1
96 94 1
96 186 1
96 222 1
96 302 1
96 418 1
96 468 1
96 530 1
97 25 1
97 96 1
97 187 1
97 223 1
97 303 1
97 419 1
97 469 1
97 531 1
98 26 1
98 95 1
98 96 1
98 188 1
98 224 1
98 304 1
98 420 1
98 470 1
98 532 1
99 27 1
99 98 1
99 189 1
99 225 1
99 305 1
99 421 1
99 471 1
99 533 1
100 28 1
100 97 1
100 98 1
100 190 1
100 226 1
100 306 1
100 422 1
100 472 1
100 534 1
101 29 1
101 100 1
101 191 1
101 227 1
101 307 1
101 423 1
101 473 1
101 535 1
102 30 1
102 99 1
102 100 1
102 192 1
102 228 1
102 308 1
102 424 1
102 474 1
102 536 1
103 31 1
103 102 1
103 193 1
103 229 1
103 309 1
103 425 1
103 475 1
103 537 1
104 32 1
104 101 1
104 102 1
104 194 1
104 230 1
104 310 1
104 426 1
104 476 1
104 538 1
105 33 1
105 104 1
105 195 1
105 231 1
105 311 1
105 427 1
105 477 1
105 539 1
106 34 1
106 103 1
106 104 1
106 196 1
106 232 1
106 312 1
106 428 1
106 478 1
106 540 1
107 35 1
107 106 1
107 197 1
107 233 1
107 313 1
107 429 1
107 479 1
107 541 1
108 36 1
108 105 1
108 106 1
108 198 1
108 234 1
108 314 1
108 430 1
108 480 1
108 542 1
109 37 1
109 108 1
109 199 1
109 235 1
109 315 1
109 431 1
109 481 1
109 543 1
110 38 1
110 107 1
110 108 1
110 200 1
110 236 1
110 316 1
110 432 1
110 482 1
110 544 1
111 39 1
111 110 1
111 201 1
111 237 1
111 317 1
111 361 1
111 483 1
111 545 1
112 40 1
112 109 1
112 110 1
112 202 1
112 238 1
112 318 1
112 362 1
112 484 1
112 546 1
113 41 1
113 112 1
113 203 1
113 239 1
113 319 1
113 363 1
113 485 1
113 547 1
114 42 1
114 111 1
114 112 1
114 204 1
114 240 1
114 320 1
114 364 1
114 486 1
114 548 1
115 43 1
115 114 1
115 205 1
115 241 1
115 321 1
115 365 1
115 487 1
115 549 1
116 44 1
116 113 1
116 114 1
116 206 1
116 242 1
116 322 1
116 366 1
116 488 1
116 550 1
117 45 1
117 116 1
117 207 1
117 243 1
117 323 1
117 367 1
117 489 1
117 551 1
118 46 1
118 115 1
118 116 1
118 208 1
118 244 1
118 324 1
118 368 1
118 490 1
118 552 1
119 47 1
119 118 1
119 209 1
119 245 1
119 325 1
119 369 1
119 491 1
119 553 1
120 48 1
120 117 1
120 118 1
120 210 1
120 246 1
120 326 1
120 370 1
120 492 1
120 554 1
121 49 1
121 120 1
121 211 1
121 247 1
121 327 1
121 371 1
121 493 1
121 555 1
122 50 1
122 119 1
122 120 1
122 212 1
122 248 1
122 328 1
122 372 1
122 494 1
122 556 1
123 51 1
123 122 1
123 213 1
123 249 1
123 329 1
123 373 1
123 495 1
123 557 1
124 52 1
124 121 1
124 122 1
124 214 1
124 250 1
124 330 1
124 374 1
124 496 1
124 558 1
125 53 1
125 124 1
125 215 1
125 251 1
125 331 1
125 375 1
125 497 1
125 559 1
126 54 1
126 123 1
126 124 1
126 216 1
126 252 1
126 332 1
126 376 1
126 498 1
126 560 1
127 55 1
127 126 1
127 145 1
127 253 1
127 333 1
127 377 1
127 499 1
127 561 1
128 56 1
128 125 1
128 126 1
128 146 1
128 254 1
128 334 1
128 378 1
128 500 1
128 562 1
129 57 1
129 128 1
129 147 1
129 255 1
129 335 1
129 379 1
129 501 1
129 563 1
130 58 1
130 127 1
130 128 1
130 148 1
130 256 1
130 336 1
130 380 1
130 502 1
130 564 1
131 59 1
131 130 1
131 149 1
131 257 1
131 337 1
131 381 1
131 503 1
131 565 1
132 60 1
132 129 1
132 130 1
132 150 1
132 258 1
132 338 1
132 382 1
132 504 1
132 566 1
133 61 1
133 132 1
133 151 1
133 259 1
133 339 1
133 383 1
133 433 1
133 567 1
134 62 1
134 131 1
134 132 1
134 152 1
134 260 1
134 340 1
134 384 1
134 434 1
134 568 1
135 63 1
135 134 1
135 153 1
135 261 1
135 341 1
135 385 1
135 435 1
135 569 1
136 64 1
136 133 1
136 134 1
136 154 1
136 262 1
136 342 1
136 386 1
136 436 1
136 570 1
137 65 1
137 136 1
137 155 1
137 263 1
137 343 1
137 387 1
137 437 1
137 571 1
138 66 1
138 135 1
138 136 1
138 156 1
138 264 1
138 344 1
138 388 1
138 438 1
138 572 1
139 67 1
139 138 1
139 157 1
139 265 1
139 345 1
139 389 1
139 439 1
139 573 1
140 68 1
140 137 1
140 138 1
140 158 1
140 266 1
140 346 1
140 390 1
140 440 1
140 574 1
141 69 1
141 140 1
141 159 1
141 267 1
141 347 1
141 391 1
141 441 1
141 575 1
142 70 1
142 139 1
142 140 1
142 160 1
142 268 1
142 348 1
142 392 1
142 442 1
142 576 1
143 71 1
143 142 1
143 161 1
143 269 1
143 349 1
143 393 1
143 443 1
143 505 1
144 72 1
144 141 1
144 142 1
144 162 1
144 270 1
144 350 1
144 394 1
144 444 1
144 506 1
145 1 1
145 89 1
145 200 1
145 243 1
145 335 1
145 403 1
145 497 1
145 561 1
146 2 1
146 90 1
146 199 1
146 200 1
146 244 1
146 336 1
146 404 1
146 498 1
146 562 1
147 3 1
147 91 1
147 202 1
147 245 1
147 337 1
147 405 1
147 499 1
147 563 1
148 4 1
148 92 1
148 201 1
148 202 1
148 246 1
148 338 1
148 406 1
148 500 1
148 564 1
149 5 1
149 93 1
149 204 1
149 247 1
149 339 1
149 407 1
149 501 1
149 565 1
150 6 1
150 94 1
150 203 1
150 204 1
150 248 1
150 340 1
150 408 1
150 502 1
150 566 1
151 7 1
151 95 1
151 206 1
151 249 1
151 341 1
151 409 1
151 503 1
151 567 1
152 8 1
152 96 1
152 205 1
152 206 1
152 250 1
152 342 1
152 410 1
152 504 1
152 568 1
153 9 1
153 97 1
153 208 1
153 251 1
153 343 1
153 411 1
153 433 1
153 569 1
154 10 1
154 98 1
154 207 1
154 208 1
154 252 1
154 344 1
154 412 1
154 434 1
154 570 1
155 11 1
155 99 1
155 210 1
155 253 1
155 345 1
155 413 1
155 435 1
155 571 1
156 12 1
156 100 1
156 209 1
156 210 1
156 254 1
156 346 1
156 414 1
156 436 1
156 572 1
157 13 1
157 101 1
157 212 1
157 255 1
157 347 1
157 415 1
157 437 1
157 573 1
158 14 1
158 102 1
158 211 1
158 212 1
158 256 1
158 348 1
158 416 1
158 438 1
158 574 1
159 15 1
159 103 1
159 214 1
159 257 1
159 349 1
159 417 1
159 439 1
159 575 1
160 16 1
160 104 1
160 213 1
160 214 1
160 258 1
160 350 1
160 418 1
160 440 1
160 576 1
161 17 1
161 105 1
161 216 1
161 259 1
161 351 1
161 419 1
161 441 1
161 505 1
162 18 1
162 106 1
162 215 1
162 216 1
162 260 1
162 352 1
162 420 1
162 442 1
162 506 1
163 19 1
163 107 1
163 146 1
163 261 1
163 353 1
163 421 1
163 443 1
163 507 1
164 20 1
164 108 1
164 145 1
164 146 1
164 262 1
164 354 1
164 422 1
164 444 1
164 508 1
165 21 1
165 109 1
165 148 1
165 263 1
165 355 1
165 423 1
165 445 1
165 509 1
166 22 1
166 110 1
166 147 1
166 148 1
166 264 1
166 356 1
166 424 1
166 446 1
166 510 1
167 23 1
167 111 1
167 150 1
167 265 1
167 357 1
167 425 1
167 447 1
167 511 1
168 24 1
168 112 1
168 149 1
168 150 1
168 266 1
168 358 1
168 426 1
168 448 1
168 512 1
169 25 1
169 113 1
169 152 1
169 267 1
169 359 1
169 427 1
169 449 1
169 513 1
170 26 1
170 114 1
170 151 1
170 152 1
170 268 1
170 360 1
170 428 1
170 450 1
170 514 1
171 27 1
171 115 1
171 154 1
171 269 1
171 289 1
171 429 1
171 451 1
171 515 1
172 28 1
172 116 1
172 153 1
172 154 1
172 270 1
172 290 1
172 430 1
172 452 1
172 516 1
173 29 1
173 117 1
173 156 1
173 271 1
173 291 1
173 431 1
173 453 1
173 517 1
174 30 1
174 118 1
174 155 1
174 156 1
174 272 1
174 292 1
174 432 1
174 454 1
174 518 1
175 31 1
175 119 1
175 158 1
175 273 1
175 293 1
175 361 1
175 455 1
175 519 1
176 32 1
176 120 1
176 157 1
176 158 1
176 274 1
176 294 1
176 362 1
176 456 1
176 520 1
177 33 1
177 121 1
177 160 1
177 275 1
177 295 1
177 363 1
177 457 1
177 521 1
178 34 1
178 122 1
178 159 1
178 160 1
178 276 1
178 296 1
178 364 1
178 458 1
178 522 1
179 35 1
179 123 1
179 162 1
179 277 1
179 297 1
179 365 1
179 459 1
179 523 1
180 36 1
180 124 1
180 161 1
180 162 1
180 278 1
180 298 1
180 366 1
180 460 1
180 524 1
181 37 1
181 125 1
181 164 1
181 279 1
181 299 1
181 367 1
181 461 1
181 525 1
182 38 1
182 126 1
182 163 1
182 164 1
182 280 1
182 300 1
182 368 1
182 462 1
182 526 1
183 39 1
183 127 1
183 166 1
183 281 1
183 301 1
183 369 1
183 463 1
183 527 1
184 40 1
184 128 1
184 165 1
184 166 1
184 282 1
184 302 1
184 370 1
184 464 1
184 528 1
185 41 1
185 129 1
185 168 1
185 283 1
185 303 1
185 371 1
185 465 1
185 529 1
186 42 1
186 130 1
186 167 1
186 168 1
186 284 1
186 304 1
186 372 1
186 466 1
186 530 1
187 43 1
187 131 1
187 170 1
187 285 1
187 305 1
187 373 1
187 467 1
187 531 1
188 44 1
188 132 1
188 169 1
188 170 1
188 286 1
188 306 1
188 374 1
188 468 1
188 532 1
189 45 1
189 133 1
189 172 1
189 287 1
189 307 1
189 375 1
189 469 1
189 533 1
190 46 1
190 134 1
190 171 1
190 172 1
190 288 1
190 308 1
190 376 1
190 470 1
190 534 1
191 47 1
191 135 1
191 174 1
191 217 1
191 309 1
191 377 1
191 471 1
191 535 1
192 48 1
192 136 1
192 173 1
192 174 1
192 218 1
192 310 1
192 378 1
192 472 1
192 536 1
193 49 1
193 137 1
193 176 1
193 219 1
193 311 1
193 379 1
193 473 1
193 537 1
194 50 1
194 138 1
194 175 1
194 176 1
194 220 1
194 312 1
194 380 1
194 474 1
194 538 1
195 51 1
195 139 1
195 178 1
195 221 1
195 313 1
195 381 1
195 475 1
195 539 1
196 52 1
196 140 1
196 177 1
196 178 1
196 222 1
196 314 1
196 382 1
196 476 1
196 540 1
197 53 1
197 141 1
197 180 1
197 223 1
197 315 1
197 383 1
197 477 1
197 541 1
198 54 1
198 142 1
198 179 1
198 180 1
198 224 1
198 316 1
198 384 1
198 478 1
198 542 1
199 55 1
199 143 1
199 182 1
199 225 1
199 317 1
199 385 1
199 479 1
199 543 1
200 56 1
200 144 1
200 181 1
200 182 1
200 226 1
200 318 1
200 386 1
200 480 1
200 544 1
201 57 1
201 73 1
201 184 1
201 227 1
201 319 1
201 387 1
201 481 1
201 545 1
202 58 1
202 74 1
202 183 1
202 184 1
202 228 1
202 320 1
202 388 1
202 482 1
202 546 1
203 59 1
203 75 1
203 186 1
203 229 1
203 321 1
203 389 1
203 483 1
203 547 1
204 60 1
204 76 1
204 185 1
204 186 1
204 230 1
204 322 1
204 390 1
204 484 1
204 548 1
205 61 1
205 77 1
205 188 1
205 231 1
205 323 1
205 391 1
205 485 1
205 549 1
206 62 1
206 78 1
206 187 1
206 188 1
206 232 1
206 324 1
206 392 1
206 486 1
206 550 1
207 63 1
207 79 1
207 190 1
207 233 1
207 325 1
207 393 1
207 487 1
207 551 1
208 64 1
208 80 1
208 189 1
208 190 1
208 234 1
208 326 1
208 394 1
208 488 1
208 552 1
209 65 1
209 81 1
209 192 1
209 235 1
209 327 1
209 395 1
209 489 1
209 553 1
210 66 1
210 82 1
210 191 1
210 192 1
210 236 1
210 328 1
210 396 1
210 490 1
210 554 1
211 67 1
211 83 1
211 194 1
211 237 1
211 329 1
211 397 1
211 491 1
211 555 1
212 68 1
212 84 1
212 193 1
212 194 1
212 238 1
212 330 1
212 398 1
212 492 1
212 556 1
213 69 1
213 85 1
213 196 1
213 239 1
213 331 1
213 399 1
213 493 1
213 557 1
214 70 1
214 86 1
214 195 1
214 196 1
214 240 1
214 332 1
214 400 1
214 494 1
214 558 1
215 71 1
215 87 1
215 198 1
215 241 1
215 333 1
215 401 1
215 495 1
215 559 1
216 72 1
216 88 1
216 197 1
216 198 1
216 242 1
216 334 1
216 402 1
216 496 1
216 560 1
