%%MatrixMarket matrix coordinate integer general
% GF(4) labels 0,1,2=omega,3=omega+1; arithmetic is NOT integer arithmetic.
% Coordinate indices are 1-based; omitted entries are zero.
108 288 864
1 1 2
1 37 1
1 73 1
1 109 1
1 145 1
1 181 1
1 217 1
1 253 1
2 2 2
2 38 1
2 74 1
2 110 1
2 146 1
2 182 1
2 218 1
2 254 1
3 3 2
3 39 1
3 75 1
3 111 1
3 147 1
3 183 1
3 219 1
3 255 1
4 4 2
4 40 1
4 76 1
4 112 1
4 148 1
4 184 1
4 220 1
4 256 1
5 5 2
5 41 1
5 77 1
5 113 1
5 149 1
5 185 1
5 221 1
5 257 1
6 6 2
6 42 1
6 78 1
6 114 1
6 150 1
6 186 1
6 222 1
6 258 1
7 7 2
7 43 1
7 79 1
7 115 1
7 151 1
7 187 1
7 223 1
7 259 1
8 8 2
8 44 1
8 80 1
8 116 1
8 152 1
8 188 1
8 224 1
8 260 1
9 9 2
9 45 1
9 81 1
9 117 1
9 153 1
9 189 1
9 225 1
9 261 1
10 10 2
10 46 1
10 82 1
10 118 1
10 154 1
10 190 1
10 226 1
10 262 1
11 11 2
11 47 1
11 83 1
11 119 1
11 155 1
11 191 1
11 227 1
11 263 1
12 12 2
12 48 1
12 84 1
12 120 1
12 156 1
12 192 1
12 228 1
12 264 1
13 13 2
13 49 1
13 85 1
13 121 1
13 157 1
13 193 1
13 229 1
13 265 1
14 14 2
14 50 1
14 86 1
14 122 1
14 158 1
14 194 1
14 230 1
14 266 1
15 15 2
15 51 1
15 87 1
15 123 1
15 159 1
15 195 1
15 231 1
15 267 1
16 16 2
16 52 1
16 88 1
16 124 1
16 160 1
16 196 1
16 232 1
16 268 1
17 17 2
17 53 1
17 89 1
17 125 1
17 161 1
17 197 1
17 233 1
17 269 1
18 18 2
18 54 1
18 90 1
18 126 1
18 162 1
18 198 1
18 234 1
18 270 1
19 19 2
19 55 1
19 91 1
19 127 1
19 163 1
19 199 1
19 235 1
19 271 1
20 20 2
20 56 1
20 92 1
20 128 1
20 164 1
20 200 1
20 236 1
20 272 1
21 21 2
21 57 1
21 93 1
21 129 1
21 165 1
21 201 1
21 237 1
21 273 1
22 22 2
22 58 1
22 94 1
22 130 1
22 166 1
22 202 1
22 238 1
22 274 1
23 23 2
23 59 1
23 95 1
23 131 1
23 167 1
23 203 1
23 239 1
23 275 1
24 24 2
24 60 1
24 96 1
24 132 1
24 168 1
24 204 1
24 240 1
24 276 1
25 25 2
25 61 1
25 97 1
25 133 1
25 169 1
25 205 1
25 241 1
25 277 1
26 26 2
26 62 1
26 98 1
26 134 1
26 170 1
26 206 1
26 242 1
26 278 1
27 27 2
27 63 1
27 99 1
27 135 1
27 171 1
27 207 1
27 243 1
27 279 1
28 28 2
28 64 1
28 100 1
28 136 1
28 172 1
28 208 1
28 244 1
28 280 1
29 29 2
29 65 1
29 101 1
29 137 1
29 173 1
29 209 1
29 245 1
29 281 1
30 30 2
30 66 1
30 102 1
30 138 1
30 174 1
30 210 1
30 246 1
30 282 1
31 31 2
31 67 1
31 103 1
31 139 1
31 175 1
31 211 1
31 247 1
31 283 1
32 32 2
32 68 1
32 104 1
32 140 1
32 176 1
32 212 1
32 248 1
32 284 1
33 33 2
33 69 1
33 105 1
33 141 1
33 177 1
33 213 1
33 249 1
33 285 1
34 34 2
34 70 1
34 106 1
34 142 1
34 178 1
34 214 1
34 250 1
34 286 1
35 35 2
35 71 1
35 107 1
35 143 1
35 179 1
35 215 1
35 251 1
35 287 1
36 36 2
36 72 1
36 108 1
36 144 1
36 180 1
36 216 1
36 252 1
36 288 1
37 1 1
37 72 2
37 82 1
37 136 1
37 176 1
37 198 1
37 223 1
37 254 1
38 2 1
38 37 2
38 83 1
38 137 1
38 177 1
38 199 1
38 224 1
38 255 1
39 3 1
39 38 2
39 84 1
39 138 1
39 178 1
39 200 1
39 225 1
39 256 1
40 4 1
40 39 2
40 85 1
40 139 1
40 179 1
40 201 1
40 226 1
40 257 1
41 5 1
41 40 2
41 86 1
41 140 1
41 180 1
41 202 1
41 227 1
41 258 1
42 6 1
42 41 2
42 87 1
42 141 1
42 145 1
42 203 1
42 228 1
42 259 1
43 7 1
43 42 2
43 88 1
43 142 1
43 146 1
43 204 1
43 229 1
43 260 1
44 8 1
44 43 2
44 89 1
44 143 1
44 147 1
44 205 1
44 230 1
44 261 1
45 9 1
45 44 2
45 90 1
45 144 1
45 148 1
45 206 1
45 231 1
45 262 1
46 10 1
46 45 2
46 91 1
46 109 1
46 149 1
46 207 1
46 232 1
46 263 1
47 11 1
47 46 2
47 92 1
47 110 1
47 150 1
47 208 1
47 233 1
47 264 1
48 12 1
48 47 2
48 93 1
48 111 1
48 151 1
48 209 1
48 234 1
48 265 1
49 13 1
49 48 2
49 94 1
49 112 1
49 152 1
49 210 1
49 235 1
49 266 1
50 14 1
50 49 2
50 95 1
50 113 1
50 153 1
50 211 1
50 236 1
50 267 1
51 15 1
51 50 2
51 96 1
51 114 1
51 154 1
51 212 1
51 237 1
51 268 1
52 16 1
52 51 2
52 97 1
52 115 1
52 155 1
52 213 1
52 238 1
52 269 1
53 17 1
53 52 2
53 98 1
53 116 1
53 156 1
53 214 1
53 239 1
53 270 1
54 18 1
54 53 2
54 99 1
54 117 1
54 157 1
54 215 1
54 240 1
54 271 1
55 19 1
55 54 2
55 100 1
55 118 1
55 158 1
55 216 1
55 241 1
55 272 1
56 20 1
56 55 2
56 101 1
56 119 1
56 159 1
56 181 1
56 242 1
56 273 1
57 21 1
57 56 2
57 102 1
57 120 1
57 160 1
57 182 1
57 243 1
57 274 1
58 22 1
58 57 2
58 103 1
58 121 1
58 161 1
58 183 1
58 244 1
58 275 1
59 23 1
59 58 2
59 104 1
59 122 1
59 162 1
59 184 1
59 245 1
59 276 1
60 24 1
60 59 2
60 105 1
60 123 1
60 163 1
60 185 1
60 246 1
60 277 1
61 25 1
61 60 2
61 106 1
61 124 1
61 164 1
61 186 1
61 247 1
61 278 1
62 26 1
62 61 2
62 107 1
62 125 1
62 165 1
62 187 1
62 248 1
62 279 1
63 27 1
63 62 2
63 108 1
63 126 1
63 166 1
63 188 1
63 249 1
63 280 1
64 28 1
64 63 2
64 73 1
64 127 1
64 167 1
64 189 1
64 250 1
64 281 1
65 29 1
65 64 2
65 74 1
65 128 1
65 168 1
65 190 1
65 251 1
65 282 1
66 30 1
66 65 2
66 75 1
66 129 1
66 169 1
66 191 1
66 252 1
66 283 1
67 31 1
67 66 2
67 76 1
67 130 1
67 170 1
67 192 1
67 217 1
67 284 1
68 32 1
68 67 2
68 77 1
68 131 1
68 171 1
68 193 1
68 218 1
68 285 1
69 33 1
69 68 2
69 78 1
69 132 1
69 172 1
69 194 1
69 219 1
69 286 1
70 34 1
70 69 2
70 79 1
70 133 1
70 173 1
70 195 1
70 220 1
70 287 1
71 35 1
71 70 2
71 80 1
71 134 1
71 174 1
71 196 1
71 221 1
71 288 1
72 36 1
72 71 2
72 81 1
72 135 1
72 175 1
72 197 1
72 222 1
72 253 1
73 1 1
73 45 1
73 100 2
73 122 1
73 168 1
73 202 1
73 249 1
73 281 1
74 2 1
74 46 1
74 101 2
74 123 1
74 169 1
74 203 1
74 250 1
74 282 1
75 3 1
75 47 1
75 102 2
75 124 1
75 170 1
75 204 1
75 251 1
75 283 1
76 4 1
76 48 1
76 103 2
76 125 1
76 171 1
76 205 1
76 252 1
76 284 1
77 5 1
77 49 1
77 104 2
77 126 1
77 172 1
77 206 1
77 217 1
77 285 1
78 6 1
78 50 1
78 105 2
78 127 1
78 173 1
78 207 1
78 218 1
78 286 1
79 7 1
79 51 1
79 106 2
79 128 1
79 174 1
79 208 1
79 219 1
79 287 1
80 8 1
80 52 1
80 107 2
80 129 1
80 175 1
80 209 1
80 220 1
80 288 1
81 9 1
81 53 1
81 108 2
81 130 1
81 176 1
81 210 1
81 221 1
81 253 1
82 10 1
82 54 1
82 73 2
82 131 1
82 177 1
82 211 1
82 222 1
82 254 1
83 11 1
83 55 1
83 74 2
83 132 1
83 178 1
83 212 1
83 223 1
83 255 1
84 12 1
84 56 1
84 75 2
84 133 1
84 179 1
84 213 1
84 224 1
84 256 1
85 13 1
85 57 1
85 76 2
85 134 1
85 180 1
85 214 1
85 225 1
85 257 1
86 14 1
86 58 1
86 77 2
86 135 1
86 145 1
86 215 1
86 226 1
86 258 1
87 15 1
87 59 1
87 78 2
87 136 1
87 146 1
87 216 1
87 227 1
87 259 1
88 16 1
88 60 1
88 79 2
88 137 1
88 147 1
88 181 1
88 228 1
88 260 1
89 17 1
89 61 1
89 80 2
89 138 1
89 148 1
89 182 1
89 229 1
89 261 1
90 18 1
90 62 1
90 81 2
90 139 1
90 149 1
90 183 1
90 230 1
90 262 1
91 19 1
91 63 1
91 82 2
91 140 1
91 150 1
91 184 1
91 231 1
91 263 1
92 20 1
92 64 1
92 83 2
92 141 1
92 151 1
92 185 1
92 232 1
92 264 1
93 21 1
93 65 1
93 84 2
93 142 1
93 152 1
93 186 1
93 233 1
93 265 1
94 22 1
94 66 1
94 85 2
94 143 1
94 153 1
94 187 1
94 234 1
94 266 1
95 23 1
95 67 1
95 86 2
95 144 1
95 154 1
95 188 1
95 235 1
95 267 1
96 24 1
96 68 1
96 87 2
96 109 1
96 155 1
96 189 1
96 236 1
96 268 1
97 25 1
97 69 1
97 88 2
97 110 1
97 156 1
97 190 1
97 237 1
97 269 1
98 26 1
98 70 1
98 89 2
98 111 1
98 157 1
98 191 1
98 238 1
98 270 1
99 27 1
99 71 1
99 90 2
99 112 1
99 158 1
99 192 1
99 239 1
99 271 1
100 28 1
100 72 1
100 91 2
100 113 1
100 159 1
100 193 1
100 240 1
100 272 1
101 29 1
101 37 1
101 92 2
101 114 1
101 160 1
101 194 1
101 241 1
101 273 1
102 30 1
102 38 1
102 93 2
102 115 1
102 161 1
102 195 1
102 242 1
102 274 1
103 31 1
103 39 1
103 94 2
103 116 1
103 162 1
103 196 1
103 243 1
103 275 1
104 32 1
104 40 1
104 95 2
104 117 1
104 163 1
104 197 1
104 244 1
104 276 1
105 33 1
105 41 1
105 96 2
105 118 1
105 164 1
105 198 1
105 245 1
105 277 1
106 34 1
106 42 1
106 97 2
106 119 1
106 165 1
106 199 1
106 246 1
106 278 1
107 35 1
107 43 1
107 98 2
107 120 1
107 166 1
107 200 1
107 247 1
107 279 1
108 36 1
108 44 1
108 99 2
108 121 1
108 167 1
108 201 1
108 248 1
108 280 1
