%%MatrixMarket matrix coordinate integer general
% Binary matrix over GF(2).
% Coordinate indices are 1-based; omitted entries are zero.
216 576 1836
1 1 1
1 81 1
1 153 1
1 251 1
1 290 1
1 395 1
1 497 1
1 569 1
2 2 1
2 82 1
2 154 1
2 252 1
2 289 1
2 290 1
2 396 1
2 498 1
2 570 1
3 3 1
3 83 1
3 155 1
3 253 1
3 292 1
3 397 1
3 499 1
3 571 1
4 4 1
4 84 1
4 156 1
4 254 1
4 291 1
4 292 1
4 398 1
4 500 1
4 572 1
5 5 1
5 85 1
5 157 1
5 255 1
5 294 1
5 399 1
5 501 1
5 573 1
6 6 1
6 86 1
6 158 1
6 256 1
6 293 1
6 294 1
6 400 1
6 502 1
6 574 1
7 7 1
7 87 1
7 159 1
7 257 1
7 296 1
7 401 1
7 503 1
7 575 1
8 8 1
8 88 1
8 160 1
8 258 1
8 295 1
8 296 1
8 402 1
8 504 1
8 576 1
9 9 1
9 89 1
9 161 1
9 259 1
9 298 1
9 403 1
9 433 1
9 505 1
10 10 1
10 90 1
10 162 1
10 260 1
10 297 1
10 298 1
10 404 1
10 434 1
10 506 1
11 11 1
11 91 1
11 163 1
11 261 1
11 300 1
11 405 1
11 435 1
11 507 1
12 12 1
12 92 1
12 164 1
12 262 1
12 299 1
12 300 1
12 406 1
12 436 1
12 508 1
13 13 1
13 93 1
13 165 1
13 263 1
13 302 1
13 407 1
13 437 1
13 509 1
14 14 1
14 94 1
14 166 1
14 264 1
14 301 1
14 302 1
14 408 1
14 438 1
14 510 1
15 15 1
15 95 1
15 167 1
15 265 1
15 304 1
15 409 1
15 439 1
15 511 1
16 16 1
16 96 1
16 168 1
16 266 1
16 303 1
16 304 1
16 410 1
16 440 1
16 512 1
17 17 1
17 97 1
17 169 1
17 267 1
17 306 1
17 411 1
17 441 1
17 513 1
18 18 1
18 98 1
18 170 1
18 268 1
18 305 1
18 306 1
18 412 1
18 442 1
18 514 1
19 19 1
19 99 1
19 171 1
19 269 1
19 308 1
19 413 1
19 443 1
19 515 1
20 20 1
20 100 1
20 172 1
20 270 1
20 307 1
20 308 1
20 414 1
20 444 1
20 516 1
21 21 1
21 101 1
21 173 1
21 271 1
21 310 1
21 415 1
21 445 1
21 517 1
22 22 1
22 102 1
22 174 1
22 272 1
22 309 1
22 310 1
22 416 1
22 446 1
22 518 1
23 23 1
23 103 1
23 175 1
23 273 1
23 312 1
23 417 1
23 447 1
23 519 1
24 24 1
24 104 1
24 176 1
24 274 1
24 311 1
24 312 1
24 418 1
24 448 1
24 520 1
25 25 1
25 105 1
25 177 1
25 275 1
25 314 1
25 419 1
25 449 1
25 521 1
26 26 1
26 106 1
26 178 1
26 276 1
26 313 1
26 314 1
26 420 1
26 450 1
26 522 1
27 27 1
27 107 1
27 179 1
27 277 1
27 316 1
27 421 1
27 451 1
27 523 1
28 28 1
28 108 1
28 180 1
28 278 1
28 315 1
28 316 1
28 422 1
28 452 1
28 524 1
29 29 1
29 109 1
29 181 1
29 279 1
29 318 1
29 423 1
29 453 1
29 525 1
30 30 1
30 110 1
30 182 1
30 280 1
30 317 1
30 318 1
30 424 1
30 454 1
30 526 1
31 31 1
31 111 1
31 183 1
31 281 1
31 320 1
31 425 1
31 455 1
31 527 1
32 32 1
32 112 1
32 184 1
32 282 1
32 319 1
32 320 1
32 426 1
32 456 1
32 528 1
33 33 1
33 113 1
33 185 1
33 283 1
33 322 1
33 427 1
33 457 1
33 529 1
34 34 1
34 114 1
34 186 1
34 284 1
34 321 1
34 322 1
34 428 1
34 458 1
34 530 1
35 35 1
35 115 1
35 187 1
35 285 1
35 324 1
35 429 1
35 459 1
35 531 1
36 36 1
36 116 1
36 188 1
36 286 1
36 323 1
36 324 1
36 430 1
36 460 1
36 532 1
37 37 1
37 117 1
37 189 1
37 287 1
37 326 1
37 431 1
37 461 1
37 533 1
38 38 1
38 118 1
38 190 1
38 288 1
38 325 1
38 326 1
38 432 1
38 462 1
38 534 1
39 39 1
39 119 1
39 191 1
39 217 1
39 328 1
39 361 1
39 463 1
39 535 1
40 40 1
40 120 1
40 192 1
40 218 1
40 327 1
40 328 1
40 362 1
40 464 1
40 536 1
41 41 1
41 121 1
41 193 1
41 219 1
41 330 1
41 363 1
41 465 1
41 537 1
42 42 1
42 122 1
42 194 1
42 220 1
42 329 1
42 330 1
42 364 1
42 466 1
42 538 1
43 43 1
43 123 1
43 195 1
43 221 1
43 332 1
43 365 1
43 467 1
43 539 1
44 44 1
44 124 1
44 196 1
44 222 1
44 331 1
44 332 1
44 366 1
44 468 1
44 540 1
45 45 1
45 125 1
45 197 1
45 223 1
45 334 1
45 367 1
45 469 1
45 541 1
46 46 1
46 126 1
46 198 1
46 224 1
46 333 1
46 334 1
46 368 1
46 470 1
46 542 1
47 47 1
47 127 1
47 199 1
47 225 1
47 336 1
47 369 1
47 471 1
47 543 1
48 48 1
48 128 1
48 200 1
48 226 1
48 335 1
48 336 1
48 370 1
48 472 1
48 544 1
49 49 1
49 129 1
49 201 1
49 227 1
49 338 1
49 371 1
49 473 1
49 545 1
50 50 1
50 130 1
50 202 1
50 228 1
50 337 1
50 338 1
50 372 1
50 474 1
50 546 1
51 51 1
51 131 1
51 203 1
51 229 1
51 340 1
51 373 1
51 475 1
51 547 1
52 52 1
52 132 1
52 204 1
52 230 1
52 339 1
52 340 1
52 374 1
52 476 1
52 548 1
53 53 1
53 133 1
53 205 1
53 231 1
53 342 1
53 375 1
53 477 1
53 549 1
54 54 1
54 134 1
54 206 1
54 232 1
54 341 1
54 342 1
54 376 1
54 478 1
54 550 1
55 55 1
55 135 1
55 207 1
55 233 1
55 344 1
55 377 1
55 479 1
55 551 1
56 56 1
56 136 1
56 208 1
56 234 1
56 343 1
56 344 1
56 378 1
56 480 1
56 552 1
57 57 1
57 137 1
57 209 1
57 235 1
57 346 1
57 379 1
57 481 1
57 553 1
58 58 1
58 138 1
58 210 1
58 236 1
58 345 1
58 346 1
58 380 1
58 482 1
58 554 1
59 59 1
59 139 1
59 211 1
59 237 1
59 348 1
59 381 1
59 483 1
59 555 1
60 60 1
60 140 1
60 212 1
60 238 1
60 347 1
60 348 1
60 382 1
60 484 1
60 556 1
61 61 1
61 141 1
61 213 1
61 239 1
61 350 1
61 383 1
61 485 1
61 557 1
62 62 1
62 142 1
62 214 1
62 240 1
62 349 1
62 350 1
62 384 1
62 486 1
62 558 1
63 63 1
63 143 1
63 215 1
63 241 1
63 352 1
63 385 1
63 487 1
63 559 1
64 64 1
64 144 1
64 216 1
64 242 1
64 351 1
64 352 1
64 386 1
64 488 1
64 560 1
65 65 1
65 73 1
65 145 1
65 243 1
65 354 1
65 387 1
65 489 1
65 561 1
66 66 1
66 74 1
66 146 1
66 244 1
66 353 1
66 354 1
66 388 1
66 490 1
66 562 1
67 67 1
67 75 1
67 147 1
67 245 1
67 356 1
67 389 1
67 491 1
67 563 1
68 68 1
68 76 1
68 148 1
68 246 1
68 355 1
68 356 1
68 390 1
68 492 1
68 564 1
69 69 1
69 77 1
69 149 1
69 247 1
69 358 1
69 391 1
69 493 1
69 565 1
70 70 1
70 78 1
70 150 1
70 248 1
70 357 1
70 358 1
70 392 1
70 494 1
70 566 1
71 71 1
71 79 1
71 151 1
71 249 1
71 360 1
71 393 1
71 495 1
71 567 1
72 72 1
72 80 1
72 152 1
72 250 1
72 359 1
72 360 1
72 394 1
72 496 1
72 568 1
73 1 1
73 109 1
73 157 1
73 253 1
73 345 1
73 362 1
73 445 1
73 561 1
74 2 1
74 110 1
74 158 1
74 254 1
74 346 1
74 361 1
74 362 1
74 446 1
74 562 1
75 3 1
75 111 1
75 159 1
75 255 1
75 347 1
75 364 1
75 447 1
75 563 1
76 4 1
76 112 1
76 160 1
76 256 1
76 348 1
76 363 1
76 364 1
76 448 1
76 564 1
77 5 1
77 113 1
77 161 1
77 257 1
77 349 1
77 366 1
77 449 1
77 565 1
78 6 1
78 114 1
78 162 1
78 258 1
78 350 1
78 365 1
78 366 1
78 450 1
78 566 1
79 7 1
79 115 1
79 163 1
79 259 1
79 351 1
79 368 1
79 451 1
79 567 1
80 8 1
80 116 1
80 164 1
80 260 1
80 352 1
80 367 1
80 368 1
80 452 1
80 568 1
81 9 1
81 117 1
81 165 1
81 261 1
81 353 1
81 370 1
81 453 1
81 569 1
82 10 1
82 118 1
82 166 1
82 262 1
82 354 1
82 369 1
82 370 1
82 454 1
82 570 1
83 11 1
83 119 1
83 167 1
83 263 1
83 355 1
83 372 1
83 455 1
83 571 1
84 12 1
84 120 1
84 168 1
84 264 1
84 356 1
84 371 1
84 372 1
84 456 1
84 572 1
85 13 1
85 121 1
85 169 1
85 265 1
85 357 1
85 374 1
85 457 1
85 573 1
86 14 1
86 122 1
86 170 1
86 266 1
86 358 1
86 373 1
86 374 1
86 458 1
86 574 1
87 15 1
87 123 1
87 171 1
87 267 1
87 359 1
87 376 1
87 459 1
87 575 1
88 16 1
88 124 1
88 172 1
88 268 1
88 360 1
88 375 1
88 376 1
88 460 1
88 576 1
89 17 1
89 125 1
89 173 1
89 269 1
89 289 1
89 378 1
89 461 1
89 505 1
90 18 1
90 126 1
90 174 1
90 270 1
90 290 1
90 377 1
90 378 1
90 462 1
90 506 1
91 19 1
91 127 1
91 175 1
91 271 1
91 291 1
91 380 1
91 463 1
91 507 1
92 20 1
92 128 1
92 176 1
92 272 1
92 292 1
92 379 1
92 380 1
92 464 1
92 508 1
93 21 1
93 129 1
93 177 1
93 273 1
93 293 1
93 382 1
93 465 1
93 509 1
94 22 1
94 130 1
94 178 1
94 274 1
94 294 1
94 381 1
94 382 1
94 466 1
94 510 1
95 23 1
95 131 1
95 179 1
95 275 1
95 295 1
95 384 1
95 467 1
95 511 1
96 24 1
96 132 1
96 180 1
96 276 1
96 296 1
96 383 1
96 384 1
96 468 1
96 512 1
97 25 1
97 133 1
97 181 1
97 277 1
97 297 1
97 386 1
97 469 1
97 513 1
98 26 1
98 134 1
98 182 1
98 278 1
98 298 1
98 385 1
98 386 1
98 470 1
98 514 1
99 27 1
99 135 1
99 183 1
99 279 1
99 299 1
99 388 1
99 471 1
99 515 1
100 28 1
100 136 1
100 184 1
100 280 1
100 300 1
100 387 1
100 388 1
100 472 1
100 516 1
101 29 1
101 137 1
101 185 1
101 281 1
101 301 1
101 390 1
101 473 1
101 517 1
102 30 1
102 138 1
102 186 1
102 282 1
102 302 1
102 389 1
102 390 1
102 474 1
102 518 1
103 31 1
103 139 1
103 187 1
103 283 1
103 303 1
103 392 1
103 475 1
103 519 1
104 32 1
104 140 1
104 188 1
104 284 1
104 304 1
104 391 1
104 392 1
104 476 1
104 520 1
105 33 1
105 141 1
105 189 1
105 285 1
105 305 1
105 394 1
105 477 1
105 521 1
106 34 1
106 142 1
106 190 1
106 286 1
106 306 1
106 393 1
106 394 1
106 478 1
106 522 1
107 35 1
107 143 1
107 191 1
107 287 1
107 307 1
107 396 1
107 479 1
107 523 1
108 36 1
108 144 1
108 192 1
108 288 1
108 308 1
108 395 1
108 396 1
108 480 1
108 524 1
109 37 1
109 73 1
109 193 1
109 217 1
109 309 1
109 398 1
109 481 1
109 525 1
110 38 1
110 74 1
110 194 1
110 218 1
110 310 1
110 397 1
110 398 1
110 482 1
110 526 1
111 39 1
111 75 1
111 195 1
111 219 1
111 311 1
111 400 1
111 483 1
111 527 1
112 40 1
112 76 1
112 196 1
112 220 1
112 312 1
112 399 1
112 400 1
112 484 1
112 528 1
113 41 1
113 77 1
113 197 1
113 221 1
113 313 1
113 402 1
113 485 1
113 529 1
114 42 1
114 78 1
114 198 1
114 222 1
114 314 1
114 401 1
114 402 1
114 486 1
114 530 1
115 43 1
115 79 1
115 199 1
115 223 1
115 315 1
115 404 1
115 487 1
115 531 1
116 44 1
116 80 1
116 200 1
116 224 1
116 316 1
116 403 1
116 404 1
116 488 1
116 532 1
117 45 1
117 81 1
117 201 1
117 225 1
117 317 1
117 406 1
117 489 1
117 533 1
118 46 1
118 82 1
118 202 1
118 226 1
118 318 1
118 405 1
118 406 1
118 490 1
118 534 1
119 47 1
119 83 1
119 203 1
119 227 1
119 319 1
119 408 1
119 491 1
119 535 1
120 48 1
120 84 1
120 204 1
120 228 1
120 320 1
120 407 1
120 408 1
120 492 1
120 536 1
121 49 1
121 85 1
121 205 1
121 229 1
121 321 1
121 410 1
121 493 1
121 537 1
122 50 1
122 86 1
122 206 1
122 230 1
122 322 1
122 409 1
122 410 1
122 494 1
122 538 1
123 51 1
123 87 1
123 207 1
123 231 1
123 323 1
123 412 1
123 495 1
123 539 1
124 52 1
124 88 1
124 208 1
124 232 1
124 324 1
124 411 1
124 412 1
124 496 1
124 540 1
125 53 1
125 89 1
125 209 1
125 233 1
125 325 1
125 414 1
125 497 1
125 541 1
126 54 1
126 90 1
126 210 1
126 234 1
126 326 1
126 413 1
126 414 1
126 498 1
126 542 1
127 55 1
127 91 1
127 211 1
127 235 1
127 327 1
127 416 1
127 499 1
127 543 1
128 56 1
128 92 1
128 212 1
128 236 1
128 328 1
128 415 1
128 416 1
128 500 1
128 544 1
129 57 1
129 93 1
129 213 1
129 237 1
129 329 1
129 418 1
129 501 1
129 545 1
130 58 1
130 94 1
130 214 1
130 238 1
130 330 1
130 417 1
130 418 1
130 502 1
130 546 1
131 59 1
131 95 1
131 215 1
131 239 1
131 331 1
131 420 1
131 503 1
131 547 1
132 60 1
132 96 1
132 216 1
132 240 1
132 332 1
132 419 1
132 420 1
132 504 1
132 548 1
133 61 1
133 97 1
133 145 1
133 241 1
133 333 1
133 422 1
133 433 1
133 549 1
134 62 1
134 98 1
134 146 1
134 242 1
134 334 1
134 421 1
134 422 1
134 434 1
134 550 1
135 63 1
135 99 1
135 147 1
135 243 1
135 335 1
135 424 1
135 435 1
135 551 1
136 64 1
136 100 1
136 148 1
136 244 1
136 336 1
136 423 1
136 424 1
136 436 1
136 552 1
137 65 1
137 101 1
137 149 1
137 245 1
137 337 1
137 426 1
137 437 1
137 553 1
138 66 1
138 102 1
138 150 1
138 246 1
138 338 1
138 425 1
138 426 1
138 438 1
138 554 1
139 67 1
139 103 1
139 151 1
139 247 1
139 339 1
139 428 1
139 439 1
139 555 1
140 68 1
140 104 1
140 152 1
140 248 1
140 340 1
140 427 1
140 428 1
140 440 1
140 556 1
141 69 1
141 105 1
141 153 1
141 249 1
141 341 1
141 430 1
141 441 1
141 557 1
142 70 1
142 106 1
142 154 1
142 250 1
142 342 1
142 429 1
142 430 1
142 442 1
142 558 1
143 71 1
143 107 1
143 155 1
143 251 1
143 343 1
143 432 1
143 443 1
143 559 1
144 72 1
144 108 1
144 156 1
144 252 1
144 344 1
144 431 1
144 432 1
144 444 1
144 560 1
145 1 1
145 131 1
145 207 1
145 243 1
145 351 1
145 419 1
145 434 1
145 531 1
146 2 1
146 132 1
146 208 1
146 244 1
146 352 1
146 420 1
146 433 1
146 434 1
146 532 1
147 3 1
147 133 1
147 209 1
147 245 1
147 353 1
147 421 1
147 436 1
147 533 1
148 4 1
148 134 1
148 210 1
148 246 1
148 354 1
148 422 1
148 435 1
148 436 1
148 534 1
149 5 1
149 135 1
149 211 1
149 247 1
149 355 1
149 423 1
149 438 1
149 535 1
150 6 1
150 136 1
150 212 1
150 248 1
150 356 1
150 424 1
150 437 1
150 438 1
150 536 1
151 7 1
151 137 1
151 213 1
151 249 1
151 357 1
151 425 1
151 440 1
151 537 1
152 8 1
152 138 1
152 214 1
152 250 1
152 358 1
152 426 1
152 439 1
152 440 1
152 538 1
153 9 1
153 139 1
153 215 1
153 251 1
153 359 1
153 427 1
153 442 1
153 539 1
154 10 1
154 140 1
154 216 1
154 252 1
154 360 1
154 428 1
154 441 1
154 442 1
154 540 1
155 11 1
155 141 1
155 145 1
155 253 1
155 289 1
155 429 1
155 444 1
155 541 1
156 12 1
156 142 1
156 146 1
156 254 1
156 290 1
156 430 1
156 443 1
156 444 1
156 542 1
157 13 1
157 143 1
157 147 1
157 255 1
157 291 1
157 431 1
157 446 1
157 543 1
158 14 1
158 144 1
158 148 1
158 256 1
158 292 1
158 432 1
158 445 1
158 446 1
158 544 1
159 15 1
159 73 1
159 149 1
159 257 1
159 293 1
159 361 1
159 448 1
159 545 1
160 16 1
160 74 1
160 150 1
160 258 1
160 294 1
160 362 1
160 447 1
160 448 1
160 546 1
161 17 1
161 75 1
161 151 1
161 259 1
161 295 1
161 363 1
161 450 1
161 547 1
162 18 1
162 76 1
162 152 1
162 260 1
162 296 1
162 364 1
162 449 1
162 450 1
162 548 1
163 19 1
163 77 1
163 153 1
163 261 1
163 297 1
163 365 1
163 452 1
163 549 1
164 20 1
164 78 1
164 154 1
164 262 1
164 298 1
164 366 1
164 451 1
164 452 1
164 550 1
165 21 1
165 79 1
165 155 1
165 263 1
165 299 1
165 367 1
165 454 1
165 551 1
166 22 1
166 80 1
166 156 1
166 264 1
166 300 1
166 368 1
166 453 1
166 454 1
166 552 1
167 23 1
167 81 1
167 157 1
167 265 1
167 301 1
167 369 1
167 456 1
167 553 1
168 24 1
168 82 1
168 158 1
168 266 1
168 302 1
168 370 1
168 455 1
168 456 1
168 554 1
169 25 1
169 83 1
169 159 1
169 267 1
169 303 1
169 371 1
169 458 1
169 555 1
170 26 1
170 84 1
170 160 1
170 268 1
170 304 1
170 372 1
170 457 1
170 458 1
170 556 1
171 27 1
171 85 1
171 161 1
171 269 1
171 305 1
171 373 1
171 460 1
171 557 1
172 28 1
172 86 1
172 162 1
172 270 1
172 306 1
172 374 1
172 459 1
172 460 1
172 558 1
173 29 1
173 87 1
173 163 1
173 271 1
173 307 1
173 375 1
173 462 1
173 559 1
174 30 1
174 88 1
174 164 1
174 272 1
174 308 1
174 376 1
174 461 1
174 462 1
174 560 1
175 31 1
175 89 1
175 165 1
175 273 1
175 309 1
175 377 1
175 464 1
175 561 1
176 32 1
176 90 1
176 166 1
176 274 1
176 310 1
176 378 1
176 463 1
176 464 1
176 562 1
177 33 1
177 91 1
177 167 1
177 275 1
177 311 1
177 379 1
177 466 1
177 563 1
178 34 1
178 92 1
178 168 1
178 276 1
178 312 1
178 380 1
178 465 1
178 466 1
178 564 1
179 35 1
179 93 1
179 169 1
179 277 1
179 313 1
179 381 1
179 468 1
179 565 1
180 36 1
180 94 1
180 170 1
180 278 1
180 314 1
180 382 1
180 467 1
180 468 1
180 566 1
181 37 1
181 95 1
181 171 1
181 279 1
181 315 1
181 383 1
181 470 1
181 567 1
182 38 1
182 96 1
182 172 1
182 280 1
182 316 1
182 384 1
182 469 1
182 470 1
182 568 1
183 39 1
183 97 1
183 173 1
183 281 1
183 317 1
183 385 1
183 472 1
183 569 1
184 40 1
184 98 1
184 174 1
184 282 1
184 318 1
184 386 1
184 471 1
184 472 1
184 570 1
185 41 1
185 99 1
185 175 1
185 283 1
185 319 1
185 387 1
185 474 1
185 571 1
186 42 1
186 100 1
186 176 1
186 284 1
186 320 1
186 388 1
186 473 1
186 474 1
186 572 1
187 43 1
187 101 1
187 177 1
187 285 1
187 321 1
187 389 1
187 476 1
187 573 1
188 44 1
188 102 1
188 178 1
188 286 1
188 322 1
188 390 1
188 475 1
188 476 1
188 574 1
189 45 1
189 103 1
189 179 1
189 287 1
189 323 1
189 391 1
189 478 1
189 575 1
190 46 1
190 104 1
190 180 1
190 288 1
190 324 1
190 392 1
190 477 1
190 478 1
190 576 1
191 47 1
191 105 1
191 181 1
191 217 1
191 325 1
191 393 1
191 480 1
191 505 1
192 48 1
192 106 1
192 182 1
192 218 1
192 326 1
192 394 1
192 479 1
192 480 1
192 506 1
193 49 1
193 107 1
193 183 1
193 219 1
193 327 1
193 395 1
193 482 1
193 507 1
194 50 1
194 108 1
194 184 1
194 220 1
194 328 1
194 396 1
194 481 1
194 482 1
194 508 1
195 51 1
195 109 1
195 185 1
195 221 1
195 329 1
195 397 1
195 484 1
195 509 1
196 52 1
196 110 1
196 186 1
196 222 1
196 330 1
196 398 1
196 483 1
196 484 1
196 510 1
197 53 1
197 111 1
197 187 1
197 223 1
197 331 1
197 399 1
197 486 1
197 511 1
198 54 1
198 112 1
198 188 1
198 224 1
198 332 1
198 400 1
198 485 1
198 486 1
198 512 1
199 55 1
199 113 1
199 189 1
199 225 1
199 333 1
199 401 1
199 488 1
199 513 1
200 56 1
200 114 1
200 190 1
200 226 1
200 334 1
200 402 1
200 487 1
200 488 1
200 514 1
201 57 1
201 115 1
201 191 1
201 227 1
201 335 1
201 403 1
201 490 1
201 515 1
202 58 1
202 116 1
202 192 1
202 228 1
202 336 1
202 404 1
202 489 1
202 490 1
202 516 1
203 59 1
203 117 1
203 193 1
203 229 1
203 337 1
203 405 1
203 492 1
203 517 1
204 60 1
204 118 1
204 194 1
204 230 1
204 338 1
204 406 1
204 491 1
204 492 1
204 518 1
205 61 1
205 119 1
205 195 1
205 231 1
205 339 1
205 407 1
205 494 1
205 519 1
206 62 1
206 120 1
206 196 1
206 232 1
206 340 1
206 408 1
206 493 1
206 494 1
206 520 1
207 63 1
207 121 1
207 197 1
207 233 1
207 341 1
207 409 1
207 496 1
207 521 1
208 64 1
208 122 1
208 198 1
208 234 1
208 342 1
208 410 1
208 495 1
208 496 1
208 522 1
209 65 1
209 123 1
209 199 1
209 235 1
209 343 1
209 411 1
209 498 1
209 523 1
210 66 1
210 124 1
210 200 1
210 236 1
210 344 1
210 412 1
210 497 1
210 498 1
210 524 1
211 67 1
211 125 1
211 201 1
211 237 1
211 345 1
211 413 1
211 500 1
211 525 1
212 68 1
212 126 1
212 202 1
212 238 1
212 346 1
212 414 1
212 499 1
212 500 1
212 526 1
213 69 1
213 127 1
213 203 1
213 239 1
213 347 1
213 415 1
213 502 1
213 527 1
214 70 1
214 128 1
214 204 1
214 240 1
214 348 1
214 416 1
214 501 1
214 502 1
214 528 1
215 71 1
215 129 1
215 205 1
215 241 1
215 349 1
215 417 1
215 504 1
215 529 1
216 72 1
216 130 1
216 206 1
216 242 1
216 350 1
216 418 1
216 503 1
216 504 1
216 530 1
