%%MatrixMarket matrix coordinate integer general
% GF(4) labels 0,1,2=omega,3=omega+1; arithmetic is NOT integer arithmetic.
% Coordinate indices are 1-based; omitted entries are zero.
108 288 864
1 1 1
1 41 1
1 77 1
1 126 1
1 145 2
1 198 1
1 249 1
1 285 1
2 2 1
2 42 1
2 78 1
2 127 1
2 146 2
2 199 1
2 250 1
2 286 1
3 3 1
3 43 1
3 79 1
3 128 1
3 147 2
3 200 1
3 251 1
3 287 1
4 4 1
4 44 1
4 80 1
4 129 1
4 148 2
4 201 1
4 252 1
4 288 1
5 5 1
5 45 1
5 81 1
5 130 1
5 149 2
5 202 1
5 217 1
5 253 1
6 6 1
6 46 1
6 82 1
6 131 1
6 150 2
6 203 1
6 218 1
6 254 1
7 7 1
7 47 1
7 83 1
7 132 1
7 151 2
7 204 1
7 219 1
7 255 1
8 8 1
8 48 1
8 84 1
8 133 1
8 152 2
8 205 1
8 220 1
8 256 1
9 9 1
9 49 1
9 85 1
9 134 1
9 153 2
9 206 1
9 221 1
9 257 1
10 10 1
10 50 1
10 86 1
10 135 1
10 154 2
10 207 1
10 222 1
10 258 1
11 11 1
11 51 1
11 87 1
11 136 1
11 155 2
11 208 1
11 223 1
11 259 1
12 12 1
12 52 1
12 88 1
12 137 1
12 156 2
12 209 1
12 224 1
12 260 1
13 13 1
13 53 1
13 89 1
13 138 1
13 157 2
13 210 1
13 225 1
13 261 1
14 14 1
14 54 1
14 90 1
14 139 1
14 158 2
14 211 1
14 226 1
14 262 1
15 15 1
15 55 1
15 91 1
15 140 1
15 159 2
15 212 1
15 227 1
15 263 1
16 16 1
16 56 1
16 92 1
16 141 1
16 160 2
16 213 1
16 228 1
16 264 1
17 17 1
17 57 1
17 93 1
17 142 1
17 161 2
17 214 1
17 229 1
17 265 1
18 18 1
18 58 1
18 94 1
18 143 1
18 162 2
18 215 1
18 230 1
18 266 1
19 19 1
19 59 1
19 95 1
19 144 1
19 163 2
19 216 1
19 231 1
19 267 1
20 20 1
20 60 1
20 96 1
20 109 1
20 164 2
20 181 1
20 232 1
20 268 1
21 21 1
21 61 1
21 97 1
21 110 1
21 165 2
21 182 1
21 233 1
21 269 1
22 22 1
22 62 1
22 98 1
22 111 1
22 166 2
22 183 1
22 234 1
22 270 1
23 23 1
23 63 1
23 99 1
23 112 1
23 167 2
23 184 1
23 235 1
23 271 1
24 24 1
24 64 1
24 100 1
24 113 1
24 168 2
24 185 1
24 236 1
24 272 1
25 25 1
25 65 1
25 101 1
25 114 1
25 169 2
25 186 1
25 237 1
25 273 1
26 26 1
26 66 1
26 102 1
26 115 1
26 170 2
26 187 1
26 238 1
26 274 1
27 27 1
27 67 1
27 103 1
27 116 1
27 171 2
27 188 1
27 239 1
27 275 1
28 28 1
28 68 1
28 104 1
28 117 1
28 172 2
28 189 1
28 240 1
28 276 1
29 29 1
29 69 1
29 105 1
29 118 1
29 173 2
29 190 1
29 241 1
29 277 1
30 30 1
30 70 1
30 106 1
30 119 1
30 174 2
30 191 1
30 242 1
30 278 1
31 31 1
31 71 1
31 107 1
31 120 1
31 175 2
31 192 1
31 243 1
31 279 1
32 32 1
32 72 1
32 108 1
32 121 1
32 176 2
32 193 1
32 244 1
32 280 1
33 33 1
33 37 1
33 73 1
33 122 1
33 177 2
33 194 1
33 245 1
33 281 1
34 34 1
34 38 1
34 74 1
34 123 1
34 178 2
34 195 1
34 246 1
34 282 1
35 35 1
35 39 1
35 75 1
35 124 1
35 179 2
35 196 1
35 247 1
35 283 1
36 36 1
36 40 1
36 76 1
36 125 1
36 180 2
36 197 1
36 248 1
36 284 1
37 1 1
37 55 1
37 79 1
37 127 1
37 173 1
37 181 2
37 223 1
37 281 1
38 2 1
38 56 1
38 80 1
38 128 1
38 174 1
38 182 2
38 224 1
38 282 1
39 3 1
39 57 1
39 81 1
39 129 1
39 175 1
39 183 2
39 225 1
39 283 1
40 4 1
40 58 1
40 82 1
40 130 1
40 176 1
40 184 2
40 226 1
40 284 1
41 5 1
41 59 1
41 83 1
41 131 1
41 177 1
41 185 2
41 227 1
41 285 1
42 6 1
42 60 1
42 84 1
42 132 1
42 178 1
42 186 2
42 228 1
42 286 1
43 7 1
43 61 1
43 85 1
43 133 1
43 179 1
43 187 2
43 229 1
43 287 1
44 8 1
44 62 1
44 86 1
44 134 1
44 180 1
44 188 2
44 230 1
44 288 1
45 9 1
45 63 1
45 87 1
45 135 1
45 145 1
45 189 2
45 231 1
45 253 1
46 10 1
46 64 1
46 88 1
46 136 1
46 146 1
46 190 2
46 232 1
46 254 1
47 11 1
47 65 1
47 89 1
47 137 1
47 147 1
47 191 2
47 233 1
47 255 1
48 12 1
48 66 1
48 90 1
48 138 1
48 148 1
48 192 2
48 234 1
48 256 1
49 13 1
49 67 1
49 91 1
49 139 1
49 149 1
49 193 2
49 235 1
49 257 1
50 14 1
50 68 1
50 92 1
50 140 1
50 150 1
50 194 2
50 236 1
50 258 1
51 15 1
51 69 1
51 93 1
51 141 1
51 151 1
51 195 2
51 237 1
51 259 1
52 16 1
52 70 1
52 94 1
52 142 1
52 152 1
52 196 2
52 238 1
52 260 1
53 17 1
53 71 1
53 95 1
53 143 1
53 153 1
53 197 2
53 239 1
53 261 1
54 18 1
54 72 1
54 96 1
54 144 1
54 154 1
54 198 2
54 240 1
54 262 1
55 19 1
55 37 1
55 97 1
55 109 1
55 155 1
55 199 2
55 241 1
55 263 1
56 20 1
56 38 1
56 98 1
56 110 1
56 156 1
56 200 2
56 242 1
56 264 1
57 21 1
57 39 1
57 99 1
57 111 1
57 157 1
57 201 2
57 243 1
57 265 1
58 22 1
58 40 1
58 100 1
58 112 1
58 158 1
58 202 2
58 244 1
58 266 1
59 23 1
59 41 1
59 101 1
59 113 1
59 159 1
59 203 2
59 245 1
59 267 1
60 24 1
60 42 1
60 102 1
60 114 1
60 160 1
60 204 2
60 246 1
60 268 1
61 25 1
61 43 1
61 103 1
61 115 1
61 161 1
61 205 2
61 247 1
61 269 1
62 26 1
62 44 1
62 104 1
62 116 1
62 162 1
62 206 2
62 248 1
62 270 1
63 27 1
63 45 1
63 105 1
63 117 1
63 163 1
63 207 2
63 249 1
63 271 1
64 28 1
64 46 1
64 106 1
64 118 1
64 164 1
64 208 2
64 250 1
64 272 1
65 29 1
65 47 1
65 107 1
65 119 1
65 165 1
65 209 2
65 251 1
65 273 1
66 30 1
66 48 1
66 108 1
66 120 1
66 166 1
66 210 2
66 252 1
66 274 1
67 31 1
67 49 1
67 73 1
67 121 1
67 167 1
67 211 2
67 217 1
67 275 1
68 32 1
68 50 1
68 74 1
68 122 1
68 168 1
68 212 2
68 218 1
68 276 1
69 33 1
69 51 1
69 75 1
69 123 1
69 169 1
69 213 2
69 219 1
69 277 1
70 34 1
70 52 1
70 76 1
70 124 1
70 170 1
70 214 2
70 220 1
70 278 1
71 35 1
71 53 1
71 77 1
71 125 1
71 171 1
71 215 2
71 221 1
71 279 1
72 36 1
72 54 1
72 78 1
72 126 1
72 172 1
72 216 2
72 222 1
72 280 1
73 1 1
73 66 1
73 104 1
73 122 1
73 176 1
73 210 1
73 217 2
73 266 1
74 2 1
74 67 1
74 105 1
74 123 1
74 177 1
74 211 1
74 218 2
74 267 1
75 3 1
75 68 1
75 106 1
75 124 1
75 178 1
75 212 1
75 219 2
75 268 1
76 4 1
76 69 1
76 107 1
76 125 1
76 179 1
76 213 1
76 220 2
76 269 1
77 5 1
77 70 1
77 108 1
77 126 1
77 180 1
77 214 1
77 221 2
77 270 1
78 6 1
78 71 1
78 73 1
78 127 1
78 145 1
78 215 1
78 222 2
78 271 1
79 7 1
79 72 1
79 74 1
79 128 1
79 146 1
79 216 1
79 223 2
79 272 1
80 8 1
80 37 1
80 75 1
80 129 1
80 147 1
80 181 1
80 224 2
80 273 1
81 9 1
81 38 1
81 76 1
81 130 1
81 148 1
81 182 1
81 225 2
81 274 1
82 10 1
82 39 1
82 77 1
82 131 1
82 149 1
82 183 1
82 226 2
82 275 1
83 11 1
83 40 1
83 78 1
83 132 1
83 150 1
83 184 1
83 227 2
83 276 1
84 12 1
84 41 1
84 79 1
84 133 1
84 151 1
84 185 1
84 228 2
84 277 1
85 13 1
85 42 1
85 80 1
85 134 1
85 152 1
85 186 1
85 229 2
85 278 1
86 14 1
86 43 1
86 81 1
86 135 1
86 153 1
86 187 1
86 230 2
86 279 1
87 15 1
87 44 1
87 82 1
87 136 1
87 154 1
87 188 1
87 231 2
87 280 1
88 16 1
88 45 1
88 83 1
88 137 1
88 155 1
88 189 1
88 232 2
88 281 1
89 17 1
89 46 1
89 84 1
89 138 1
89 156 1
89 190 1
89 233 2
89 282 1
90 18 1
90 47 1
90 85 1
90 139 1
90 157 1
90 191 1
90 234 2
90 283 1
91 19 1
91 48 1
91 86 1
91 140 1
91 158 1
91 192 1
91 235 2
91 284 1
92 20 1
92 49 1
92 87 1
92 141 1
92 159 1
92 193 1
92 236 2
92 285 1
93 21 1
93 50 1
93 88 1
93 142 1
93 160 1
93 194 1
93 237 2
93 286 1
94 22 1
94 51 1
94 89 1
94 143 1
94 161 1
94 195 1
94 238 2
94 287 1
95 23 1
95 52 1
95 90 1
95 144 1
95 162 1
95 196 1
95 239 2
95 288 1
96 24 1
96 53 1
96 91 1
96 109 1
96 163 1
96 197 1
96 240 2
96 253 1
97 25 1
97 54 1
97 92 1
97 110 1
97 164 1
97 198 1
97 241 2
97 254 1
98 26 1
98 55 1
98 93 1
98 111 1
98 165 1
98 199 1
98 242 2
98 255 1
99 27 1
99 56 1
99 94 1
99 112 1
99 166 1
99 200 1
99 243 2
99 256 1
100 28 1
100 57 1
100 95 1
100 113 1
100 167 1
100 201 1
100 244 2
100 257 1
101 29 1
101 58 1
101 96 1
101 114 1
101 168 1
101 202 1
101 245 2
101 258 1
102 30 1
102 59 1
102 97 1
102 115 1
102 169 1
102 203 1
102 246 2
102 259 1
103 31 1
103 60 1
103 98 1
103 116 1
103 170 1
103 204 1
103 247 2
103 260 1
104 32 1
104 61 1
104 99 1
104 117 1
104 171 1
104 205 1
104 248 2
104 261 1
105 33 1
105 62 1
105 100 1
105 118 1
105 172 1
105 206 1
105 249 2
105 262 1
106 34 1
106 63 1
106 101 1
106 119 1
106 173 1
106 207 1
106 250 2
106 263 1
107 35 1
107 64 1
107 102 1
107 120 1
107 174 1
107 208 1
107 251 2
107 264 1
108 36 1
108 65 1
108 103 1
108 121 1
108 175 1
108 209 1
108 252 2
108 265 1
