%%MatrixMarket matrix coordinate integer general
% Binary matrix over GF(2).
% Coordinate indices are 1-based; omitted entries are zero.
144 576 3924
1 217 1
1 218 1
1 219 1
1 235 1
1 253 1
1 254 1
1 255 1
1 256 1
1 271 1
1 289 1
1 290 1
1 291 1
1 328 1
1 329 1
1 330 1
1 343 1
1 347 1
1 348 1
1 395 1
1 397 1
1 416 1
1 431 1
1 432 1
1 445 1
1 446 1
1 461 1
1 462 1
1 480 1
1 481 1
1 483 1
1 501 1
1 502 1
2 219 1
2 220 1
2 221 1
2 237 1
2 255 1
2 256 1
2 257 1
2 258 1
2 273 1
2 291 1
2 292 1
2 293 1
2 330 1
2 331 1
2 332 1
2 345 1
2 349 1
2 350 1
2 361 1
2 362 1
2 397 1
2 399 1
2 418 1
2 447 1
2 448 1
2 463 1
2 464 1
2 482 1
2 483 1
2 485 1
2 503 1
2 504 1
3 221 1
3 222 1
3 223 1
3 239 1
3 257 1
3 258 1
3 259 1
3 260 1
3 275 1
3 293 1
3 294 1
3 295 1
3 332 1
3 333 1
3 334 1
3 347 1
3 351 1
3 352 1
3 363 1
3 364 1
3 399 1
3 401 1
3 420 1
3 433 1
3 434 1
3 449 1
3 450 1
3 465 1
3 466 1
3 484 1
3 485 1
3 487 1
4 223 1
4 224 1
4 225 1
4 241 1
4 259 1
4 260 1
4 261 1
4 262 1
4 277 1
4 295 1
4 296 1
4 297 1
4 334 1
4 335 1
4 336 1
4 349 1
4 353 1
4 354 1
4 365 1
4 366 1
4 401 1
4 403 1
4 422 1
4 435 1
4 436 1
4 451 1
4 452 1
4 467 1
4 468 1
4 486 1
4 487 1
4 489 1
5 225 1
5 226 1
5 227 1
5 243 1
5 261 1
5 262 1
5 263 1
5 264 1
5 279 1
5 297 1
5 298 1
5 299 1
5 336 1
5 337 1
5 338 1
5 351 1
5 355 1
5 356 1
5 367 1
5 368 1
5 403 1
5 405 1
5 424 1
5 437 1
5 438 1
5 453 1
5 454 1
5 469 1
5 470 1
5 488 1
5 489 1
5 491 1
6 227 1
6 228 1
6 229 1
6 245 1
6 263 1
6 264 1
6 265 1
6 266 1
6 281 1
6 299 1
6 300 1
6 301 1
6 338 1
6 339 1
6 340 1
6 353 1
6 357 1
6 358 1
6 369 1
6 370 1
6 405 1
6 407 1
6 426 1
6 439 1
6 440 1
6 455 1
6 456 1
6 471 1
6 472 1
6 490 1
6 491 1
6 493 1
7 229 1
7 230 1
7 231 1
7 247 1
7 265 1
7 266 1
7 267 1
7 268 1
7 283 1
7 301 1
7 302 1
7 303 1
7 340 1
7 341 1
7 342 1
7 355 1
7 359 1
7 360 1
7 371 1
7 372 1
7 407 1
7 409 1
7 428 1
7 441 1
7 442 1
7 457 1
7 458 1
7 473 1
7 474 1
7 492 1
7 493 1
7 495 1
8 231 1
8 232 1
8 233 1
8 249 1
8 267 1
8 268 1
8 269 1
8 270 1
8 285 1
8 289 1
8 290 1
8 303 1
8 304 1
8 305 1
8 342 1
8 343 1
8 344 1
8 357 1
8 373 1
8 374 1
8 409 1
8 411 1
8 430 1
8 443 1
8 444 1
8 459 1
8 460 1
8 475 1
8 476 1
8 494 1
8 495 1
8 497 1
9 233 1
9 234 1
9 235 1
9 251 1
9 269 1
9 270 1
9 271 1
9 272 1
9 287 1
9 291 1
9 292 1
9 305 1
9 306 1
9 307 1
9 344 1
9 345 1
9 346 1
9 359 1
9 375 1
9 376 1
9 411 1
9 413 1
9 432 1
9 445 1
9 446 1
9 461 1
9 462 1
9 477 1
9 478 1
9 496 1
9 497 1
9 499 1
10 217 1
10 235 1
10 236 1
10 237 1
10 253 1
10 271 1
10 272 1
10 273 1
10 274 1
10 289 1
10 293 1
10 294 1
10 307 1
10 308 1
10 309 1
10 346 1
10 347 1
10 348 1
10 362 1
10 377 1
10 378 1
10 413 1
10 415 1
10 447 1
10 448 1
10 463 1
10 464 1
10 479 1
10 480 1
10 498 1
10 499 1
10 501 1
11 219 1
11 237 1
11 238 1
11 239 1
11 255 1
11 273 1
11 274 1
11 275 1
11 276 1
11 291 1
11 295 1
11 296 1
11 309 1
11 310 1
11 311 1
11 348 1
11 349 1
11 350 1
11 364 1
11 379 1
11 380 1
11 415 1
11 417 1
11 449 1
11 450 1
11 465 1
11 466 1
11 481 1
11 482 1
11 500 1
11 501 1
11 503 1
12 221 1
12 239 1
12 240 1
12 241 1
12 257 1
12 275 1
12 276 1
12 277 1
12 278 1
12 293 1
12 297 1
12 298 1
12 311 1
12 312 1
12 313 1
12 350 1
12 351 1
12 352 1
12 366 1
12 381 1
12 382 1
12 417 1
12 419 1
12 433 1
12 451 1
12 452 1
12 467 1
12 468 1
12 483 1
12 484 1
12 502 1
12 503 1
13 223 1
13 241 1
13 242 1
13 243 1
13 259 1
13 277 1
13 278 1
13 279 1
13 280 1
13 295 1
13 299 1
13 300 1
13 313 1
13 314 1
13 315 1
13 352 1
13 353 1
13 354 1
13 368 1
13 383 1
13 384 1
13 419 1
13 421 1
13 433 1
13 435 1
13 453 1
13 454 1
13 469 1
13 470 1
13 485 1
13 486 1
13 504 1
14 225 1
14 243 1
14 244 1
14 245 1
14 261 1
14 279 1
14 280 1
14 281 1
14 282 1
14 297 1
14 301 1
14 302 1
14 315 1
14 316 1
14 317 1
14 354 1
14 355 1
14 356 1
14 370 1
14 385 1
14 386 1
14 421 1
14 423 1
14 434 1
14 435 1
14 437 1
14 455 1
14 456 1
14 471 1
14 472 1
14 487 1
14 488 1
15 227 1
15 245 1
15 246 1
15 247 1
15 263 1
15 281 1
15 282 1
15 283 1
15 284 1
15 299 1
15 303 1
15 304 1
15 317 1
15 318 1
15 319 1
15 356 1
15 357 1
15 358 1
15 372 1
15 387 1
15 388 1
15 423 1
15 425 1
15 436 1
15 437 1
15 439 1
15 457 1
15 458 1
15 473 1
15 474 1
15 489 1
15 490 1
16 229 1
16 247 1
16 248 1
16 249 1
16 265 1
16 283 1
16 284 1
16 285 1
16 286 1
16 301 1
16 305 1
16 306 1
16 319 1
16 320 1
16 321 1
16 358 1
16 359 1
16 360 1
16 374 1
16 389 1
16 390 1
16 425 1
16 427 1
16 438 1
16 439 1
16 441 1
16 459 1
16 460 1
16 475 1
16 476 1
16 491 1
16 492 1
17 231 1
17 249 1
17 250 1
17 251 1
17 267 1
17 285 1
17 286 1
17 287 1
17 288 1
17 289 1
17 290 1
17 303 1
17 307 1
17 308 1
17 321 1
17 322 1
17 323 1
17 360 1
17 376 1
17 391 1
17 392 1
17 427 1
17 429 1
17 440 1
17 441 1
17 443 1
17 461 1
17 462 1
17 477 1
17 478 1
17 493 1
17 494 1
18 217 1
18 218 1
18 233 1
18 251 1
18 252 1
18 253 1
18 269 1
18 287 1
18 288 1
18 290 1
18 291 1
18 292 1
18 305 1
18 309 1
18 310 1
18 323 1
18 324 1
18 325 1
18 378 1
18 393 1
18 394 1
18 429 1
18 431 1
18 442 1
18 443 1
18 445 1
18 463 1
18 464 1
18 479 1
18 480 1
18 495 1
18 496 1
19 217 1
19 218 1
19 219 1
19 220 1
19 235 1
19 253 1
19 254 1
19 255 1
19 271 1
19 292 1
19 293 1
19 294 1
19 307 1
19 311 1
19 312 1
19 325 1
19 326 1
19 327 1
19 361 1
19 380 1
19 395 1
19 396 1
19 431 1
19 444 1
19 445 1
19 447 1
19 465 1
19 466 1
19 481 1
19 482 1
19 497 1
19 498 1
20 219 1
20 220 1
20 221 1
20 222 1
20 237 1
20 255 1
20 256 1
20 257 1
20 273 1
20 294 1
20 295 1
20 296 1
20 309 1
20 313 1
20 314 1
20 327 1
20 328 1
20 329 1
20 361 1
20 363 1
20 382 1
20 397 1
20 398 1
20 446 1
20 447 1
20 449 1
20 467 1
20 468 1
20 483 1
20 484 1
20 499 1
20 500 1
21 221 1
21 222 1
21 223 1
21 224 1
21 239 1
21 257 1
21 258 1
21 259 1
21 275 1
21 296 1
21 297 1
21 298 1
21 311 1
21 315 1
21 316 1
21 329 1
21 330 1
21 331 1
21 363 1
21 365 1
21 384 1
21 399 1
21 400 1
21 448 1
21 449 1
21 451 1
21 469 1
21 470 1
21 485 1
21 486 1
21 501 1
21 502 1
22 223 1
22 224 1
22 225 1
22 226 1
22 241 1
22 259 1
22 260 1
22 261 1
22 277 1
22 298 1
22 299 1
22 300 1
22 313 1
22 317 1
22 318 1
22 331 1
22 332 1
22 333 1
22 365 1
22 367 1
22 386 1
22 401 1
22 402 1
22 450 1
22 451 1
22 453 1
22 471 1
22 472 1
22 487 1
22 488 1
22 503 1
22 504 1
23 225 1
23 226 1
23 227 1
23 228 1
23 243 1
23 261 1
23 262 1
23 263 1
23 279 1
23 300 1
23 301 1
23 302 1
23 315 1
23 319 1
23 320 1
23 333 1
23 334 1
23 335 1
23 367 1
23 369 1
23 388 1
23 403 1
23 404 1
23 433 1
23 434 1
23 452 1
23 453 1
23 455 1
23 473 1
23 474 1
23 489 1
23 490 1
24 227 1
24 228 1
24 229 1
24 230 1
24 245 1
24 263 1
24 264 1
24 265 1
24 281 1
24 302 1
24 303 1
24 304 1
24 317 1
24 321 1
24 322 1
24 335 1
24 336 1
24 337 1
24 369 1
24 371 1
24 390 1
24 405 1
24 406 1
24 435 1
24 436 1
24 454 1
24 455 1
24 457 1
24 475 1
24 476 1
24 491 1
24 492 1
25 229 1
25 230 1
25 231 1
25 232 1
25 247 1
25 265 1
25 266 1
25 267 1
25 283 1
25 304 1
25 305 1
25 306 1
25 319 1
25 323 1
25 324 1
25 337 1
25 338 1
25 339 1
25 371 1
25 373 1
25 392 1
25 407 1
25 408 1
25 437 1
25 438 1
25 456 1
25 457 1
25 459 1
25 477 1
25 478 1
25 493 1
25 494 1
26 231 1
26 232 1
26 233 1
26 234 1
26 249 1
26 267 1
26 268 1
26 269 1
26 285 1
26 306 1
26 307 1
26 308 1
26 321 1
26 325 1
26 326 1
26 339 1
26 340 1
26 341 1
26 373 1
26 375 1
26 394 1
26 409 1
26 410 1
26 439 1
26 440 1
26 458 1
26 459 1
26 461 1
26 479 1
26 480 1
26 495 1
26 496 1
27 233 1
27 234 1
27 235 1
27 236 1
27 251 1
27 269 1
27 270 1
27 271 1
27 287 1
27 308 1
27 309 1
27 310 1
27 323 1
27 327 1
27 328 1
27 341 1
27 342 1
27 343 1
27 375 1
27 377 1
27 396 1
27 411 1
27 412 1
27 441 1
27 442 1
27 460 1
27 461 1
27 463 1
27 481 1
27 482 1
27 497 1
27 498 1
28 217 1
28 235 1
28 236 1
28 237 1
28 238 1
28 253 1
28 271 1
28 272 1
28 273 1
28 310 1
28 311 1
28 312 1
28 325 1
28 329 1
28 330 1
28 343 1
28 344 1
28 345 1
28 377 1
28 379 1
28 398 1
28 413 1
28 414 1
28 443 1
28 444 1
28 462 1
28 463 1
28 465 1
28 483 1
28 484 1
28 499 1
28 500 1
29 219 1
29 237 1
29 238 1
29 239 1
29 240 1
29 255 1
29 273 1
29 274 1
29 275 1
29 312 1
29 313 1
29 314 1
29 327 1
29 331 1
29 332 1
29 345 1
29 346 1
29 347 1
29 379 1
29 381 1
29 400 1
29 415 1
29 416 1
29 445 1
29 446 1
29 464 1
29 465 1
29 467 1
29 485 1
29 486 1
29 501 1
29 502 1
30 221 1
30 239 1
30 240 1
30 241 1
30 242 1
30 257 1
30 275 1
30 276 1
30 277 1
30 314 1
30 315 1
30 316 1
30 329 1
30 333 1
30 334 1
30 347 1
30 348 1
30 349 1
30 381 1
30 383 1
30 402 1
30 417 1
30 418 1
30 447 1
30 448 1
30 466 1
30 467 1
30 469 1
30 487 1
30 488 1
30 503 1
30 504 1
31 223 1
31 241 1
31 242 1
31 243 1
31 244 1
31 259 1
31 277 1
31 278 1
31 279 1
31 316 1
31 317 1
31 318 1
31 331 1
31 335 1
31 336 1
31 349 1
31 350 1
31 351 1
31 383 1
31 385 1
31 404 1
31 419 1
31 420 1
31 433 1
31 434 1
31 449 1
31 450 1
31 468 1
31 469 1
31 471 1
31 489 1
31 490 1
32 225 1
32 243 1
32 244 1
32 245 1
32 246 1
32 261 1
32 279 1
32 280 1
32 281 1
32 318 1
32 319 1
32 320 1
32 333 1
32 337 1
32 338 1
32 351 1
32 352 1
32 353 1
32 385 1
32 387 1
32 406 1
32 421 1
32 422 1
32 435 1
32 436 1
32 451 1
32 452 1
32 470 1
32 471 1
32 473 1
32 491 1
32 492 1
33 227 1
33 245 1
33 246 1
33 247 1
33 248 1
33 263 1
33 281 1
33 282 1
33 283 1
33 320 1
33 321 1
33 322 1
33 335 1
33 339 1
33 340 1
33 353 1
33 354 1
33 355 1
33 387 1
33 389 1
33 408 1
33 423 1
33 424 1
33 437 1
33 438 1
33 453 1
33 454 1
33 472 1
33 473 1
33 475 1
33 493 1
33 494 1
34 229 1
34 247 1
34 248 1
34 249 1
34 250 1
34 265 1
34 283 1
34 284 1
34 285 1
34 322 1
34 323 1
34 324 1
34 337 1
34 341 1
34 342 1
34 355 1
34 356 1
34 357 1
34 389 1
34 391 1
34 410 1
34 425 1
34 426 1
34 439 1
34 440 1
34 455 1
34 456 1
34 474 1
34 475 1
34 477 1
34 495 1
34 496 1
35 231 1
35 249 1
35 250 1
35 251 1
35 252 1
35 267 1
35 285 1
35 286 1
35 287 1
35 324 1
35 325 1
35 326 1
35 339 1
35 343 1
35 344 1
35 357 1
35 358 1
35 359 1
35 391 1
35 393 1
35 412 1
35 427 1
35 428 1
35 441 1
35 442 1
35 457 1
35 458 1
35 476 1
35 477 1
35 479 1
35 497 1
35 498 1
36 217 1
36 233 1
36 251 1
36 252 1
36 253 1
36 254 1
36 269 1
36 287 1
36 288 1
36 289 1
36 326 1
36 327 1
36 328 1
36 341 1
36 345 1
36 346 1
36 359 1
36 360 1
36 393 1
36 395 1
36 414 1
36 429 1
36 430 1
36 443 1
36 444 1
36 459 1
36 460 1
36 478 1
36 479 1
36 481 1
36 499 1
36 500 1
37 217 1
37 220 1
37 236 1
37 253 1
37 255 1
37 272 1
37 289 1
37 292 1
37 327 1
37 328 1
37 329 1
37 344 1
37 347 1
37 396 1
37 398 1
37 415 1
37 416 1
37 431 1
37 445 1
37 461 1
37 479 1
37 480 1
37 482 1
37 484 1
37 501 1
38 219 1
38 222 1
38 238 1
38 255 1
38 257 1
38 274 1
38 291 1
38 294 1
38 329 1
38 330 1
38 331 1
38 346 1
38 349 1
38 361 1
38 398 1
38 400 1
38 417 1
38 418 1
38 447 1
38 463 1
38 481 1
38 482 1
38 484 1
38 486 1
38 503 1
39 221 1
39 224 1
39 240 1
39 257 1
39 259 1
39 276 1
39 293 1
39 296 1
39 331 1
39 332 1
39 333 1
39 348 1
39 351 1
39 363 1
39 400 1
39 402 1
39 419 1
39 420 1
39 433 1
39 449 1
39 465 1
39 483 1
39 484 1
39 486 1
39 488 1
40 223 1
40 226 1
40 242 1
40 259 1
40 261 1
40 278 1
40 295 1
40 298 1
40 333 1
40 334 1
40 335 1
40 350 1
40 353 1
40 365 1
40 402 1
40 404 1
40 421 1
40 422 1
40 435 1
40 451 1
40 467 1
40 485 1
40 486 1
40 488 1
40 490 1
41 225 1
41 228 1
41 244 1
41 261 1
41 263 1
41 280 1
41 297 1
41 300 1
41 335 1
41 336 1
41 337 1
41 352 1
41 355 1
41 367 1
41 404 1
41 406 1
41 423 1
41 424 1
41 437 1
41 453 1
41 469 1
41 487 1
41 488 1
41 490 1
41 492 1
42 227 1
42 230 1
42 246 1
42 263 1
42 265 1
42 282 1
42 299 1
42 302 1
42 337 1
42 338 1
42 339 1
42 354 1
42 357 1
42 369 1
42 406 1
42 408 1
42 425 1
42 426 1
42 439 1
42 455 1
42 471 1
42 489 1
42 490 1
42 492 1
42 494 1
43 229 1
43 232 1
43 248 1
43 265 1
43 267 1
43 284 1
43 301 1
43 304 1
43 339 1
43 340 1
43 341 1
43 356 1
43 359 1
43 371 1
43 408 1
43 410 1
43 427 1
43 428 1
43 441 1
43 457 1
43 473 1
43 491 1
43 492 1
43 494 1
43 496 1
44 231 1
44 234 1
44 250 1
44 267 1
44 269 1
44 286 1
44 289 1
44 303 1
44 306 1
44 341 1
44 342 1
44 343 1
44 358 1
44 373 1
44 410 1
44 412 1
44 429 1
44 430 1
44 443 1
44 459 1
44 475 1
44 493 1
44 494 1
44 496 1
44 498 1
45 233 1
45 236 1
45 252 1
45 269 1
45 271 1
45 288 1
45 291 1
45 305 1
45 308 1
45 343 1
45 344 1
45 345 1
45 360 1
45 375 1
45 412 1
45 414 1
45 431 1
45 432 1
45 445 1
45 461 1
45 477 1
45 495 1
45 496 1
45 498 1
45 500 1
46 218 1
46 235 1
46 238 1
46 254 1
46 271 1
46 273 1
46 290 1
46 293 1
46 307 1
46 310 1
46 345 1
46 346 1
46 347 1
46 361 1
46 362 1
46 377 1
46 414 1
46 416 1
46 447 1
46 463 1
46 479 1
46 497 1
46 498 1
46 500 1
46 502 1
47 220 1
47 237 1
47 240 1
47 256 1
47 273 1
47 275 1
47 292 1
47 295 1
47 309 1
47 312 1
47 347 1
47 348 1
47 349 1
47 363 1
47 364 1
47 379 1
47 416 1
47 418 1
47 449 1
47 465 1
47 481 1
47 499 1
47 500 1
47 502 1
47 504 1
48 222 1
48 239 1
48 242 1
48 258 1
48 275 1
48 277 1
48 294 1
48 297 1
48 311 1
48 314 1
48 349 1
48 350 1
48 351 1
48 365 1
48 366 1
48 381 1
48 418 1
48 420 1
48 434 1
48 451 1
48 467 1
48 483 1
48 501 1
48 502 1
48 504 1
49 224 1
49 241 1
49 244 1
49 260 1
49 277 1
49 279 1
49 296 1
49 299 1
49 313 1
49 316 1
49 351 1
49 352 1
49 353 1
49 367 1
49 368 1
49 383 1
49 420 1
49 422 1
49 434 1
49 436 1
49 453 1
49 469 1
49 485 1
49 503 1
49 504 1
50 226 1
50 243 1
50 246 1
50 262 1
50 279 1
50 281 1
50 298 1
50 301 1
50 315 1
50 318 1
50 353 1
50 354 1
50 355 1
50 369 1
50 370 1
50 385 1
50 422 1
50 424 1
50 433 1
50 434 1
50 436 1
50 438 1
50 455 1
50 471 1
50 487 1
51 228 1
51 245 1
51 248 1
51 264 1
51 281 1
51 283 1
51 300 1
51 303 1
51 317 1
51 320 1
51 355 1
51 356 1
51 357 1
51 371 1
51 372 1
51 387 1
51 424 1
51 426 1
51 435 1
51 436 1
51 438 1
51 440 1
51 457 1
51 473 1
51 489 1
52 230 1
52 247 1
52 250 1
52 266 1
52 283 1
52 285 1
52 302 1
52 305 1
52 319 1
52 322 1
52 357 1
52 358 1
52 359 1
52 373 1
52 374 1
52 389 1
52 426 1
52 428 1
52 437 1
52 438 1
52 440 1
52 442 1
52 459 1
52 475 1
52 491 1
53 232 1
53 249 1
53 252 1
53 268 1
53 285 1
53 287 1
53 289 1
53 304 1
53 307 1
53 321 1
53 324 1
53 359 1
53 360 1
53 375 1
53 376 1
53 391 1
53 428 1
53 430 1
53 439 1
53 440 1
53 442 1
53 444 1
53 461 1
53 477 1
53 493 1
54 217 1
54 234 1
54 251 1
54 254 1
54 270 1
54 287 1
54 289 1
54 290 1
54 291 1
54 306 1
54 309 1
54 323 1
54 326 1
54 377 1
54 378 1
54 393 1
54 430 1
54 432 1
54 441 1
54 442 1
54 444 1
54 446 1
54 463 1
54 479 1
54 495 1
55 217 1
55 219 1
55 236 1
55 253 1
55 256 1
55 272 1
55 291 1
55 292 1
55 293 1
55 308 1
55 311 1
55 325 1
55 328 1
55 362 1
55 379 1
55 380 1
55 395 1
55 432 1
55 443 1
55 444 1
55 446 1
55 448 1
55 465 1
55 481 1
55 497 1
56 219 1
56 221 1
56 238 1
56 255 1
56 258 1
56 274 1
56 293 1
56 294 1
56 295 1
56 310 1
56 313 1
56 327 1
56 330 1
56 362 1
56 364 1
56 381 1
56 382 1
56 397 1
56 445 1
56 446 1
56 448 1
56 450 1
56 467 1
56 483 1
56 499 1
57 221 1
57 223 1
57 240 1
57 257 1
57 260 1
57 276 1
57 295 1
57 296 1
57 297 1
57 312 1
57 315 1
57 329 1
57 332 1
57 364 1
57 366 1
57 383 1
57 384 1
57 399 1
57 447 1
57 448 1
57 450 1
57 452 1
57 469 1
57 485 1
57 501 1
58 223 1
58 225 1
58 242 1
58 259 1
58 262 1
58 278 1
58 297 1
58 298 1
58 299 1
58 314 1
58 317 1
58 331 1
58 334 1
58 366 1
58 368 1
58 385 1
58 386 1
58 401 1
58 449 1
58 450 1
58 452 1
58 454 1
58 471 1
58 487 1
58 503 1
59 225 1
59 227 1
59 244 1
59 261 1
59 264 1
59 280 1
59 299 1
59 300 1
59 301 1
59 316 1
59 319 1
59 333 1
59 336 1
59 368 1
59 370 1
59 387 1
59 388 1
59 403 1
59 433 1
59 451 1
59 452 1
59 454 1
59 456 1
59 473 1
59 489 1
60 227 1
60 229 1
60 246 1
60 263 1
60 266 1
60 282 1
60 301 1
60 302 1
60 303 1
60 318 1
60 321 1
60 335 1
60 338 1
60 370 1
60 372 1
60 389 1
60 390 1
60 405 1
60 435 1
60 453 1
60 454 1
60 456 1
60 458 1
60 475 1
60 491 1
61 229 1
61 231 1
61 248 1
61 265 1
61 268 1
61 284 1
61 303 1
61 304 1
61 305 1
61 320 1
61 323 1
61 337 1
61 340 1
61 372 1
61 374 1
61 391 1
61 392 1
61 407 1
61 437 1
61 455 1
61 456 1
61 458 1
61 460 1
61 477 1
61 493 1
62 231 1
62 233 1
62 250 1
62 267 1
62 270 1
62 286 1
62 305 1
62 306 1
62 307 1
62 322 1
62 325 1
62 339 1
62 342 1
62 374 1
62 376 1
62 393 1
62 394 1
62 409 1
62 439 1
62 457 1
62 458 1
62 460 1
62 462 1
62 479 1
62 495 1
63 233 1
63 235 1
63 252 1
63 269 1
63 272 1
63 288 1
63 307 1
63 308 1
63 309 1
63 324 1
63 327 1
63 341 1
63 344 1
63 376 1
63 378 1
63 395 1
63 396 1
63 411 1
63 441 1
63 459 1
63 460 1
63 462 1
63 464 1
63 481 1
63 497 1
64 218 1
64 235 1
64 237 1
64 254 1
64 271 1
64 274 1
64 309 1
64 310 1
64 311 1
64 326 1
64 329 1
64 343 1
64 346 1
64 378 1
64 380 1
64 397 1
64 398 1
64 413 1
64 443 1
64 461 1
64 462 1
64 464 1
64 466 1
64 483 1
64 499 1
65 220 1
65 237 1
65 239 1
65 256 1
65 273 1
65 276 1
65 311 1
65 312 1
65 313 1
65 328 1
65 331 1
65 345 1
65 348 1
65 380 1
65 382 1
65 399 1
65 400 1
65 415 1
65 445 1
65 463 1
65 464 1
65 466 1
65 468 1
65 485 1
65 501 1
66 222 1
66 239 1
66 241 1
66 258 1
66 275 1
66 278 1
66 313 1
66 314 1
66 315 1
66 330 1
66 333 1
66 347 1
66 350 1
66 382 1
66 384 1
66 401 1
66 402 1
66 417 1
66 447 1
66 465 1
66 466 1
66 468 1
66 470 1
66 487 1
66 503 1
67 224 1
67 241 1
67 243 1
67 260 1
67 277 1
67 280 1
67 315 1
67 316 1
67 317 1
67 332 1
67 335 1
67 349 1
67 352 1
67 384 1
67 386 1
67 403 1
67 404 1
67 419 1
67 433 1
67 449 1
67 467 1
67 468 1
67 470 1
67 472 1
67 489 1
68 226 1
68 243 1
68 245 1
68 262 1
68 279 1
68 282 1
68 317 1
68 318 1
68 319 1
68 334 1
68 337 1
68 351 1
68 354 1
68 386 1
68 388 1
68 405 1
68 406 1
68 421 1
68 435 1
68 451 1
68 469 1
68 470 1
68 472 1
68 474 1
68 491 1
69 228 1
69 245 1
69 247 1
69 264 1
69 281 1
69 284 1
69 319 1
69 320 1
69 321 1
69 336 1
69 339 1
69 353 1
69 356 1
69 388 1
69 390 1
69 407 1
69 408 1
69 423 1
69 437 1
69 453 1
69 471 1
69 472 1
69 474 1
69 476 1
69 493 1
70 230 1
70 247 1
70 249 1
70 266 1
70 283 1
70 286 1
70 321 1
70 322 1
70 323 1
70 338 1
70 341 1
70 355 1
70 358 1
70 390 1
70 392 1
70 409 1
70 410 1
70 425 1
70 439 1
70 455 1
70 473 1
70 474 1
70 476 1
70 478 1
70 495 1
71 232 1
71 249 1
71 251 1
71 268 1
71 285 1
71 288 1
71 323 1
71 324 1
71 325 1
71 340 1
71 343 1
71 357 1
71 360 1
71 392 1
71 394 1
71 411 1
71 412 1
71 427 1
71 441 1
71 457 1
71 475 1
71 476 1
71 478 1
71 480 1
71 497 1
72 218 1
72 234 1
72 251 1
72 253 1
72 270 1
72 287 1
72 290 1
72 325 1
72 326 1
72 327 1
72 342 1
72 345 1
72 359 1
72 394 1
72 396 1
72 413 1
72 414 1
72 429 1
72 443 1
72 459 1
72 477 1
72 478 1
72 480 1
72 482 1
72 499 1
73 289 1
73 297 1
73 298 1
73 299 1
73 327 1
73 367 1
73 377 1
73 378 1
73 386 1
73 395 1
73 396 1
73 431 1
73 452 1
73 461 1
73 464 1
73 471 1
73 479 1
73 480 1
73 497 1
73 505 1
73 508 1
73 524 1
73 541 1
73 543 1
73 560 1
74 291 1
74 299 1
74 300 1
74 301 1
74 329 1
74 361 1
74 369 1
74 379 1
74 380 1
74 388 1
74 397 1
74 398 1
74 454 1
74 463 1
74 466 1
74 473 1
74 481 1
74 482 1
74 499 1
74 507 1
74 510 1
74 526 1
74 543 1
74 545 1
74 562 1
75 293 1
75 301 1
75 302 1
75 303 1
75 331 1
75 363 1
75 371 1
75 381 1
75 382 1
75 390 1
75 399 1
75 400 1
75 456 1
75 465 1
75 468 1
75 475 1
75 483 1
75 484 1
75 501 1
75 509 1
75 512 1
75 528 1
75 545 1
75 547 1
75 564 1
76 295 1
76 303 1
76 304 1
76 305 1
76 333 1
76 365 1
76 373 1
76 383 1
76 384 1
76 392 1
76 401 1
76 402 1
76 458 1
76 467 1
76 470 1
76 477 1
76 485 1
76 486 1
76 503 1
76 511 1
76 514 1
76 530 1
76 547 1
76 549 1
76 566 1
77 297 1
77 305 1
77 306 1
77 307 1
77 335 1
77 367 1
77 375 1
77 385 1
77 386 1
77 394 1
77 403 1
77 404 1
77 433 1
77 460 1
77 469 1
77 472 1
77 479 1
77 487 1
77 488 1
77 513 1
77 516 1
77 532 1
77 549 1
77 551 1
77 568 1
78 299 1
78 307 1
78 308 1
78 309 1
78 337 1
78 369 1
78 377 1
78 387 1
78 388 1
78 396 1
78 405 1
78 406 1
78 435 1
78 462 1
78 471 1
78 474 1
78 481 1
78 489 1
78 490 1
78 515 1
78 518 1
78 534 1
78 551 1
78 553 1
78 570 1
79 301 1
79 309 1
79 310 1
79 311 1
79 339 1
79 371 1
79 379 1
79 389 1
79 390 1
79 398 1
79 407 1
79 408 1
79 437 1
79 464 1
79 473 1
79 476 1
79 483 1
79 491 1
79 492 1
79 517 1
79 520 1
79 536 1
79 553 1
79 555 1
79 572 1
80 303 1
80 311 1
80 312 1
80 313 1
80 341 1
80 373 1
80 381 1
80 391 1
80 392 1
80 400 1
80 409 1
80 410 1
80 439 1
80 466 1
80 475 1
80 478 1
80 485 1
80 493 1
80 494 1
80 519 1
80 522 1
80 538 1
80 555 1
80 557 1
80 574 1
81 305 1
81 313 1
81 314 1
81 315 1
81 343 1
81 375 1
81 383 1
81 393 1
81 394 1
81 402 1
81 411 1
81 412 1
81 441 1
81 468 1
81 477 1
81 480 1
81 487 1
81 495 1
81 496 1
81 521 1
81 524 1
81 540 1
81 557 1
81 559 1
81 576 1
82 307 1
82 315 1
82 316 1
82 317 1
82 345 1
82 377 1
82 385 1
82 395 1
82 396 1
82 404 1
82 413 1
82 414 1
82 443 1
82 470 1
82 479 1
82 482 1
82 489 1
82 497 1
82 498 1
82 506 1
82 523 1
82 526 1
82 542 1
82 559 1
82 561 1
83 309 1
83 317 1
83 318 1
83 319 1
83 347 1
83 379 1
83 387 1
83 397 1
83 398 1
83 406 1
83 415 1
83 416 1
83 445 1
83 472 1
83 481 1
83 484 1
83 491 1
83 499 1
83 500 1
83 508 1
83 525 1
83 528 1
83 544 1
83 561 1
83 563 1
84 311 1
84 319 1
84 320 1
84 321 1
84 349 1
84 381 1
84 389 1
84 399 1
84 400 1
84 408 1
84 417 1
84 418 1
84 447 1
84 474 1
84 483 1
84 486 1
84 493 1
84 501 1
84 502 1
84 510 1
84 527 1
84 530 1
84 546 1
84 563 1
84 565 1
85 313 1
85 321 1
85 322 1
85 323 1
85 351 1
85 383 1
85 391 1
85 401 1
85 402 1
85 410 1
85 419 1
85 420 1
85 449 1
85 476 1
85 485 1
85 488 1
85 495 1
85 503 1
85 504 1
85 512 1
85 529 1
85 532 1
85 548 1
85 565 1
85 567 1
86 315 1
86 323 1
86 324 1
86 325 1
86 353 1
86 385 1
86 393 1
86 403 1
86 404 1
86 412 1
86 421 1
86 422 1
86 433 1
86 434 1
86 451 1
86 478 1
86 487 1
86 490 1
86 497 1
86 514 1
86 531 1
86 534 1
86 550 1
86 567 1
86 569 1
87 317 1
87 325 1
87 326 1
87 327 1
87 355 1
87 387 1
87 395 1
87 405 1
87 406 1
87 414 1
87 423 1
87 424 1
87 435 1
87 436 1
87 453 1
87 480 1
87 489 1
87 492 1
87 499 1
87 516 1
87 533 1
87 536 1
87 552 1
87 569 1
87 571 1
88 319 1
88 327 1
88 328 1
88 329 1
88 357 1
88 389 1
88 397 1
88 407 1
88 408 1
88 416 1
88 425 1
88 426 1
88 437 1
88 438 1
88 455 1
88 482 1
88 491 1
88 494 1
88 501 1
88 518 1
88 535 1
88 538 1
88 554 1
88 571 1
88 573 1
89 321 1
89 329 1
89 330 1
89 331 1
89 359 1
89 391 1
89 399 1
89 409 1
89 410 1
89 418 1
89 427 1
89 428 1
89 439 1
89 440 1
89 457 1
89 484 1
89 493 1
89 496 1
89 503 1
89 520 1
89 537 1
89 540 1
89 556 1
89 573 1
89 575 1
90 289 1
90 323 1
90 331 1
90 332 1
90 333 1
90 393 1
90 401 1
90 411 1
90 412 1
90 420 1
90 429 1
90 430 1
90 433 1
90 441 1
90 442 1
90 459 1
90 486 1
90 495 1
90 498 1
90 505 1
90 522 1
90 539 1
90 542 1
90 558 1
90 575 1
91 291 1
91 325 1
91 333 1
91 334 1
91 335 1
91 395 1
91 403 1
91 413 1
91 414 1
91 422 1
91 431 1
91 432 1
91 435 1
91 443 1
91 444 1
91 461 1
91 488 1
91 497 1
91 500 1
91 505 1
91 507 1
91 524 1
91 541 1
91 544 1
91 560 1
92 293 1
92 327 1
92 335 1
92 336 1
92 337 1
92 361 1
92 362 1
92 397 1
92 405 1
92 415 1
92 416 1
92 424 1
92 437 1
92 445 1
92 446 1
92 463 1
92 490 1
92 499 1
92 502 1
92 507 1
92 509 1
92 526 1
92 543 1
92 546 1
92 562 1
93 295 1
93 329 1
93 337 1
93 338 1
93 339 1
93 363 1
93 364 1
93 399 1
93 407 1
93 417 1
93 418 1
93 426 1
93 439 1
93 447 1
93 448 1
93 465 1
93 492 1
93 501 1
93 504 1
93 509 1
93 511 1
93 528 1
93 545 1
93 548 1
93 564 1
94 297 1
94 331 1
94 339 1
94 340 1
94 341 1
94 365 1
94 366 1
94 401 1
94 409 1
94 419 1
94 420 1
94 428 1
94 434 1
94 441 1
94 449 1
94 450 1
94 467 1
94 494 1
94 503 1
94 511 1
94 513 1
94 530 1
94 547 1
94 550 1
94 566 1
95 299 1
95 333 1
95 341 1
95 342 1
95 343 1
95 367 1
95 368 1
95 403 1
95 411 1
95 421 1
95 422 1
95 430 1
95 433 1
95 436 1
95 443 1
95 451 1
95 452 1
95 469 1
95 496 1
95 513 1
95 515 1
95 532 1
95 549 1
95 552 1
95 568 1
96 301 1
96 335 1
96 343 1
96 344 1
96 345 1
96 369 1
96 370 1
96 405 1
96 413 1
96 423 1
96 424 1
96 432 1
96 435 1
96 438 1
96 445 1
96 453 1
96 454 1
96 471 1
96 498 1
96 515 1
96 517 1
96 534 1
96 551 1
96 554 1
96 570 1
97 303 1
97 337 1
97 345 1
97 346 1
97 347 1
97 362 1
97 371 1
97 372 1
97 407 1
97 415 1
97 425 1
97 426 1
97 437 1
97 440 1
97 447 1
97 455 1
97 456 1
97 473 1
97 500 1
97 517 1
97 519 1
97 536 1
97 553 1
97 556 1
97 572 1
98 305 1
98 339 1
98 347 1
98 348 1
98 349 1
98 364 1
98 373 1
98 374 1
98 409 1
98 417 1
98 427 1
98 428 1
98 439 1
98 442 1
98 449 1
98 457 1
98 458 1
98 475 1
98 502 1
98 519 1
98 521 1
98 538 1
98 555 1
98 558 1
98 574 1
99 307 1
99 341 1
99 349 1
99 350 1
99 351 1
99 366 1
99 375 1
99 376 1
99 411 1
99 419 1
99 429 1
99 430 1
99 441 1
99 444 1
99 451 1
99 459 1
99 460 1
99 477 1
99 504 1
99 521 1
99 523 1
99 540 1
99 557 1
99 560 1
99 576 1
100 309 1
100 343 1
100 351 1
100 352 1
100 353 1
100 368 1
100 377 1
100 378 1
100 413 1
100 421 1
100 431 1
100 432 1
100 434 1
100 443 1
100 446 1
100 453 1
100 461 1
100 462 1
100 479 1
100 506 1
100 523 1
100 525 1
100 542 1
100 559 1
100 562 1
101 311 1
101 345 1
101 353 1
101 354 1
101 355 1
101 361 1
101 362 1
101 370 1
101 379 1
101 380 1
101 415 1
101 423 1
101 436 1
101 445 1
101 448 1
101 455 1
101 463 1
101 464 1
101 481 1
101 508 1
101 525 1
101 527 1
101 544 1
101 561 1
101 564 1
102 313 1
102 347 1
102 355 1
102 356 1
102 357 1
102 363 1
102 364 1
102 372 1
102 381 1
102 382 1
102 417 1
102 425 1
102 438 1
102 447 1
102 450 1
102 457 1
102 465 1
102 466 1
102 483 1
102 510 1
102 527 1
102 529 1
102 546 1
102 563 1
102 566 1
103 315 1
103 349 1
103 357 1
103 358 1
103 359 1
103 365 1
103 366 1
103 374 1
103 383 1
103 384 1
103 419 1
103 427 1
103 440 1
103 449 1
103 452 1
103 459 1
103 467 1
103 468 1
103 485 1
103 512 1
103 529 1
103 531 1
103 548 1
103 565 1
103 568 1
104 289 1
104 317 1
104 351 1
104 359 1
104 360 1
104 367 1
104 368 1
104 376 1
104 385 1
104 386 1
104 421 1
104 429 1
104 442 1
104 451 1
104 454 1
104 461 1
104 469 1
104 470 1
104 487 1
104 514 1
104 531 1
104 533 1
104 550 1
104 567 1
104 570 1
105 289 1
105 290 1
105 291 1
105 319 1
105 353 1
105 369 1
105 370 1
105 378 1
105 387 1
105 388 1
105 423 1
105 431 1
105 444 1
105 453 1
105 456 1
105 463 1
105 471 1
105 472 1
105 489 1
105 516 1
105 533 1
105 535 1
105 552 1
105 569 1
105 572 1
106 291 1
106 292 1
106 293 1
106 321 1
106 355 1
106 361 1
106 371 1
106 372 1
106 380 1
106 389 1
106 390 1
106 425 1
106 446 1
106 455 1
106 458 1
106 465 1
106 473 1
106 474 1
106 491 1
106 518 1
106 535 1
106 537 1
106 554 1
106 571 1
106 574 1
107 293 1
107 294 1
107 295 1
107 323 1
107 357 1
107 363 1
107 373 1
107 374 1
107 382 1
107 391 1
107 392 1
107 427 1
107 448 1
107 457 1
107 460 1
107 467 1
107 475 1
107 476 1
107 493 1
107 520 1
107 537 1
107 539 1
107 556 1
107 573 1
107 576 1
108 295 1
108 296 1
108 297 1
108 325 1
108 359 1
108 365 1
108 375 1
108 376 1
108 384 1
108 393 1
108 394 1
108 429 1
108 450 1
108 459 1
108 462 1
108 469 1
108 477 1
108 478 1
108 495 1
108 506 1
108 522 1
108 539 1
108 541 1
108 558 1
108 575 1
109 290 1
109 297 1
109 300 1
109 328 1
109 368 1
109 377 1
109 385 1
109 386 1
109 395 1
109 432 1
109 451 1
109 452 1
109 462 1
109 463 1
109 464 1
109 472 1
109 479 1
109 498 1
109 506 1
109 507 1
109 508 1
109 523 1
109 524 1
109 542 1
109 544 1
109 559 1
109 560 1
110 292 1
110 299 1
110 302 1
110 330 1
110 362 1
110 370 1
110 379 1
110 387 1
110 388 1
110 397 1
110 453 1
110 454 1
110 464 1
110 465 1
110 466 1
110 474 1
110 481 1
110 500 1
110 508 1
110 509 1
110 510 1
110 525 1
110 526 1
110 544 1
110 546 1
110 561 1
110 562 1
111 294 1
111 301 1
111 304 1
111 332 1
111 364 1
111 372 1
111 381 1
111 389 1
111 390 1
111 399 1
111 455 1
111 456 1
111 466 1
111 467 1
111 468 1
111 476 1
111 483 1
111 502 1
111 510 1
111 511 1
111 512 1
111 527 1
111 528 1
111 546 1
111 548 1
111 563 1
111 564 1
112 296 1
112 303 1
112 306 1
112 334 1
112 366 1
112 374 1
112 383 1
112 391 1
112 392 1
112 401 1
112 457 1
112 458 1
112 468 1
112 469 1
112 470 1
112 478 1
112 485 1
112 504 1
112 512 1
112 513 1
112 514 1
112 529 1
112 530 1
112 548 1
112 550 1
112 565 1
112 566 1
113 298 1
113 305 1
113 308 1
113 336 1
113 368 1
113 376 1
113 385 1
113 393 1
113 394 1
113 403 1
113 434 1
113 459 1
113 460 1
113 470 1
113 471 1
113 472 1
113 480 1
113 487 1
113 514 1
113 515 1
113 516 1
113 531 1
113 532 1
113 550 1
113 552 1
113 567 1
113 568 1
114 300 1
114 307 1
114 310 1
114 338 1
114 370 1
114 378 1
114 387 1
114 395 1
114 396 1
114 405 1
114 436 1
114 461 1
114 462 1
114 472 1
114 473 1
114 474 1
114 482 1
114 489 1
114 516 1
114 517 1
114 518 1
114 533 1
114 534 1
114 552 1
114 554 1
114 569 1
114 570 1
115 302 1
115 309 1
115 312 1
115 340 1
115 372 1
115 380 1
115 389 1
115 397 1
115 398 1
115 407 1
115 438 1
115 463 1
115 464 1
115 474 1
115 475 1
115 476 1
115 484 1
115 491 1
115 518 1
115 519 1
115 520 1
115 535 1
115 536 1
115 554 1
115 556 1
115 571 1
115 572 1
116 304 1
116 311 1
116 314 1
116 342 1
116 374 1
116 382 1
116 391 1
116 399 1
116 400 1
116 409 1
116 440 1
116 465 1
116 466 1
116 476 1
116 477 1
116 478 1
116 486 1
116 493 1
116 520 1
116 521 1
116 522 1
116 537 1
116 538 1
116 556 1
116 558 1
116 573 1
116 574 1
117 306 1
117 313 1
117 316 1
117 344 1
117 376 1
117 384 1
117 393 1
117 401 1
117 402 1
117 411 1
117 442 1
117 467 1
117 468 1
117 478 1
117 479 1
117 480 1
117 488 1
117 495 1
117 522 1
117 523 1
117 524 1
117 539 1
117 540 1
117 558 1
117 560 1
117 575 1
117 576 1
118 308 1
118 315 1
118 318 1
118 346 1
118 378 1
118 386 1
118 395 1
118 403 1
118 404 1
118 413 1
118 444 1
118 469 1
118 470 1
118 480 1
118 481 1
118 482 1
118 490 1
118 497 1
118 505 1
118 506 1
118 524 1
118 525 1
118 526 1
118 541 1
118 542 1
118 560 1
118 562 1
119 310 1
119 317 1
119 320 1
119 348 1
119 380 1
119 388 1
119 397 1
119 405 1
119 406 1
119 415 1
119 446 1
119 471 1
119 472 1
119 482 1
119 483 1
119 484 1
119 492 1
119 499 1
119 507 1
119 508 1
119 526 1
119 527 1
119 528 1
119 543 1
119 544 1
119 562 1
119 564 1
120 312 1
120 319 1
120 322 1
120 350 1
120 382 1
120 390 1
120 399 1
120 407 1
120 408 1
120 417 1
120 448 1
120 473 1
120 474 1
120 484 1
120 485 1
120 486 1
120 494 1
120 501 1
120 509 1
120 510 1
120 528 1
120 529 1
120 530 1
120 545 1
120 546 1
120 564 1
120 566 1
121 314 1
121 321 1
121 324 1
121 352 1
121 384 1
121 392 1
121 401 1
121 409 1
121 410 1
121 419 1
121 450 1
121 475 1
121 476 1
121 486 1
121 487 1
121 488 1
121 496 1
121 503 1
121 511 1
121 512 1
121 530 1
121 531 1
121 532 1
121 547 1
121 548 1
121 566 1
121 568 1
122 316 1
122 323 1
122 326 1
122 354 1
122 386 1
122 394 1
122 403 1
122 411 1
122 412 1
122 421 1
122 433 1
122 452 1
122 477 1
122 478 1
122 488 1
122 489 1
122 490 1
122 498 1
122 513 1
122 514 1
122 532 1
122 533 1
122 534 1
122 549 1
122 550 1
122 568 1
122 570 1
123 318 1
123 325 1
123 328 1
123 356 1
123 388 1
123 396 1
123 405 1
123 413 1
123 414 1
123 423 1
123 435 1
123 454 1
123 479 1
123 480 1
123 490 1
123 491 1
123 492 1
123 500 1
123 515 1
123 516 1
123 534 1
123 535 1
123 536 1
123 551 1
123 552 1
123 570 1
123 572 1
124 320 1
124 327 1
124 330 1
124 358 1
124 390 1
124 398 1
124 407 1
124 415 1
124 416 1
124 425 1
124 437 1
124 456 1
124 481 1
124 482 1
124 492 1
124 493 1
124 494 1
124 502 1
124 517 1
124 518 1
124 536 1
124 537 1
124 538 1
124 553 1
124 554 1
124 572 1
124 574 1
125 322 1
125 329 1
125 332 1
125 360 1
125 392 1
125 400 1
125 409 1
125 417 1
125 418 1
125 427 1
125 439 1
125 458 1
125 483 1
125 484 1
125 494 1
125 495 1
125 496 1
125 504 1
125 519 1
125 520 1
125 538 1
125 539 1
125 540 1
125 555 1
125 556 1
125 574 1
125 576 1
126 290 1
126 324 1
126 331 1
126 334 1
126 394 1
126 402 1
126 411 1
126 419 1
126 420 1
126 429 1
126 434 1
126 441 1
126 460 1
126 485 1
126 486 1
126 496 1
126 497 1
126 498 1
126 506 1
126 521 1
126 522 1
126 540 1
126 541 1
126 542 1
126 557 1
126 558 1
126 576 1
127 292 1
127 326 1
127 333 1
127 336 1
127 396 1
127 404 1
127 413 1
127 421 1
127 422 1
127 431 1
127 436 1
127 443 1
127 462 1
127 487 1
127 488 1
127 498 1
127 499 1
127 500 1
127 506 1
127 508 1
127 523 1
127 524 1
127 542 1
127 543 1
127 544 1
127 559 1
127 560 1
128 294 1
128 328 1
128 335 1
128 338 1
128 361 1
128 398 1
128 406 1
128 415 1
128 423 1
128 424 1
128 438 1
128 445 1
128 464 1
128 489 1
128 490 1
128 500 1
128 501 1
128 502 1
128 508 1
128 510 1
128 525 1
128 526 1
128 544 1
128 545 1
128 546 1
128 561 1
128 562 1
129 296 1
129 330 1
129 337 1
129 340 1
129 363 1
129 400 1
129 408 1
129 417 1
129 425 1
129 426 1
129 440 1
129 447 1
129 466 1
129 491 1
129 492 1
129 502 1
129 503 1
129 504 1
129 510 1
129 512 1
129 527 1
129 528 1
129 546 1
129 547 1
129 548 1
129 563 1
129 564 1
130 298 1
130 332 1
130 339 1
130 342 1
130 365 1
130 402 1
130 410 1
130 419 1
130 427 1
130 428 1
130 433 1
130 434 1
130 442 1
130 449 1
130 468 1
130 493 1
130 494 1
130 504 1
130 512 1
130 514 1
130 529 1
130 530 1
130 548 1
130 549 1
130 550 1
130 565 1
130 566 1
131 300 1
131 334 1
131 341 1
131 344 1
131 367 1
131 404 1
131 412 1
131 421 1
131 429 1
131 430 1
131 434 1
131 435 1
131 436 1
131 444 1
131 451 1
131 470 1
131 495 1
131 496 1
131 514 1
131 516 1
131 531 1
131 532 1
131 550 1
131 551 1
131 552 1
131 567 1
131 568 1
132 302 1
132 336 1
132 343 1
132 346 1
132 369 1
132 406 1
132 414 1
132 423 1
132 431 1
132 432 1
132 436 1
132 437 1
132 438 1
132 446 1
132 453 1
132 472 1
132 497 1
132 498 1
132 516 1
132 518 1
132 533 1
132 534 1
132 552 1
132 553 1
132 554 1
132 569 1
132 570 1
133 304 1
133 338 1
133 345 1
133 348 1
133 361 1
133 362 1
133 371 1
133 408 1
133 416 1
133 425 1
133 438 1
133 439 1
133 440 1
133 448 1
133 455 1
133 474 1
133 499 1
133 500 1
133 518 1
133 520 1
133 535 1
133 536 1
133 554 1
133 555 1
133 556 1
133 571 1
133 572 1
134 306 1
134 340 1
134 347 1
134 350 1
134 363 1
134 364 1
134 373 1
134 410 1
134 418 1
134 427 1
134 440 1
134 441 1
134 442 1
134 450 1
134 457 1
134 476 1
134 501 1
134 502 1
134 520 1
134 522 1
134 537 1
134 538 1
134 556 1
134 557 1
134 558 1
134 573 1
134 574 1
135 308 1
135 342 1
135 349 1
135 352 1
135 365 1
135 366 1
135 375 1
135 412 1
135 420 1
135 429 1
135 442 1
135 443 1
135 444 1
135 452 1
135 459 1
135 478 1
135 503 1
135 504 1
135 522 1
135 524 1
135 539 1
135 540 1
135 558 1
135 559 1
135 560 1
135 575 1
135 576 1
136 310 1
136 344 1
136 351 1
136 354 1
136 367 1
136 368 1
136 377 1
136 414 1
136 422 1
136 431 1
136 433 1
136 434 1
136 444 1
136 445 1
136 446 1
136 454 1
136 461 1
136 480 1
136 505 1
136 506 1
136 524 1
136 526 1
136 541 1
136 542 1
136 560 1
136 561 1
136 562 1
137 312 1
137 346 1
137 353 1
137 356 1
137 361 1
137 369 1
137 370 1
137 379 1
137 416 1
137 424 1
137 435 1
137 436 1
137 446 1
137 447 1
137 448 1
137 456 1
137 463 1
137 482 1
137 507 1
137 508 1
137 526 1
137 528 1
137 543 1
137 544 1
137 562 1
137 563 1
137 564 1
138 314 1
138 348 1
138 355 1
138 358 1
138 363 1
138 371 1
138 372 1
138 381 1
138 418 1
138 426 1
138 437 1
138 438 1
138 448 1
138 449 1
138 450 1
138 458 1
138 465 1
138 484 1
138 509 1
138 510 1
138 528 1
138 530 1
138 545 1
138 546 1
138 564 1
138 565 1
138 566 1
139 316 1
139 350 1
139 357 1
139 360 1
139 365 1
139 373 1
139 374 1
139 383 1
139 420 1
139 428 1
139 439 1
139 440 1
139 450 1
139 451 1
139 452 1
139 460 1
139 467 1
139 486 1
139 511 1
139 512 1
139 530 1
139 532 1
139 547 1
139 548 1
139 566 1
139 567 1
139 568 1
140 290 1
140 318 1
140 352 1
140 359 1
140 367 1
140 375 1
140 376 1
140 385 1
140 422 1
140 430 1
140 441 1
140 442 1
140 452 1
140 453 1
140 454 1
140 462 1
140 469 1
140 488 1
140 513 1
140 514 1
140 532 1
140 534 1
140 549 1
140 550 1
140 568 1
140 569 1
140 570 1
141 289 1
141 292 1
141 320 1
141 354 1
141 369 1
141 377 1
141 378 1
141 387 1
141 424 1
141 432 1
141 443 1
141 444 1
141 454 1
141 455 1
141 456 1
141 464 1
141 471 1
141 490 1
141 515 1
141 516 1
141 534 1
141 536 1
141 551 1
141 552 1
141 570 1
141 571 1
141 572 1
142 291 1
142 294 1
142 322 1
142 356 1
142 362 1
142 371 1
142 379 1
142 380 1
142 389 1
142 426 1
142 445 1
142 446 1
142 456 1
142 457 1
142 458 1
142 466 1
142 473 1
142 492 1
142 517 1
142 518 1
142 536 1
142 538 1
142 553 1
142 554 1
142 572 1
142 573 1
142 574 1
143 293 1
143 296 1
143 324 1
143 358 1
143 364 1
143 373 1
143 381 1
143 382 1
143 391 1
143 428 1
143 447 1
143 448 1
143 458 1
143 459 1
143 460 1
143 468 1
143 475 1
143 494 1
143 519 1
143 520 1
143 538 1
143 540 1
143 555 1
143 556 1
143 574 1
143 575 1
143 576 1
144 295 1
144 298 1
144 326 1
144 360 1
144 366 1
144 375 1
144 383 1
144 384 1
144 393 1
144 430 1
144 449 1
144 450 1
144 460 1
144 461 1
144 462 1
144 470 1
144 477 1
144 496 1
144 505 1
144 506 1
144 521 1
144 522 1
144 540 1
144 542 1
144 557 1
144 558 1
144 576 1
