%%MatrixMarket matrix coordinate integer general
% GF(4) labels 0,1,2=omega,3=omega+1; arithmetic is NOT integer arithmetic.
% Coordinate indices are 1-based; omitted entries are zero.
72 288 1548
1 109 3
1 110 1
1 118 1
1 127 3
1 128 3
1 136 1
1 145 3
1 146 1
1 164 2
1 165 3
1 172 1
1 174 3
1 198 1
1 199 1
1 208 2
1 216 3
1 223 3
1 231 3
1 240 2
1 241 1
1 242 1
1 251 3
2 110 3
2 111 1
2 119 1
2 128 3
2 129 3
2 137 1
2 146 3
2 147 1
2 165 2
2 166 3
2 173 1
2 175 3
2 181 3
2 199 1
2 200 1
2 209 2
2 224 3
2 232 3
2 241 2
2 242 1
2 243 1
2 252 3
3 111 3
3 112 1
3 120 1
3 129 3
3 130 3
3 138 1
3 147 3
3 148 1
3 166 2
3 167 3
3 174 1
3 176 3
3 182 3
3 200 1
3 201 1
3 210 2
3 217 3
3 225 3
3 233 3
3 242 2
3 243 1
3 244 1
4 112 3
4 113 1
4 121 1
4 130 3
4 131 3
4 139 1
4 148 3
4 149 1
4 167 2
4 168 3
4 175 1
4 177 3
4 183 3
4 201 1
4 202 1
4 211 2
4 218 3
4 226 3
4 234 3
4 243 2
4 244 1
4 245 1
5 113 3
5 114 1
5 122 1
5 131 3
5 132 3
5 140 1
5 149 3
5 150 1
5 168 2
5 169 3
5 176 1
5 178 3
5 184 3
5 202 1
5 203 1
5 212 2
5 219 3
5 227 3
5 235 3
5 244 2
5 245 1
5 246 1
6 114 3
6 115 1
6 123 1
6 132 3
6 133 3
6 141 1
6 150 3
6 151 1
6 169 2
6 170 3
6 177 1
6 179 3
6 185 3
6 203 1
6 204 1
6 213 2
6 220 3
6 228 3
6 236 3
6 245 2
6 246 1
6 247 1
7 115 3
7 116 1
7 124 1
7 133 3
7 134 3
7 142 1
7 151 3
7 152 1
7 170 2
7 171 3
7 178 1
7 180 3
7 186 3
7 204 1
7 205 1
7 214 2
7 221 3
7 229 3
7 237 3
7 246 2
7 247 1
7 248 1
8 116 3
8 117 1
8 125 1
8 134 3
8 135 3
8 143 1
8 145 3
8 152 3
8 153 1
8 171 2
8 172 3
8 179 1
8 187 3
8 205 1
8 206 1
8 215 2
8 222 3
8 230 3
8 238 3
8 247 2
8 248 1
8 249 1
9 117 3
9 118 1
9 126 1
9 135 3
9 136 3
9 144 1
9 146 3
9 153 3
9 154 1
9 172 2
9 173 3
9 180 1
9 188 3
9 206 1
9 207 1
9 216 2
9 223 3
9 231 3
9 239 3
9 248 2
9 249 1
9 250 1
10 109 1
10 118 3
10 119 1
10 127 1
10 136 3
10 137 3
10 145 1
10 147 3
10 154 3
10 155 1
10 173 2
10 174 3
10 181 2
10 189 3
10 207 1
10 208 1
10 224 3
10 232 3
10 240 3
10 249 2
10 250 1
10 251 1
11 110 1
11 119 3
11 120 1
11 128 1
11 137 3
11 138 3
11 146 1
11 148 3
11 155 3
11 156 1
11 174 2
11 175 3
11 182 2
11 190 3
11 208 1
11 209 1
11 225 3
11 233 3
11 241 3
11 250 2
11 251 1
11 252 1
12 111 1
12 120 3
12 121 1
12 129 1
12 138 3
12 139 3
12 147 1
12 149 3
12 156 3
12 157 1
12 175 2
12 176 3
12 183 2
12 191 3
12 209 1
12 210 1
12 217 1
12 226 3
12 234 3
12 242 3
12 251 2
12 252 1
13 112 1
13 121 3
13 122 1
13 130 1
13 139 3
13 140 3
13 148 1
13 150 3
13 157 3
13 158 1
13 176 2
13 177 3
13 184 2
13 192 3
13 210 1
13 211 1
13 217 1
13 218 1
13 227 3
13 235 3
13 243 3
13 252 2
14 113 1
14 122 3
14 123 1
14 131 1
14 140 3
14 141 3
14 149 1
14 151 3
14 158 3
14 159 1
14 177 2
14 178 3
14 185 2
14 193 3
14 211 1
14 212 1
14 217 2
14 218 1
14 219 1
14 228 3
14 236 3
14 244 3
15 114 1
15 123 3
15 124 1
15 132 1
15 141 3
15 142 3
15 150 1
15 152 3
15 159 3
15 160 1
15 178 2
15 179 3
15 186 2
15 194 3
15 212 1
15 213 1
15 218 2
15 219 1
15 220 1
15 229 3
15 237 3
15 245 3
16 115 1
16 124 3
16 125 1
16 133 1
16 142 3
16 143 3
16 151 1
16 153 3
16 160 3
16 161 1
16 179 2
16 180 3
16 187 2
16 195 3
16 213 1
16 214 1
16 219 2
16 220 1
16 221 1
16 230 3
16 238 3
16 246 3
17 116 1
17 125 3
17 126 1
17 134 1
17 143 3
17 144 3
17 145 3
17 152 1
17 154 3
17 161 3
17 162 1
17 180 2
17 188 2
17 196 3
17 214 1
17 215 1
17 220 2
17 221 1
17 222 1
17 231 3
17 239 3
17 247 3
18 109 3
18 117 1
18 126 3
18 127 1
18 135 1
18 144 3
18 145 2
18 146 3
18 153 1
18 155 3
18 162 3
18 163 1
18 189 2
18 197 3
18 215 1
18 216 1
18 221 2
18 222 1
18 223 1
18 232 3
18 240 3
18 248 3
19 109 3
19 110 3
19 118 1
19 127 3
19 128 1
19 136 1
19 146 2
19 147 3
19 154 1
19 156 3
19 163 3
19 164 1
19 181 1
19 190 2
19 198 3
19 216 1
19 222 2
19 223 1
19 224 1
19 233 3
19 241 3
19 249 3
20 110 3
20 111 3
20 119 1
20 128 3
20 129 1
20 137 1
20 147 2
20 148 3
20 155 1
20 157 3
20 164 3
20 165 1
20 181 1
20 182 1
20 191 2
20 199 3
20 223 2
20 224 1
20 225 1
20 234 3
20 242 3
20 250 3
21 111 3
21 112 3
21 120 1
21 129 3
21 130 1
21 138 1
21 148 2
21 149 3
21 156 1
21 158 3
21 165 3
21 166 1
21 182 1
21 183 1
21 192 2
21 200 3
21 224 2
21 225 1
21 226 1
21 235 3
21 243 3
21 251 3
22 112 3
22 113 3
22 121 1
22 130 3
22 131 1
22 139 1
22 149 2
22 150 3
22 157 1
22 159 3
22 166 3
22 167 1
22 183 1
22 184 1
22 193 2
22 201 3
22 225 2
22 226 1
22 227 1
22 236 3
22 244 3
22 252 3
23 113 3
23 114 3
23 122 1
23 131 3
23 132 1
23 140 1
23 150 2
23 151 3
23 158 1
23 160 3
23 167 3
23 168 1
23 184 1
23 185 1
23 194 2
23 202 3
23 217 3
23 226 2
23 227 1
23 228 1
23 237 3
23 245 3
24 114 3
24 115 3
24 123 1
24 132 3
24 133 1
24 141 1
24 151 2
24 152 3
24 159 1
24 161 3
24 168 3
24 169 1
24 185 1
24 186 1
24 195 2
24 203 3
24 218 3
24 227 2
24 228 1
24 229 1
24 238 3
24 246 3
25 115 3
25 116 3
25 124 1
25 133 3
25 134 1
25 142 1
25 152 2
25 153 3
25 160 1
25 162 3
25 169 3
25 170 1
25 186 1
25 187 1
25 196 2
25 204 3
25 219 3
25 228 2
25 229 1
25 230 1
25 239 3
25 247 3
26 116 3
26 117 3
26 125 1
26 134 3
26 135 1
26 143 1
26 153 2
26 154 3
26 161 1
26 163 3
26 170 3
26 171 1
26 187 1
26 188 1
26 197 2
26 205 3
26 220 3
26 229 2
26 230 1
26 231 1
26 240 3
26 248 3
27 117 3
27 118 3
27 126 1
27 135 3
27 136 1
27 144 1
27 154 2
27 155 3
27 162 1
27 164 3
27 171 3
27 172 1
27 188 1
27 189 1
27 198 2
27 206 3
27 221 3
27 230 2
27 231 1
27 232 1
27 241 3
27 249 3
28 109 1
28 118 3
28 119 3
28 127 1
28 136 3
28 137 1
28 155 2
28 156 3
28 163 1
28 165 3
28 172 3
28 173 1
28 189 1
28 190 1
28 199 2
28 207 3
28 222 3
28 231 2
28 232 1
28 233 1
28 242 3
28 250 3
29 110 1
29 119 3
29 120 3
29 128 1
29 137 3
29 138 1
29 156 2
29 157 3
29 164 1
29 166 3
29 173 3
29 174 1
29 190 1
29 191 1
29 200 2
29 208 3
29 223 3
29 232 2
29 233 1
29 234 1
29 243 3
29 251 3
30 111 1
30 120 3
30 121 3
30 129 1
30 138 3
30 139 1
30 157 2
30 158 3
30 165 1
30 167 3
30 174 3
30 175 1
30 191 1
30 192 1
30 201 2
30 209 3
30 224 3
30 233 2
30 234 1
30 235 1
30 244 3
30 252 3
31 112 1
31 121 3
31 122 3
31 130 1
31 139 3
31 140 1
31 158 2
31 159 3
31 166 1
31 168 3
31 175 3
31 176 1
31 192 1
31 193 1
31 202 2
31 210 3
31 217 3
31 225 3
31 234 2
31 235 1
31 236 1
31 245 3
32 113 1
32 122 3
32 123 3
32 131 1
32 140 3
32 141 1
32 159 2
32 160 3
32 167 1
32 169 3
32 176 3
32 177 1
32 193 1
32 194 1
32 203 2
32 211 3
32 218 3
32 226 3
32 235 2
32 236 1
32 237 1
32 246 3
33 114 1
33 123 3
33 124 3
33 132 1
33 141 3
33 142 1
33 160 2
33 161 3
33 168 1
33 170 3
33 177 3
33 178 1
33 194 1
33 195 1
33 204 2
33 212 3
33 219 3
33 227 3
33 236 2
33 237 1
33 238 1
33 247 3
34 115 1
34 124 3
34 125 3
34 133 1
34 142 3
34 143 1
34 161 2
34 162 3
34 169 1
34 171 3
34 178 3
34 179 1
34 195 1
34 196 1
34 205 2
34 213 3
34 220 3
34 228 3
34 237 2
34 238 1
34 239 1
34 248 3
35 116 1
35 125 3
35 126 3
35 134 1
35 143 3
35 144 1
35 162 2
35 163 3
35 170 1
35 172 3
35 179 3
35 180 1
35 196 1
35 197 1
35 206 2
35 214 3
35 221 3
35 229 3
35 238 2
35 239 1
35 240 1
35 249 3
36 109 1
36 117 1
36 126 3
36 127 3
36 135 1
36 144 3
36 145 1
36 163 2
36 164 3
36 171 1
36 173 3
36 180 3
36 197 1
36 198 1
36 207 2
36 215 3
36 222 3
36 230 3
36 239 2
36 240 1
36 241 1
36 250 3
37 145 1
37 149 3
37 150 1
37 164 1
37 184 1
37 189 3
37 193 2
37 198 3
37 216 1
37 226 2
37 231 1
37 232 2
37 236 1
37 240 3
37 249 1
37 253 1
37 254 2
37 262 2
37 271 1
37 272 1
37 280 2
38 146 1
38 150 3
38 151 1
38 165 1
38 181 1
38 185 1
38 190 3
38 194 2
38 199 3
38 227 2
38 232 1
38 233 2
38 237 1
38 241 3
38 250 1
38 254 1
38 255 2
38 263 2
38 272 1
38 273 1
38 281 2
39 147 1
39 151 3
39 152 1
39 166 1
39 182 1
39 186 1
39 191 3
39 195 2
39 200 3
39 228 2
39 233 1
39 234 2
39 238 1
39 242 3
39 251 1
39 255 1
39 256 2
39 264 2
39 273 1
39 274 1
39 282 2
40 148 1
40 152 3
40 153 1
40 167 1
40 183 1
40 187 1
40 192 3
40 196 2
40 201 3
40 229 2
40 234 1
40 235 2
40 239 1
40 243 3
40 252 1
40 256 1
40 257 2
40 265 2
40 274 1
40 275 1
40 283 2
41 149 1
41 153 3
41 154 1
41 168 1
41 184 1
41 188 1
41 193 3
41 197 2
41 202 3
41 217 1
41 230 2
41 235 1
41 236 2
41 240 1
41 244 3
41 257 1
41 258 2
41 266 2
41 275 1
41 276 1
41 284 2
42 150 1
42 154 3
42 155 1
42 169 1
42 185 1
42 189 1
42 194 3
42 198 2
42 203 3
42 218 1
42 231 2
42 236 1
42 237 2
42 241 1
42 245 3
42 258 1
42 259 2
42 267 2
42 276 1
42 277 1
42 285 2
43 151 1
43 155 3
43 156 1
43 170 1
43 186 1
43 190 1
43 195 3
43 199 2
43 204 3
43 219 1
43 232 2
43 237 1
43 238 2
43 242 1
43 246 3
43 259 1
43 260 2
43 268 2
43 277 1
43 278 1
43 286 2
44 152 1
44 156 3
44 157 1
44 171 1
44 187 1
44 191 1
44 196 3
44 200 2
44 205 3
44 220 1
44 233 2
44 238 1
44 239 2
44 243 1
44 247 3
44 260 1
44 261 2
44 269 2
44 278 1
44 279 1
44 287 2
45 153 1
45 157 3
45 158 1
45 172 1
45 188 1
45 192 1
45 197 3
45 201 2
45 206 3
45 221 1
45 234 2
45 239 1
45 240 2
45 244 1
45 248 3
45 261 1
45 262 2
45 270 2
45 279 1
45 280 1
45 288 2
46 154 1
46 158 3
46 159 1
46 173 1
46 189 1
46 193 1
46 198 3
46 202 2
46 207 3
46 222 1
46 235 2
46 240 1
46 241 2
46 245 1
46 249 3
46 253 2
46 262 1
46 263 2
46 271 2
46 280 1
46 281 1
47 155 1
47 159 3
47 160 1
47 174 1
47 190 1
47 194 1
47 199 3
47 203 2
47 208 3
47 223 1
47 236 2
47 241 1
47 242 2
47 246 1
47 250 3
47 254 2
47 263 1
47 264 2
47 272 2
47 281 1
47 282 1
48 156 1
48 160 3
48 161 1
48 175 1
48 191 1
48 195 1
48 200 3
48 204 2
48 209 3
48 224 1
48 237 2
48 242 1
48 243 2
48 247 1
48 251 3
48 255 2
48 264 1
48 265 2
48 273 2
48 282 1
48 283 1
49 157 1
49 161 3
49 162 1
49 176 1
49 192 1
49 196 1
49 201 3
49 205 2
49 210 3
49 225 1
49 238 2
49 243 1
49 244 2
49 248 1
49 252 3
49 256 2
49 265 1
49 266 2
49 274 2
49 283 1
49 284 1
50 158 1
50 162 3
50 163 1
50 177 1
50 193 1
50 197 1
50 202 3
50 206 2
50 211 3
50 217 3
50 226 1
50 239 2
50 244 1
50 245 2
50 249 1
50 257 2
50 266 1
50 267 2
50 275 2
50 284 1
50 285 1
51 159 1
51 163 3
51 164 1
51 178 1
51 194 1
51 198 1
51 203 3
51 207 2
51 212 3
51 218 3
51 227 1
51 240 2
51 245 1
51 246 2
51 250 1
51 258 2
51 267 1
51 268 2
51 276 2
51 285 1
51 286 1
52 160 1
52 164 3
52 165 1
52 179 1
52 195 1
52 199 1
52 204 3
52 208 2
52 213 3
52 219 3
52 228 1
52 241 2
52 246 1
52 247 2
52 251 1
52 259 2
52 268 1
52 269 2
52 277 2
52 286 1
52 287 1
53 161 1
53 165 3
53 166 1
53 180 1
53 196 1
53 200 1
53 205 3
53 209 2
53 214 3
53 220 3
53 229 1
53 242 2
53 247 1
53 248 2
53 252 1
53 260 2
53 269 1
53 270 2
53 278 2
53 287 1
53 288 1
54 145 1
54 162 1
54 166 3
54 167 1
54 197 1
54 201 1
54 206 3
54 210 2
54 215 3
54 217 1
54 221 3
54 230 1
54 243 2
54 248 1
54 249 2
54 253 1
54 261 2
54 270 1
54 271 2
54 279 2
54 288 1
55 146 1
55 163 1
55 167 3
55 168 1
55 198 1
55 202 1
55 207 3
55 211 2
55 216 3
55 218 1
55 222 3
55 231 1
55 244 2
55 249 1
55 250 2
55 253 1
55 254 1
55 262 2
55 271 1
55 272 2
55 280 2
56 147 1
56 164 1
56 168 3
56 169 1
56 181 3
56 199 1
56 203 1
56 208 3
56 212 2
56 219 1
56 223 3
56 232 1
56 245 2
56 250 1
56 251 2
56 254 1
56 255 1
56 263 2
56 272 1
56 273 2
56 281 2
57 148 1
57 165 1
57 169 3
57 170 1
57 182 3
57 200 1
57 204 1
57 209 3
57 213 2
57 220 1
57 224 3
57 233 1
57 246 2
57 251 1
57 252 2
57 255 1
57 256 1
57 264 2
57 273 1
57 274 2
57 282 2
58 149 1
58 166 1
58 170 3
58 171 1
58 183 3
58 201 1
58 205 1
58 210 3
58 214 2
58 217 2
58 221 1
58 225 3
58 234 1
58 247 2
58 252 1
58 256 1
58 257 1
58 265 2
58 274 1
58 275 2
58 283 2
59 150 1
59 167 1
59 171 3
59 172 1
59 184 3
59 202 1
59 206 1
59 211 3
59 215 2
59 217 1
59 218 2
59 222 1
59 226 3
59 235 1
59 248 2
59 257 1
59 258 1
59 266 2
59 275 1
59 276 2
59 284 2
60 151 1
60 168 1
60 172 3
60 173 1
60 185 3
60 203 1
60 207 1
60 212 3
60 216 2
60 218 1
60 219 2
60 223 1
60 227 3
60 236 1
60 249 2
60 258 1
60 259 1
60 267 2
60 276 1
60 277 2
60 285 2
61 152 1
61 169 1
61 173 3
61 174 1
61 181 2
61 186 3
61 204 1
61 208 1
61 213 3
61 219 1
61 220 2
61 224 1
61 228 3
61 237 1
61 250 2
61 259 1
61 260 1
61 268 2
61 277 1
61 278 2
61 286 2
62 153 1
62 170 1
62 174 3
62 175 1
62 182 2
62 187 3
62 205 1
62 209 1
62 214 3
62 220 1
62 221 2
62 225 1
62 229 3
62 238 1
62 251 2
62 260 1
62 261 1
62 269 2
62 278 1
62 279 2
62 287 2
63 154 1
63 171 1
63 175 3
63 176 1
63 183 2
63 188 3
63 206 1
63 210 1
63 215 3
63 221 1
63 222 2
63 226 1
63 230 3
63 239 1
63 252 2
63 261 1
63 262 1
63 270 2
63 279 1
63 280 2
63 288 2
64 155 1
64 172 1
64 176 3
64 177 1
64 184 2
64 189 3
64 207 1
64 211 1
64 216 3
64 217 2
64 222 1
64 223 2
64 227 1
64 231 3
64 240 1
64 253 2
64 262 1
64 263 1
64 271 2
64 280 1
64 281 2
65 156 1
65 173 1
65 177 3
65 178 1
65 181 3
65 185 2
65 190 3
65 208 1
65 212 1
65 218 2
65 223 1
65 224 2
65 228 1
65 232 3
65 241 1
65 254 2
65 263 1
65 264 1
65 272 2
65 281 1
65 282 2
66 157 1
66 174 1
66 178 3
66 179 1
66 182 3
66 186 2
66 191 3
66 209 1
66 213 1
66 219 2
66 224 1
66 225 2
66 229 1
66 233 3
66 242 1
66 255 2
66 264 1
66 265 1
66 273 2
66 282 1
66 283 2
67 158 1
67 175 1
67 179 3
67 180 1
67 183 3
67 187 2
67 192 3
67 210 1
67 214 1
67 220 2
67 225 1
67 226 2
67 230 1
67 234 3
67 243 1
67 256 2
67 265 1
67 266 1
67 274 2
67 283 1
67 284 2
68 145 1
68 159 1
68 176 1
68 180 3
68 184 3
68 188 2
68 193 3
68 211 1
68 215 1
68 221 2
68 226 1
68 227 2
68 231 1
68 235 3
68 244 1
68 257 2
68 266 1
68 267 1
68 275 2
68 284 1
68 285 2
69 145 3
69 146 1
69 160 1
69 177 1
69 185 3
69 189 2
69 194 3
69 212 1
69 216 1
69 222 2
69 227 1
69 228 2
69 232 1
69 236 3
69 245 1
69 258 2
69 267 1
69 268 1
69 276 2
69 285 1
69 286 2
70 146 3
70 147 1
70 161 1
70 178 1
70 181 1
70 186 3
70 190 2
70 195 3
70 213 1
70 223 2
70 228 1
70 229 2
70 233 1
70 237 3
70 246 1
70 259 2
70 268 1
70 269 1
70 277 2
70 286 1
70 287 2
71 147 3
71 148 1
71 162 1
71 179 1
71 182 1
71 187 3
71 191 2
71 196 3
71 214 1
71 224 2
71 229 1
71 230 2
71 234 1
71 238 3
71 247 1
71 260 2
71 269 1
71 270 1
71 278 2
71 287 1
71 288 2
72 148 3
72 149 1
72 163 1
72 180 1
72 183 1
72 188 3
72 192 2
72 197 3
72 215 1
72 225 2
72 230 1
72 231 2
72 235 1
72 239 3
72 248 1
72 253 2
72 261 2
72 270 1
72 271 1
72 279 2
72 288 1
