%%MatrixMarket matrix coordinate integer general
% Binary matrix over GF(2).
% Coordinate indices are 1-based; omitted entries are zero.
144 576 3924
1 5 1
1 6 1
1 13 1
1 22 1
1 23 1
1 34 1
1 59 1
1 75 1
1 76 1
1 86 1
1 93 1
1 94 1
1 103 1
1 111 1
1 147 1
1 175 1
1 177 1
1 178 1
1 185 1
1 220 1
1 221 1
1 240 1
1 255 1
1 257 1
1 276 1
2 7 1
2 8 1
2 15 1
2 24 1
2 25 1
2 36 1
2 61 1
2 77 1
2 78 1
2 88 1
2 95 1
2 96 1
2 105 1
2 113 1
2 149 1
2 177 1
2 179 1
2 180 1
2 187 1
2 222 1
2 223 1
2 242 1
2 257 1
2 259 1
2 278 1
3 9 1
3 10 1
3 17 1
3 26 1
3 27 1
3 38 1
3 63 1
3 79 1
3 80 1
3 90 1
3 97 1
3 98 1
3 107 1
3 115 1
3 151 1
3 179 1
3 181 1
3 182 1
3 189 1
3 224 1
3 225 1
3 244 1
3 259 1
3 261 1
3 280 1
4 11 1
4 12 1
4 19 1
4 28 1
4 29 1
4 40 1
4 65 1
4 81 1
4 82 1
4 92 1
4 99 1
4 100 1
4 109 1
4 117 1
4 153 1
4 181 1
4 183 1
4 184 1
4 191 1
4 226 1
4 227 1
4 246 1
4 261 1
4 263 1
4 282 1
5 13 1
5 14 1
5 21 1
5 30 1
5 31 1
5 42 1
5 67 1
5 83 1
5 84 1
5 94 1
5 101 1
5 102 1
5 111 1
5 119 1
5 155 1
5 183 1
5 185 1
5 186 1
5 193 1
5 228 1
5 229 1
5 248 1
5 263 1
5 265 1
5 284 1
6 15 1
6 16 1
6 23 1
6 32 1
6 33 1
6 44 1
6 69 1
6 85 1
6 86 1
6 96 1
6 103 1
6 104 1
6 113 1
6 121 1
6 157 1
6 185 1
6 187 1
6 188 1
6 195 1
6 230 1
6 231 1
6 250 1
6 265 1
6 267 1
6 286 1
7 17 1
7 18 1
7 25 1
7 34 1
7 35 1
7 46 1
7 71 1
7 87 1
7 88 1
7 98 1
7 105 1
7 106 1
7 115 1
7 123 1
7 159 1
7 187 1
7 189 1
7 190 1
7 197 1
7 232 1
7 233 1
7 252 1
7 267 1
7 269 1
7 288 1
8 1 1
8 19 1
8 20 1
8 27 1
8 36 1
8 37 1
8 48 1
8 89 1
8 90 1
8 100 1
8 107 1
8 108 1
8 117 1
8 125 1
8 161 1
8 189 1
8 191 1
8 192 1
8 199 1
8 218 1
8 234 1
8 235 1
8 254 1
8 269 1
8 271 1
9 3 1
9 21 1
9 22 1
9 29 1
9 38 1
9 39 1
9 50 1
9 91 1
9 92 1
9 102 1
9 109 1
9 110 1
9 119 1
9 127 1
9 163 1
9 191 1
9 193 1
9 194 1
9 201 1
9 220 1
9 236 1
9 237 1
9 256 1
9 271 1
9 273 1
10 5 1
10 23 1
10 24 1
10 31 1
10 40 1
10 41 1
10 52 1
10 93 1
10 94 1
10 104 1
10 111 1
10 112 1
10 121 1
10 129 1
10 165 1
10 193 1
10 195 1
10 196 1
10 203 1
10 222 1
10 238 1
10 239 1
10 258 1
10 273 1
10 275 1
11 7 1
11 25 1
11 26 1
11 33 1
11 42 1
11 43 1
11 54 1
11 95 1
11 96 1
11 106 1
11 113 1
11 114 1
11 123 1
11 131 1
11 167 1
11 195 1
11 197 1
11 198 1
11 205 1
11 224 1
11 240 1
11 241 1
11 260 1
11 275 1
11 277 1
12 9 1
12 27 1
12 28 1
12 35 1
12 44 1
12 45 1
12 56 1
12 97 1
12 98 1
12 108 1
12 115 1
12 116 1
12 125 1
12 133 1
12 169 1
12 197 1
12 199 1
12 200 1
12 207 1
12 226 1
12 242 1
12 243 1
12 262 1
12 277 1
12 279 1
13 11 1
13 29 1
13 30 1
13 37 1
13 46 1
13 47 1
13 58 1
13 99 1
13 100 1
13 110 1
13 117 1
13 118 1
13 127 1
13 135 1
13 171 1
13 199 1
13 201 1
13 202 1
13 209 1
13 228 1
13 244 1
13 245 1
13 264 1
13 279 1
13 281 1
14 13 1
14 31 1
14 32 1
14 39 1
14 48 1
14 49 1
14 60 1
14 101 1
14 102 1
14 112 1
14 119 1
14 120 1
14 129 1
14 137 1
14 173 1
14 201 1
14 203 1
14 204 1
14 211 1
14 230 1
14 246 1
14 247 1
14 266 1
14 281 1
14 283 1
15 15 1
15 33 1
15 34 1
15 41 1
15 50 1
15 51 1
15 62 1
15 103 1
15 104 1
15 114 1
15 121 1
15 122 1
15 131 1
15 139 1
15 175 1
15 203 1
15 205 1
15 206 1
15 213 1
15 232 1
15 248 1
15 249 1
15 268 1
15 283 1
15 285 1
16 17 1
16 35 1
16 36 1
16 43 1
16 52 1
16 53 1
16 64 1
16 105 1
16 106 1
16 116 1
16 123 1
16 124 1
16 133 1
16 141 1
16 177 1
16 205 1
16 207 1
16 208 1
16 215 1
16 234 1
16 250 1
16 251 1
16 270 1
16 285 1
16 287 1
17 19 1
17 37 1
17 38 1
17 45 1
17 54 1
17 55 1
17 66 1
17 107 1
17 108 1
17 118 1
17 125 1
17 126 1
17 135 1
17 143 1
17 145 1
17 179 1
17 207 1
17 209 1
17 210 1
17 217 1
17 236 1
17 252 1
17 253 1
17 272 1
17 287 1
18 21 1
18 39 1
18 40 1
18 47 1
18 56 1
18 57 1
18 68 1
18 73 1
18 109 1
18 110 1
18 120 1
18 127 1
18 128 1
18 137 1
18 147 1
18 181 1
18 209 1
18 211 1
18 212 1
18 217 1
18 219 1
18 238 1
18 254 1
18 255 1
18 274 1
19 23 1
19 41 1
19 42 1
19 49 1
19 58 1
19 59 1
19 70 1
19 75 1
19 111 1
19 112 1
19 122 1
19 129 1
19 130 1
19 139 1
19 149 1
19 183 1
19 211 1
19 213 1
19 214 1
19 219 1
19 221 1
19 240 1
19 256 1
19 257 1
19 276 1
20 25 1
20 43 1
20 44 1
20 51 1
20 60 1
20 61 1
20 72 1
20 77 1
20 113 1
20 114 1
20 124 1
20 131 1
20 132 1
20 141 1
20 151 1
20 185 1
20 213 1
20 215 1
20 216 1
20 221 1
20 223 1
20 242 1
20 258 1
20 259 1
20 278 1
21 2 1
21 27 1
21 45 1
21 46 1
21 53 1
21 62 1
21 63 1
21 79 1
21 115 1
21 116 1
21 126 1
21 133 1
21 134 1
21 143 1
21 145 1
21 146 1
21 153 1
21 187 1
21 215 1
21 223 1
21 225 1
21 244 1
21 260 1
21 261 1
21 280 1
22 4 1
22 29 1
22 47 1
22 48 1
22 55 1
22 64 1
22 65 1
22 73 1
22 81 1
22 117 1
22 118 1
22 128 1
22 135 1
22 136 1
22 145 1
22 147 1
22 148 1
22 155 1
22 189 1
22 225 1
22 227 1
22 246 1
22 262 1
22 263 1
22 282 1
23 6 1
23 31 1
23 49 1
23 50 1
23 57 1
23 66 1
23 67 1
23 75 1
23 83 1
23 119 1
23 120 1
23 130 1
23 137 1
23 138 1
23 147 1
23 149 1
23 150 1
23 157 1
23 191 1
23 227 1
23 229 1
23 248 1
23 264 1
23 265 1
23 284 1
24 8 1
24 33 1
24 51 1
24 52 1
24 59 1
24 68 1
24 69 1
24 77 1
24 85 1
24 121 1
24 122 1
24 132 1
24 139 1
24 140 1
24 149 1
24 151 1
24 152 1
24 159 1
24 193 1
24 229 1
24 231 1
24 250 1
24 266 1
24 267 1
24 286 1
25 10 1
25 35 1
25 53 1
25 54 1
25 61 1
25 70 1
25 71 1
25 79 1
25 87 1
25 123 1
25 124 1
25 134 1
25 141 1
25 142 1
25 151 1
25 153 1
25 154 1
25 161 1
25 195 1
25 231 1
25 233 1
25 252 1
25 268 1
25 269 1
25 288 1
26 1 1
26 12 1
26 37 1
26 55 1
26 56 1
26 63 1
26 72 1
26 81 1
26 89 1
26 125 1
26 126 1
26 136 1
26 143 1
26 144 1
26 153 1
26 155 1
26 156 1
26 163 1
26 197 1
26 218 1
26 233 1
26 235 1
26 254 1
26 270 1
26 271 1
27 2 1
27 3 1
27 14 1
27 39 1
27 57 1
27 58 1
27 65 1
27 73 1
27 74 1
27 83 1
27 91 1
27 127 1
27 128 1
27 138 1
27 155 1
27 157 1
27 158 1
27 165 1
27 199 1
27 220 1
27 235 1
27 237 1
27 256 1
27 272 1
27 273 1
28 4 1
28 5 1
28 16 1
28 41 1
28 59 1
28 60 1
28 67 1
28 75 1
28 76 1
28 85 1
28 93 1
28 129 1
28 130 1
28 140 1
28 157 1
28 159 1
28 160 1
28 167 1
28 201 1
28 222 1
28 237 1
28 239 1
28 258 1
28 274 1
28 275 1
29 6 1
29 7 1
29 18 1
29 43 1
29 61 1
29 62 1
29 69 1
29 77 1
29 78 1
29 87 1
29 95 1
29 131 1
29 132 1
29 142 1
29 159 1
29 161 1
29 162 1
29 169 1
29 203 1
29 224 1
29 239 1
29 241 1
29 260 1
29 276 1
29 277 1
30 8 1
30 9 1
30 20 1
30 45 1
30 63 1
30 64 1
30 71 1
30 79 1
30 80 1
30 89 1
30 97 1
30 133 1
30 134 1
30 144 1
30 161 1
30 163 1
30 164 1
30 171 1
30 205 1
30 226 1
30 241 1
30 243 1
30 262 1
30 278 1
30 279 1
31 1 1
31 10 1
31 11 1
31 22 1
31 47 1
31 65 1
31 66 1
31 74 1
31 81 1
31 82 1
31 91 1
31 99 1
31 135 1
31 136 1
31 163 1
31 165 1
31 166 1
31 173 1
31 207 1
31 228 1
31 243 1
31 245 1
31 264 1
31 280 1
31 281 1
32 3 1
32 12 1
32 13 1
32 24 1
32 49 1
32 67 1
32 68 1
32 76 1
32 83 1
32 84 1
32 93 1
32 101 1
32 137 1
32 138 1
32 165 1
32 167 1
32 168 1
32 175 1
32 209 1
32 230 1
32 245 1
32 247 1
32 266 1
32 282 1
32 283 1
33 5 1
33 14 1
33 15 1
33 26 1
33 51 1
33 69 1
33 70 1
33 78 1
33 85 1
33 86 1
33 95 1
33 103 1
33 139 1
33 140 1
33 167 1
33 169 1
33 170 1
33 177 1
33 211 1
33 232 1
33 247 1
33 249 1
33 268 1
33 284 1
33 285 1
34 7 1
34 16 1
34 17 1
34 28 1
34 53 1
34 71 1
34 72 1
34 80 1
34 87 1
34 88 1
34 97 1
34 105 1
34 141 1
34 142 1
34 169 1
34 171 1
34 172 1
34 179 1
34 213 1
34 234 1
34 249 1
34 251 1
34 270 1
34 286 1
34 287 1
35 1 1
35 2 1
35 9 1
35 18 1
35 19 1
35 30 1
35 55 1
35 82 1
35 89 1
35 90 1
35 99 1
35 107 1
35 143 1
35 144 1
35 171 1
35 173 1
35 174 1
35 181 1
35 215 1
35 217 1
35 236 1
35 251 1
35 253 1
35 272 1
35 288 1
36 3 1
36 4 1
36 11 1
36 20 1
36 21 1
36 32 1
36 57 1
36 73 1
36 74 1
36 84 1
36 91 1
36 92 1
36 101 1
36 109 1
36 145 1
36 173 1
36 175 1
36 176 1
36 183 1
36 218 1
36 219 1
36 238 1
36 253 1
36 255 1
36 274 1
37 5 1
37 14 1
37 21 1
37 22 1
37 24 1
37 33 1
37 34 1
37 60 1
37 75 1
37 85 1
37 86 1
37 93 1
37 104 1
37 112 1
37 148 1
37 176 1
37 177 1
37 186 1
37 219 1
37 220 1
37 222 1
37 239 1
37 240 1
37 256 1
37 258 1
37 275 1
37 276 1
38 7 1
38 16 1
38 23 1
38 24 1
38 26 1
38 35 1
38 36 1
38 62 1
38 77 1
38 87 1
38 88 1
38 95 1
38 106 1
38 114 1
38 150 1
38 178 1
38 179 1
38 188 1
38 221 1
38 222 1
38 224 1
38 241 1
38 242 1
38 258 1
38 260 1
38 277 1
38 278 1
39 9 1
39 18 1
39 25 1
39 26 1
39 28 1
39 37 1
39 38 1
39 64 1
39 79 1
39 89 1
39 90 1
39 97 1
39 108 1
39 116 1
39 152 1
39 180 1
39 181 1
39 190 1
39 223 1
39 224 1
39 226 1
39 243 1
39 244 1
39 260 1
39 262 1
39 279 1
39 280 1
40 11 1
40 20 1
40 27 1
40 28 1
40 30 1
40 39 1
40 40 1
40 66 1
40 81 1
40 91 1
40 92 1
40 99 1
40 110 1
40 118 1
40 154 1
40 182 1
40 183 1
40 192 1
40 225 1
40 226 1
40 228 1
40 245 1
40 246 1
40 262 1
40 264 1
40 281 1
40 282 1
41 13 1
41 22 1
41 29 1
41 30 1
41 32 1
41 41 1
41 42 1
41 68 1
41 83 1
41 93 1
41 94 1
41 101 1
41 112 1
41 120 1
41 156 1
41 184 1
41 185 1
41 194 1
41 227 1
41 228 1
41 230 1
41 247 1
41 248 1
41 264 1
41 266 1
41 283 1
41 284 1
42 15 1
42 24 1
42 31 1
42 32 1
42 34 1
42 43 1
42 44 1
42 70 1
42 85 1
42 95 1
42 96 1
42 103 1
42 114 1
42 122 1
42 158 1
42 186 1
42 187 1
42 196 1
42 229 1
42 230 1
42 232 1
42 249 1
42 250 1
42 266 1
42 268 1
42 285 1
42 286 1
43 17 1
43 26 1
43 33 1
43 34 1
43 36 1
43 45 1
43 46 1
43 72 1
43 87 1
43 97 1
43 98 1
43 105 1
43 116 1
43 124 1
43 160 1
43 188 1
43 189 1
43 198 1
43 231 1
43 232 1
43 234 1
43 251 1
43 252 1
43 268 1
43 270 1
43 287 1
43 288 1
44 2 1
44 19 1
44 28 1
44 35 1
44 36 1
44 38 1
44 47 1
44 48 1
44 89 1
44 99 1
44 100 1
44 107 1
44 118 1
44 126 1
44 162 1
44 190 1
44 191 1
44 200 1
44 217 1
44 218 1
44 233 1
44 234 1
44 236 1
44 253 1
44 254 1
44 270 1
44 272 1
45 4 1
45 21 1
45 30 1
45 37 1
45 38 1
45 40 1
45 49 1
45 50 1
45 91 1
45 101 1
45 102 1
45 109 1
45 120 1
45 128 1
45 164 1
45 192 1
45 193 1
45 202 1
45 219 1
45 220 1
45 235 1
45 236 1
45 238 1
45 255 1
45 256 1
45 272 1
45 274 1
46 6 1
46 23 1
46 32 1
46 39 1
46 40 1
46 42 1
46 51 1
46 52 1
46 93 1
46 103 1
46 104 1
46 111 1
46 122 1
46 130 1
46 166 1
46 194 1
46 195 1
46 204 1
46 221 1
46 222 1
46 237 1
46 238 1
46 240 1
46 257 1
46 258 1
46 274 1
46 276 1
47 8 1
47 25 1
47 34 1
47 41 1
47 42 1
47 44 1
47 53 1
47 54 1
47 95 1
47 105 1
47 106 1
47 113 1
47 124 1
47 132 1
47 168 1
47 196 1
47 197 1
47 206 1
47 223 1
47 224 1
47 239 1
47 240 1
47 242 1
47 259 1
47 260 1
47 276 1
47 278 1
48 10 1
48 27 1
48 36 1
48 43 1
48 44 1
48 46 1
48 55 1
48 56 1
48 97 1
48 107 1
48 108 1
48 115 1
48 126 1
48 134 1
48 170 1
48 198 1
48 199 1
48 208 1
48 225 1
48 226 1
48 241 1
48 242 1
48 244 1
48 261 1
48 262 1
48 278 1
48 280 1
49 12 1
49 29 1
49 38 1
49 45 1
49 46 1
49 48 1
49 57 1
49 58 1
49 99 1
49 109 1
49 110 1
49 117 1
49 128 1
49 136 1
49 172 1
49 200 1
49 201 1
49 210 1
49 227 1
49 228 1
49 243 1
49 244 1
49 246 1
49 263 1
49 264 1
49 280 1
49 282 1
50 14 1
50 31 1
50 40 1
50 47 1
50 48 1
50 50 1
50 59 1
50 60 1
50 101 1
50 111 1
50 112 1
50 119 1
50 130 1
50 138 1
50 174 1
50 202 1
50 203 1
50 212 1
50 229 1
50 230 1
50 245 1
50 246 1
50 248 1
50 265 1
50 266 1
50 282 1
50 284 1
51 16 1
51 33 1
51 42 1
51 49 1
51 50 1
51 52 1
51 61 1
51 62 1
51 103 1
51 113 1
51 114 1
51 121 1
51 132 1
51 140 1
51 176 1
51 204 1
51 205 1
51 214 1
51 231 1
51 232 1
51 247 1
51 248 1
51 250 1
51 267 1
51 268 1
51 284 1
51 286 1
52 18 1
52 35 1
52 44 1
52 51 1
52 52 1
52 54 1
52 63 1
52 64 1
52 105 1
52 115 1
52 116 1
52 123 1
52 134 1
52 142 1
52 178 1
52 206 1
52 207 1
52 216 1
52 233 1
52 234 1
52 249 1
52 250 1
52 252 1
52 269 1
52 270 1
52 286 1
52 288 1
53 20 1
53 37 1
53 46 1
53 53 1
53 54 1
53 56 1
53 65 1
53 66 1
53 107 1
53 117 1
53 118 1
53 125 1
53 136 1
53 144 1
53 146 1
53 180 1
53 208 1
53 209 1
53 218 1
53 235 1
53 236 1
53 251 1
53 252 1
53 254 1
53 271 1
53 272 1
53 288 1
54 22 1
54 39 1
54 48 1
54 55 1
54 56 1
54 58 1
54 67 1
54 68 1
54 74 1
54 109 1
54 119 1
54 120 1
54 127 1
54 138 1
54 148 1
54 182 1
54 210 1
54 211 1
54 218 1
54 220 1
54 237 1
54 238 1
54 253 1
54 254 1
54 256 1
54 273 1
54 274 1
55 24 1
55 41 1
55 50 1
55 57 1
55 58 1
55 60 1
55 69 1
55 70 1
55 76 1
55 111 1
55 121 1
55 122 1
55 129 1
55 140 1
55 150 1
55 184 1
55 212 1
55 213 1
55 220 1
55 222 1
55 239 1
55 240 1
55 255 1
55 256 1
55 258 1
55 275 1
55 276 1
56 26 1
56 43 1
56 52 1
56 59 1
56 60 1
56 62 1
56 71 1
56 72 1
56 78 1
56 113 1
56 123 1
56 124 1
56 131 1
56 142 1
56 152 1
56 186 1
56 214 1
56 215 1
56 222 1
56 224 1
56 241 1
56 242 1
56 257 1
56 258 1
56 260 1
56 277 1
56 278 1
57 1 1
57 2 1
57 28 1
57 45 1
57 54 1
57 61 1
57 62 1
57 64 1
57 80 1
57 115 1
57 125 1
57 126 1
57 133 1
57 144 1
57 145 1
57 154 1
57 188 1
57 216 1
57 224 1
57 226 1
57 243 1
57 244 1
57 259 1
57 260 1
57 262 1
57 279 1
57 280 1
58 3 1
58 4 1
58 30 1
58 47 1
58 56 1
58 63 1
58 64 1
58 66 1
58 74 1
58 82 1
58 117 1
58 127 1
58 128 1
58 135 1
58 146 1
58 147 1
58 156 1
58 190 1
58 226 1
58 228 1
58 245 1
58 246 1
58 261 1
58 262 1
58 264 1
58 281 1
58 282 1
59 5 1
59 6 1
59 32 1
59 49 1
59 58 1
59 65 1
59 66 1
59 68 1
59 76 1
59 84 1
59 119 1
59 129 1
59 130 1
59 137 1
59 148 1
59 149 1
59 158 1
59 192 1
59 228 1
59 230 1
59 247 1
59 248 1
59 263 1
59 264 1
59 266 1
59 283 1
59 284 1
60 7 1
60 8 1
60 34 1
60 51 1
60 60 1
60 67 1
60 68 1
60 70 1
60 78 1
60 86 1
60 121 1
60 131 1
60 132 1
60 139 1
60 150 1
60 151 1
60 160 1
60 194 1
60 230 1
60 232 1
60 249 1
60 250 1
60 265 1
60 266 1
60 268 1
60 285 1
60 286 1
61 9 1
61 10 1
61 36 1
61 53 1
61 62 1
61 69 1
61 70 1
61 72 1
61 80 1
61 88 1
61 123 1
61 133 1
61 134 1
61 141 1
61 152 1
61 153 1
61 162 1
61 196 1
61 232 1
61 234 1
61 251 1
61 252 1
61 267 1
61 268 1
61 270 1
61 287 1
61 288 1
62 2 1
62 11 1
62 12 1
62 38 1
62 55 1
62 64 1
62 71 1
62 72 1
62 82 1
62 90 1
62 125 1
62 135 1
62 136 1
62 143 1
62 154 1
62 155 1
62 164 1
62 198 1
62 217 1
62 218 1
62 234 1
62 236 1
62 253 1
62 254 1
62 269 1
62 270 1
62 272 1
63 1 1
63 2 1
63 4 1
63 13 1
63 14 1
63 40 1
63 57 1
63 66 1
63 73 1
63 84 1
63 92 1
63 127 1
63 137 1
63 138 1
63 156 1
63 157 1
63 166 1
63 200 1
63 219 1
63 220 1
63 236 1
63 238 1
63 255 1
63 256 1
63 271 1
63 272 1
63 274 1
64 3 1
64 4 1
64 6 1
64 15 1
64 16 1
64 42 1
64 59 1
64 68 1
64 75 1
64 86 1
64 94 1
64 129 1
64 139 1
64 140 1
64 158 1
64 159 1
64 168 1
64 202 1
64 221 1
64 222 1
64 238 1
64 240 1
64 257 1
64 258 1
64 273 1
64 274 1
64 276 1
65 5 1
65 6 1
65 8 1
65 17 1
65 18 1
65 44 1
65 61 1
65 70 1
65 77 1
65 88 1
65 96 1
65 131 1
65 141 1
65 142 1
65 160 1
65 161 1
65 170 1
65 204 1
65 223 1
65 224 1
65 240 1
65 242 1
65 259 1
65 260 1
65 275 1
65 276 1
65 278 1
66 7 1
66 8 1
66 10 1
66 19 1
66 20 1
66 46 1
66 63 1
66 72 1
66 79 1
66 90 1
66 98 1
66 133 1
66 143 1
66 144 1
66 162 1
66 163 1
66 172 1
66 206 1
66 225 1
66 226 1
66 242 1
66 244 1
66 261 1
66 262 1
66 277 1
66 278 1
66 280 1
67 2 1
67 9 1
67 10 1
67 12 1
67 21 1
67 22 1
67 48 1
67 65 1
67 73 1
67 74 1
67 81 1
67 92 1
67 100 1
67 135 1
67 164 1
67 165 1
67 174 1
67 208 1
67 227 1
67 228 1
67 244 1
67 246 1
67 263 1
67 264 1
67 279 1
67 280 1
67 282 1
68 4 1
68 11 1
68 12 1
68 14 1
68 23 1
68 24 1
68 50 1
68 67 1
68 75 1
68 76 1
68 83 1
68 94 1
68 102 1
68 137 1
68 166 1
68 167 1
68 176 1
68 210 1
68 229 1
68 230 1
68 246 1
68 248 1
68 265 1
68 266 1
68 281 1
68 282 1
68 284 1
69 6 1
69 13 1
69 14 1
69 16 1
69 25 1
69 26 1
69 52 1
69 69 1
69 77 1
69 78 1
69 85 1
69 96 1
69 104 1
69 139 1
69 168 1
69 169 1
69 178 1
69 212 1
69 231 1
69 232 1
69 248 1
69 250 1
69 267 1
69 268 1
69 283 1
69 284 1
69 286 1
70 8 1
70 15 1
70 16 1
70 18 1
70 27 1
70 28 1
70 54 1
70 71 1
70 79 1
70 80 1
70 87 1
70 98 1
70 106 1
70 141 1
70 170 1
70 171 1
70 180 1
70 214 1
70 233 1
70 234 1
70 250 1
70 252 1
70 269 1
70 270 1
70 285 1
70 286 1
70 288 1
71 1 1
71 10 1
71 17 1
71 18 1
71 20 1
71 29 1
71 30 1
71 56 1
71 81 1
71 82 1
71 89 1
71 100 1
71 108 1
71 143 1
71 172 1
71 173 1
71 182 1
71 216 1
71 218 1
71 235 1
71 236 1
71 252 1
71 254 1
71 271 1
71 272 1
71 287 1
71 288 1
72 3 1
72 12 1
72 19 1
72 20 1
72 22 1
72 31 1
72 32 1
72 58 1
72 73 1
72 83 1
72 84 1
72 91 1
72 102 1
72 110 1
72 146 1
72 174 1
72 175 1
72 184 1
72 217 1
72 218 1
72 220 1
72 237 1
72 238 1
72 254 1
72 256 1
72 273 1
72 274 1
73 1 1
73 3 1
73 6 1
73 23 1
73 24 1
73 39 1
73 40 1
73 55 1
73 56 1
73 73 1
73 75 1
73 111 1
73 112 1
73 128 1
73 145 1
73 146 1
73 148 1
73 183 1
73 185 1
73 186 1
73 199 1
73 200 1
73 203 1
73 507 1
73 509 1
73 510 1
73 527 1
73 543 1
73 544 1
73 545 1
73 546 1
73 563 1
74 3 1
74 5 1
74 8 1
74 25 1
74 26 1
74 41 1
74 42 1
74 57 1
74 58 1
74 75 1
74 77 1
74 113 1
74 114 1
74 130 1
74 147 1
74 148 1
74 150 1
74 185 1
74 187 1
74 188 1
74 201 1
74 202 1
74 205 1
74 509 1
74 511 1
74 512 1
74 529 1
74 545 1
74 546 1
74 547 1
74 548 1
74 565 1
75 5 1
75 7 1
75 10 1
75 27 1
75 28 1
75 43 1
75 44 1
75 59 1
75 60 1
75 77 1
75 79 1
75 115 1
75 116 1
75 132 1
75 149 1
75 150 1
75 152 1
75 187 1
75 189 1
75 190 1
75 203 1
75 204 1
75 207 1
75 511 1
75 513 1
75 514 1
75 531 1
75 547 1
75 548 1
75 549 1
75 550 1
75 567 1
76 7 1
76 9 1
76 12 1
76 29 1
76 30 1
76 45 1
76 46 1
76 61 1
76 62 1
76 79 1
76 81 1
76 117 1
76 118 1
76 134 1
76 151 1
76 152 1
76 154 1
76 189 1
76 191 1
76 192 1
76 205 1
76 206 1
76 209 1
76 513 1
76 515 1
76 516 1
76 533 1
76 549 1
76 550 1
76 551 1
76 552 1
76 569 1
77 9 1
77 11 1
77 14 1
77 31 1
77 32 1
77 47 1
77 48 1
77 63 1
77 64 1
77 81 1
77 83 1
77 119 1
77 120 1
77 136 1
77 153 1
77 154 1
77 156 1
77 191 1
77 193 1
77 194 1
77 207 1
77 208 1
77 211 1
77 515 1
77 517 1
77 518 1
77 535 1
77 551 1
77 552 1
77 553 1
77 554 1
77 571 1
78 11 1
78 13 1
78 16 1
78 33 1
78 34 1
78 49 1
78 50 1
78 65 1
78 66 1
78 83 1
78 85 1
78 121 1
78 122 1
78 138 1
78 155 1
78 156 1
78 158 1
78 193 1
78 195 1
78 196 1
78 209 1
78 210 1
78 213 1
78 517 1
78 519 1
78 520 1
78 537 1
78 553 1
78 554 1
78 555 1
78 556 1
78 573 1
79 13 1
79 15 1
79 18 1
79 35 1
79 36 1
79 51 1
79 52 1
79 67 1
79 68 1
79 85 1
79 87 1
79 123 1
79 124 1
79 140 1
79 157 1
79 158 1
79 160 1
79 195 1
79 197 1
79 198 1
79 211 1
79 212 1
79 215 1
79 519 1
79 521 1
79 522 1
79 539 1
79 555 1
79 556 1
79 557 1
79 558 1
79 575 1
80 15 1
80 17 1
80 20 1
80 37 1
80 38 1
80 53 1
80 54 1
80 69 1
80 70 1
80 87 1
80 89 1
80 125 1
80 126 1
80 142 1
80 145 1
80 159 1
80 160 1
80 162 1
80 197 1
80 199 1
80 200 1
80 213 1
80 214 1
80 505 1
80 521 1
80 523 1
80 524 1
80 541 1
80 557 1
80 558 1
80 559 1
80 560 1
81 17 1
81 19 1
81 22 1
81 39 1
81 40 1
81 55 1
81 56 1
81 71 1
81 72 1
81 89 1
81 91 1
81 127 1
81 128 1
81 144 1
81 147 1
81 161 1
81 162 1
81 164 1
81 199 1
81 201 1
81 202 1
81 215 1
81 216 1
81 507 1
81 523 1
81 525 1
81 526 1
81 543 1
81 559 1
81 560 1
81 561 1
81 562 1
82 1 1
82 2 1
82 19 1
82 21 1
82 24 1
82 41 1
82 42 1
82 57 1
82 58 1
82 74 1
82 91 1
82 93 1
82 129 1
82 130 1
82 145 1
82 146 1
82 149 1
82 163 1
82 164 1
82 166 1
82 201 1
82 203 1
82 204 1
82 509 1
82 525 1
82 527 1
82 528 1
82 545 1
82 561 1
82 562 1
82 563 1
82 564 1
83 3 1
83 4 1
83 21 1
83 23 1
83 26 1
83 43 1
83 44 1
83 59 1
83 60 1
83 76 1
83 93 1
83 95 1
83 131 1
83 132 1
83 147 1
83 148 1
83 151 1
83 165 1
83 166 1
83 168 1
83 203 1
83 205 1
83 206 1
83 511 1
83 527 1
83 529 1
83 530 1
83 547 1
83 563 1
83 564 1
83 565 1
83 566 1
84 5 1
84 6 1
84 23 1
84 25 1
84 28 1
84 45 1
84 46 1
84 61 1
84 62 1
84 78 1
84 95 1
84 97 1
84 133 1
84 134 1
84 149 1
84 150 1
84 153 1
84 167 1
84 168 1
84 170 1
84 205 1
84 207 1
84 208 1
84 513 1
84 529 1
84 531 1
84 532 1
84 549 1
84 565 1
84 566 1
84 567 1
84 568 1
85 7 1
85 8 1
85 25 1
85 27 1
85 30 1
85 47 1
85 48 1
85 63 1
85 64 1
85 80 1
85 97 1
85 99 1
85 135 1
85 136 1
85 151 1
85 152 1
85 155 1
85 169 1
85 170 1
85 172 1
85 207 1
85 209 1
85 210 1
85 515 1
85 531 1
85 533 1
85 534 1
85 551 1
85 567 1
85 568 1
85 569 1
85 570 1
86 9 1
86 10 1
86 27 1
86 29 1
86 32 1
86 49 1
86 50 1
86 65 1
86 66 1
86 82 1
86 99 1
86 101 1
86 137 1
86 138 1
86 153 1
86 154 1
86 157 1
86 171 1
86 172 1
86 174 1
86 209 1
86 211 1
86 212 1
86 517 1
86 533 1
86 535 1
86 536 1
86 553 1
86 569 1
86 570 1
86 571 1
86 572 1
87 11 1
87 12 1
87 29 1
87 31 1
87 34 1
87 51 1
87 52 1
87 67 1
87 68 1
87 84 1
87 101 1
87 103 1
87 139 1
87 140 1
87 155 1
87 156 1
87 159 1
87 173 1
87 174 1
87 176 1
87 211 1
87 213 1
87 214 1
87 519 1
87 535 1
87 537 1
87 538 1
87 555 1
87 571 1
87 572 1
87 573 1
87 574 1
88 13 1
88 14 1
88 31 1
88 33 1
88 36 1
88 53 1
88 54 1
88 69 1
88 70 1
88 86 1
88 103 1
88 105 1
88 141 1
88 142 1
88 157 1
88 158 1
88 161 1
88 175 1
88 176 1
88 178 1
88 213 1
88 215 1
88 216 1
88 521 1
88 537 1
88 539 1
88 540 1
88 557 1
88 573 1
88 574 1
88 575 1
88 576 1
89 15 1
89 16 1
89 33 1
89 35 1
89 38 1
89 55 1
89 56 1
89 71 1
89 72 1
89 88 1
89 105 1
89 107 1
89 143 1
89 144 1
89 145 1
89 146 1
89 159 1
89 160 1
89 163 1
89 177 1
89 178 1
89 180 1
89 215 1
89 505 1
89 506 1
89 523 1
89 539 1
89 541 1
89 542 1
89 559 1
89 575 1
89 576 1
90 1 1
90 2 1
90 17 1
90 18 1
90 35 1
90 37 1
90 40 1
90 57 1
90 58 1
90 73 1
90 74 1
90 90 1
90 107 1
90 109 1
90 145 1
90 147 1
90 148 1
90 161 1
90 162 1
90 165 1
90 179 1
90 180 1
90 182 1
90 505 1
90 506 1
90 507 1
90 508 1
90 525 1
90 541 1
90 543 1
90 544 1
90 561 1
91 3 1
91 4 1
91 19 1
91 20 1
91 37 1
91 39 1
91 42 1
91 59 1
91 60 1
91 75 1
91 76 1
91 92 1
91 109 1
91 111 1
91 147 1
91 149 1
91 150 1
91 163 1
91 164 1
91 167 1
91 181 1
91 182 1
91 184 1
91 507 1
91 508 1
91 509 1
91 510 1
91 527 1
91 543 1
91 545 1
91 546 1
91 563 1
92 5 1
92 6 1
92 21 1
92 22 1
92 39 1
92 41 1
92 44 1
92 61 1
92 62 1
92 77 1
92 78 1
92 94 1
92 111 1
92 113 1
92 149 1
92 151 1
92 152 1
92 165 1
92 166 1
92 169 1
92 183 1
92 184 1
92 186 1
92 509 1
92 510 1
92 511 1
92 512 1
92 529 1
92 545 1
92 547 1
92 548 1
92 565 1
93 7 1
93 8 1
93 23 1
93 24 1
93 41 1
93 43 1
93 46 1
93 63 1
93 64 1
93 79 1
93 80 1
93 96 1
93 113 1
93 115 1
93 151 1
93 153 1
93 154 1
93 167 1
93 168 1
93 171 1
93 185 1
93 186 1
93 188 1
93 511 1
93 512 1
93 513 1
93 514 1
93 531 1
93 547 1
93 549 1
93 550 1
93 567 1
94 9 1
94 10 1
94 25 1
94 26 1
94 43 1
94 45 1
94 48 1
94 65 1
94 66 1
94 81 1
94 82 1
94 98 1
94 115 1
94 117 1
94 153 1
94 155 1
94 156 1
94 169 1
94 170 1
94 173 1
94 187 1
94 188 1
94 190 1
94 513 1
94 514 1
94 515 1
94 516 1
94 533 1
94 549 1
94 551 1
94 552 1
94 569 1
95 11 1
95 12 1
95 27 1
95 28 1
95 45 1
95 47 1
95 50 1
95 67 1
95 68 1
95 83 1
95 84 1
95 100 1
95 117 1
95 119 1
95 155 1
95 157 1
95 158 1
95 171 1
95 172 1
95 175 1
95 189 1
95 190 1
95 192 1
95 515 1
95 516 1
95 517 1
95 518 1
95 535 1
95 551 1
95 553 1
95 554 1
95 571 1
96 13 1
96 14 1
96 29 1
96 30 1
96 47 1
96 49 1
96 52 1
96 69 1
96 70 1
96 85 1
96 86 1
96 102 1
96 119 1
96 121 1
96 157 1
96 159 1
96 160 1
96 173 1
96 174 1
96 177 1
96 191 1
96 192 1
96 194 1
96 517 1
96 518 1
96 519 1
96 520 1
96 537 1
96 553 1
96 555 1
96 556 1
96 573 1
97 15 1
97 16 1
97 31 1
97 32 1
97 49 1
97 51 1
97 54 1
97 71 1
97 72 1
97 87 1
97 88 1
97 104 1
97 121 1
97 123 1
97 159 1
97 161 1
97 162 1
97 175 1
97 176 1
97 179 1
97 193 1
97 194 1
97 196 1
97 519 1
97 520 1
97 521 1
97 522 1
97 539 1
97 555 1
97 557 1
97 558 1
97 575 1
98 1 1
98 2 1
98 17 1
98 18 1
98 33 1
98 34 1
98 51 1
98 53 1
98 56 1
98 89 1
98 90 1
98 106 1
98 123 1
98 125 1
98 161 1
98 163 1
98 164 1
98 177 1
98 178 1
98 181 1
98 195 1
98 196 1
98 198 1
98 505 1
98 521 1
98 522 1
98 523 1
98 524 1
98 541 1
98 557 1
98 559 1
98 560 1
99 3 1
99 4 1
99 19 1
99 20 1
99 35 1
99 36 1
99 53 1
99 55 1
99 58 1
99 91 1
99 92 1
99 108 1
99 125 1
99 127 1
99 163 1
99 165 1
99 166 1
99 179 1
99 180 1
99 183 1
99 197 1
99 198 1
99 200 1
99 507 1
99 523 1
99 524 1
99 525 1
99 526 1
99 543 1
99 559 1
99 561 1
99 562 1
100 5 1
100 6 1
100 21 1
100 22 1
100 37 1
100 38 1
100 55 1
100 57 1
100 60 1
100 93 1
100 94 1
100 110 1
100 127 1
100 129 1
100 165 1
100 167 1
100 168 1
100 181 1
100 182 1
100 185 1
100 199 1
100 200 1
100 202 1
100 509 1
100 525 1
100 526 1
100 527 1
100 528 1
100 545 1
100 561 1
100 563 1
100 564 1
101 7 1
101 8 1
101 23 1
101 24 1
101 39 1
101 40 1
101 57 1
101 59 1
101 62 1
101 95 1
101 96 1
101 112 1
101 129 1
101 131 1
101 167 1
101 169 1
101 170 1
101 183 1
101 184 1
101 187 1
101 201 1
101 202 1
101 204 1
101 511 1
101 527 1
101 528 1
101 529 1
101 530 1
101 547 1
101 563 1
101 565 1
101 566 1
102 9 1
102 10 1
102 25 1
102 26 1
102 41 1
102 42 1
102 59 1
102 61 1
102 64 1
102 97 1
102 98 1
102 114 1
102 131 1
102 133 1
102 169 1
102 171 1
102 172 1
102 185 1
102 186 1
102 189 1
102 203 1
102 204 1
102 206 1
102 513 1
102 529 1
102 530 1
102 531 1
102 532 1
102 549 1
102 565 1
102 567 1
102 568 1
103 11 1
103 12 1
103 27 1
103 28 1
103 43 1
103 44 1
103 61 1
103 63 1
103 66 1
103 99 1
103 100 1
103 116 1
103 133 1
103 135 1
103 171 1
103 173 1
103 174 1
103 187 1
103 188 1
103 191 1
103 205 1
103 206 1
103 208 1
103 515 1
103 531 1
103 532 1
103 533 1
103 534 1
103 551 1
103 567 1
103 569 1
103 570 1
104 13 1
104 14 1
104 29 1
104 30 1
104 45 1
104 46 1
104 63 1
104 65 1
104 68 1
104 101 1
104 102 1
104 118 1
104 135 1
104 137 1
104 173 1
104 175 1
104 176 1
104 189 1
104 190 1
104 193 1
104 207 1
104 208 1
104 210 1
104 517 1
104 533 1
104 534 1
104 535 1
104 536 1
104 553 1
104 569 1
104 571 1
104 572 1
105 15 1
105 16 1
105 31 1
105 32 1
105 47 1
105 48 1
105 65 1
105 67 1
105 70 1
105 103 1
105 104 1
105 120 1
105 137 1
105 139 1
105 175 1
105 177 1
105 178 1
105 191 1
105 192 1
105 195 1
105 209 1
105 210 1
105 212 1
105 519 1
105 535 1
105 536 1
105 537 1
105 538 1
105 555 1
105 571 1
105 573 1
105 574 1
106 17 1
106 18 1
106 33 1
106 34 1
106 49 1
106 50 1
106 67 1
106 69 1
106 72 1
106 105 1
106 106 1
106 122 1
106 139 1
106 141 1
106 177 1
106 179 1
106 180 1
106 193 1
106 194 1
106 197 1
106 211 1
106 212 1
106 214 1
106 521 1
106 537 1
106 538 1
106 539 1
106 540 1
106 557 1
106 573 1
106 575 1
106 576 1
107 2 1
107 19 1
107 20 1
107 35 1
107 36 1
107 51 1
107 52 1
107 69 1
107 71 1
107 107 1
107 108 1
107 124 1
107 141 1
107 143 1
107 179 1
107 181 1
107 182 1
107 195 1
107 196 1
107 199 1
107 213 1
107 214 1
107 216 1
107 505 1
107 506 1
107 523 1
107 539 1
107 540 1
107 541 1
107 542 1
107 559 1
107 575 1
108 1 1
108 4 1
108 21 1
108 22 1
108 37 1
108 38 1
108 53 1
108 54 1
108 71 1
108 73 1
108 109 1
108 110 1
108 126 1
108 143 1
108 146 1
108 181 1
108 183 1
108 184 1
108 197 1
108 198 1
108 201 1
108 215 1
108 216 1
108 505 1
108 507 1
108 508 1
108 525 1
108 541 1
108 542 1
108 543 1
108 544 1
108 561 1
109 2 1
109 4 1
109 5 1
109 6 1
109 23 1
109 39 1
109 55 1
109 74 1
109 76 1
109 111 1
109 127 1
109 128 1
109 145 1
109 147 1
109 148 1
109 184 1
109 185 1
109 199 1
109 204 1
109 508 1
109 509 1
109 528 1
109 543 1
109 545 1
109 564 1
110 4 1
110 6 1
110 7 1
110 8 1
110 25 1
110 41 1
110 57 1
110 76 1
110 78 1
110 113 1
110 129 1
110 130 1
110 147 1
110 149 1
110 150 1
110 186 1
110 187 1
110 201 1
110 206 1
110 510 1
110 511 1
110 530 1
110 545 1
110 547 1
110 566 1
111 6 1
111 8 1
111 9 1
111 10 1
111 27 1
111 43 1
111 59 1
111 78 1
111 80 1
111 115 1
111 131 1
111 132 1
111 149 1
111 151 1
111 152 1
111 188 1
111 189 1
111 203 1
111 208 1
111 512 1
111 513 1
111 532 1
111 547 1
111 549 1
111 568 1
112 8 1
112 10 1
112 11 1
112 12 1
112 29 1
112 45 1
112 61 1
112 80 1
112 82 1
112 117 1
112 133 1
112 134 1
112 151 1
112 153 1
112 154 1
112 190 1
112 191 1
112 205 1
112 210 1
112 514 1
112 515 1
112 534 1
112 549 1
112 551 1
112 570 1
113 10 1
113 12 1
113 13 1
113 14 1
113 31 1
113 47 1
113 63 1
113 82 1
113 84 1
113 119 1
113 135 1
113 136 1
113 153 1
113 155 1
113 156 1
113 192 1
113 193 1
113 207 1
113 212 1
113 516 1
113 517 1
113 536 1
113 551 1
113 553 1
113 572 1
114 12 1
114 14 1
114 15 1
114 16 1
114 33 1
114 49 1
114 65 1
114 84 1
114 86 1
114 121 1
114 137 1
114 138 1
114 155 1
114 157 1
114 158 1
114 194 1
114 195 1
114 209 1
114 214 1
114 518 1
114 519 1
114 538 1
114 553 1
114 555 1
114 574 1
115 14 1
115 16 1
115 17 1
115 18 1
115 35 1
115 51 1
115 67 1
115 86 1
115 88 1
115 123 1
115 139 1
115 140 1
115 157 1
115 159 1
115 160 1
115 196 1
115 197 1
115 211 1
115 216 1
115 520 1
115 521 1
115 540 1
115 555 1
115 557 1
115 576 1
116 16 1
116 18 1
116 19 1
116 20 1
116 37 1
116 53 1
116 69 1
116 88 1
116 90 1
116 125 1
116 141 1
116 142 1
116 146 1
116 159 1
116 161 1
116 162 1
116 198 1
116 199 1
116 213 1
116 506 1
116 522 1
116 523 1
116 542 1
116 557 1
116 559 1
117 18 1
117 20 1
117 21 1
117 22 1
117 39 1
117 55 1
117 71 1
117 90 1
117 92 1
117 127 1
117 143 1
117 144 1
117 148 1
117 161 1
117 163 1
117 164 1
117 200 1
117 201 1
117 215 1
117 508 1
117 524 1
117 525 1
117 544 1
117 559 1
117 561 1
118 1 1
118 20 1
118 22 1
118 23 1
118 24 1
118 41 1
118 57 1
118 73 1
118 74 1
118 92 1
118 94 1
118 129 1
118 145 1
118 150 1
118 163 1
118 165 1
118 166 1
118 202 1
118 203 1
118 510 1
118 526 1
118 527 1
118 546 1
118 561 1
118 563 1
119 3 1
119 22 1
119 24 1
119 25 1
119 26 1
119 43 1
119 59 1
119 75 1
119 76 1
119 94 1
119 96 1
119 131 1
119 147 1
119 152 1
119 165 1
119 167 1
119 168 1
119 204 1
119 205 1
119 512 1
119 528 1
119 529 1
119 548 1
119 563 1
119 565 1
120 5 1
120 24 1
120 26 1
120 27 1
120 28 1
120 45 1
120 61 1
120 77 1
120 78 1
120 96 1
120 98 1
120 133 1
120 149 1
120 154 1
120 167 1
120 169 1
120 170 1
120 206 1
120 207 1
120 514 1
120 530 1
120 531 1
120 550 1
120 565 1
120 567 1
121 7 1
121 26 1
121 28 1
121 29 1
121 30 1
121 47 1
121 63 1
121 79 1
121 80 1
121 98 1
121 100 1
121 135 1
121 151 1
121 156 1
121 169 1
121 171 1
121 172 1
121 208 1
121 209 1
121 516 1
121 532 1
121 533 1
121 552 1
121 567 1
121 569 1
122 9 1
122 28 1
122 30 1
122 31 1
122 32 1
122 49 1
122 65 1
122 81 1
122 82 1
122 100 1
122 102 1
122 137 1
122 153 1
122 158 1
122 171 1
122 173 1
122 174 1
122 210 1
122 211 1
122 518 1
122 534 1
122 535 1
122 554 1
122 569 1
122 571 1
123 11 1
123 30 1
123 32 1
123 33 1
123 34 1
123 51 1
123 67 1
123 83 1
123 84 1
123 102 1
123 104 1
123 139 1
123 155 1
123 160 1
123 173 1
123 175 1
123 176 1
123 212 1
123 213 1
123 520 1
123 536 1
123 537 1
123 556 1
123 571 1
123 573 1
124 13 1
124 32 1
124 34 1
124 35 1
124 36 1
124 53 1
124 69 1
124 85 1
124 86 1
124 104 1
124 106 1
124 141 1
124 157 1
124 162 1
124 175 1
124 177 1
124 178 1
124 214 1
124 215 1
124 522 1
124 538 1
124 539 1
124 558 1
124 573 1
124 575 1
125 15 1
125 34 1
125 36 1
125 37 1
125 38 1
125 55 1
125 71 1
125 87 1
125 88 1
125 106 1
125 108 1
125 143 1
125 145 1
125 159 1
125 164 1
125 177 1
125 179 1
125 180 1
125 216 1
125 505 1
125 524 1
125 540 1
125 541 1
125 560 1
125 575 1
126 1 1
126 17 1
126 36 1
126 38 1
126 39 1
126 40 1
126 57 1
126 73 1
126 89 1
126 90 1
126 108 1
126 110 1
126 146 1
126 147 1
126 161 1
126 166 1
126 179 1
126 181 1
126 182 1
126 505 1
126 507 1
126 526 1
126 542 1
126 543 1
126 562 1
127 3 1
127 19 1
127 38 1
127 40 1
127 41 1
127 42 1
127 59 1
127 75 1
127 91 1
127 92 1
127 110 1
127 112 1
127 148 1
127 149 1
127 163 1
127 168 1
127 181 1
127 183 1
127 184 1
127 507 1
127 509 1
127 528 1
127 544 1
127 545 1
127 564 1
128 5 1
128 21 1
128 40 1
128 42 1
128 43 1
128 44 1
128 61 1
128 77 1
128 93 1
128 94 1
128 112 1
128 114 1
128 150 1
128 151 1
128 165 1
128 170 1
128 183 1
128 185 1
128 186 1
128 509 1
128 511 1
128 530 1
128 546 1
128 547 1
128 566 1
129 7 1
129 23 1
129 42 1
129 44 1
129 45 1
129 46 1
129 63 1
129 79 1
129 95 1
129 96 1
129 114 1
129 116 1
129 152 1
129 153 1
129 167 1
129 172 1
129 185 1
129 187 1
129 188 1
129 511 1
129 513 1
129 532 1
129 548 1
129 549 1
129 568 1
130 9 1
130 25 1
130 44 1
130 46 1
130 47 1
130 48 1
130 65 1
130 81 1
130 97 1
130 98 1
130 116 1
130 118 1
130 154 1
130 155 1
130 169 1
130 174 1
130 187 1
130 189 1
130 190 1
130 513 1
130 515 1
130 534 1
130 550 1
130 551 1
130 570 1
131 11 1
131 27 1
131 46 1
131 48 1
131 49 1
131 50 1
131 67 1
131 83 1
131 99 1
131 100 1
131 118 1
131 120 1
131 156 1
131 157 1
131 171 1
131 176 1
131 189 1
131 191 1
131 192 1
131 515 1
131 517 1
131 536 1
131 552 1
131 553 1
131 572 1
132 13 1
132 29 1
132 48 1
132 50 1
132 51 1
132 52 1
132 69 1
132 85 1
132 101 1
132 102 1
132 120 1
132 122 1
132 158 1
132 159 1
132 173 1
132 178 1
132 191 1
132 193 1
132 194 1
132 517 1
132 519 1
132 538 1
132 554 1
132 555 1
132 574 1
133 15 1
133 31 1
133 50 1
133 52 1
133 53 1
133 54 1
133 71 1
133 87 1
133 103 1
133 104 1
133 122 1
133 124 1
133 160 1
133 161 1
133 175 1
133 180 1
133 193 1
133 195 1
133 196 1
133 519 1
133 521 1
133 540 1
133 556 1
133 557 1
133 576 1
134 1 1
134 17 1
134 33 1
134 52 1
134 54 1
134 55 1
134 56 1
134 89 1
134 105 1
134 106 1
134 124 1
134 126 1
134 162 1
134 163 1
134 177 1
134 182 1
134 195 1
134 197 1
134 198 1
134 506 1
134 521 1
134 523 1
134 542 1
134 558 1
134 559 1
135 3 1
135 19 1
135 35 1
135 54 1
135 56 1
135 57 1
135 58 1
135 91 1
135 107 1
135 108 1
135 126 1
135 128 1
135 164 1
135 165 1
135 179 1
135 184 1
135 197 1
135 199 1
135 200 1
135 508 1
135 523 1
135 525 1
135 544 1
135 560 1
135 561 1
136 5 1
136 21 1
136 37 1
136 56 1
136 58 1
136 59 1
136 60 1
136 93 1
136 109 1
136 110 1
136 128 1
136 130 1
136 166 1
136 167 1
136 181 1
136 186 1
136 199 1
136 201 1
136 202 1
136 510 1
136 525 1
136 527 1
136 546 1
136 562 1
136 563 1
137 7 1
137 23 1
137 39 1
137 58 1
137 60 1
137 61 1
137 62 1
137 95 1
137 111 1
137 112 1
137 130 1
137 132 1
137 168 1
137 169 1
137 183 1
137 188 1
137 201 1
137 203 1
137 204 1
137 512 1
137 527 1
137 529 1
137 548 1
137 564 1
137 565 1
138 9 1
138 25 1
138 41 1
138 60 1
138 62 1
138 63 1
138 64 1
138 97 1
138 113 1
138 114 1
138 132 1
138 134 1
138 170 1
138 171 1
138 185 1
138 190 1
138 203 1
138 205 1
138 206 1
138 514 1
138 529 1
138 531 1
138 550 1
138 566 1
138 567 1
139 11 1
139 27 1
139 43 1
139 62 1
139 64 1
139 65 1
139 66 1
139 99 1
139 115 1
139 116 1
139 134 1
139 136 1
139 172 1
139 173 1
139 187 1
139 192 1
139 205 1
139 207 1
139 208 1
139 516 1
139 531 1
139 533 1
139 552 1
139 568 1
139 569 1
140 13 1
140 29 1
140 45 1
140 64 1
140 66 1
140 67 1
140 68 1
140 101 1
140 117 1
140 118 1
140 136 1
140 138 1
140 174 1
140 175 1
140 189 1
140 194 1
140 207 1
140 209 1
140 210 1
140 518 1
140 533 1
140 535 1
140 554 1
140 570 1
140 571 1
141 15 1
141 31 1
141 47 1
141 66 1
141 68 1
141 69 1
141 70 1
141 103 1
141 119 1
141 120 1
141 138 1
141 140 1
141 176 1
141 177 1
141 191 1
141 196 1
141 209 1
141 211 1
141 212 1
141 520 1
141 535 1
141 537 1
141 556 1
141 572 1
141 573 1
142 17 1
142 33 1
142 49 1
142 68 1
142 70 1
142 71 1
142 72 1
142 105 1
142 121 1
142 122 1
142 140 1
142 142 1
142 178 1
142 179 1
142 193 1
142 198 1
142 211 1
142 213 1
142 214 1
142 522 1
142 537 1
142 539 1
142 558 1
142 574 1
142 575 1
143 1 1
143 2 1
143 19 1
143 35 1
143 51 1
143 70 1
143 72 1
143 107 1
143 123 1
143 124 1
143 142 1
143 144 1
143 180 1
143 181 1
143 195 1
143 200 1
143 213 1
143 215 1
143 216 1
143 505 1
143 524 1
143 539 1
143 541 1
143 560 1
143 576 1
144 2 1
144 3 1
144 4 1
144 21 1
144 37 1
144 53 1
144 72 1
144 74 1
144 109 1
144 125 1
144 126 1
144 144 1
144 145 1
144 146 1
144 182 1
144 183 1
144 197 1
144 202 1
144 215 1
144 506 1
144 507 1
144 526 1
144 541 1
144 543 1
144 562 1
