%%MatrixMarket matrix coordinate integer general
% GF(4) labels 0,1,2=omega,3=omega+1; arithmetic is NOT integer arithmetic.
% Coordinate indices are 1-based; omitted entries are zero.
72 288 1548
1 3 3
1 7 1
1 11 2
1 12 1
1 17 2
1 30 1
1 38 3
1 43 2
1 47 3
1 52 1
1 56 1
1 74 1
1 88 1
1 89 3
1 93 1
1 110 2
1 111 1
1 120 2
1 128 1
1 129 1
1 138 2
2 4 3
2 8 1
2 12 2
2 13 1
2 18 2
2 31 1
2 39 3
2 44 2
2 48 3
2 53 1
2 57 1
2 75 1
2 89 1
2 90 3
2 94 1
2 111 2
2 112 1
2 121 2
2 129 1
2 130 1
2 139 2
3 5 3
3 9 1
3 13 2
3 14 1
3 19 2
3 32 1
3 40 3
3 45 2
3 49 3
3 54 1
3 58 1
3 76 1
3 90 1
3 91 3
3 95 1
3 112 2
3 113 1
3 122 2
3 130 1
3 131 1
3 140 2
4 6 3
4 10 1
4 14 2
4 15 1
4 20 2
4 33 1
4 41 3
4 46 2
4 50 3
4 55 1
4 59 1
4 77 1
4 91 1
4 92 3
4 96 1
4 113 2
4 114 1
4 123 2
4 131 1
4 132 1
4 141 2
5 7 3
5 11 1
5 15 2
5 16 1
5 21 2
5 34 1
5 42 3
5 47 2
5 51 3
5 56 1
5 60 1
5 78 1
5 92 1
5 93 3
5 97 1
5 114 2
5 115 1
5 124 2
5 132 1
5 133 1
5 142 2
6 8 3
6 12 1
6 16 2
6 17 1
6 22 2
6 35 1
6 43 3
6 48 2
6 52 3
6 57 1
6 61 1
6 79 1
6 93 1
6 94 3
6 98 1
6 115 2
6 116 1
6 125 2
6 133 1
6 134 1
6 143 2
7 9 3
7 13 1
7 17 2
7 18 1
7 23 2
7 36 1
7 44 3
7 49 2
7 53 3
7 58 1
7 62 1
7 80 1
7 94 1
7 95 3
7 99 1
7 116 2
7 117 1
7 126 2
7 134 1
7 135 1
7 144 2
8 1 1
8 10 3
8 14 1
8 18 2
8 19 1
8 24 2
8 45 3
8 50 2
8 54 3
8 59 1
8 63 1
8 81 1
8 95 1
8 96 3
8 100 1
8 109 2
8 117 2
8 118 1
8 127 2
8 135 1
8 136 1
9 2 1
9 11 3
9 15 1
9 19 2
9 20 1
9 25 2
9 46 3
9 51 2
9 55 3
9 60 1
9 64 1
9 82 1
9 96 1
9 97 3
9 101 1
9 110 2
9 118 2
9 119 1
9 128 2
9 136 1
9 137 1
10 3 1
10 12 3
10 16 1
10 20 2
10 21 1
10 26 2
10 47 3
10 52 2
10 56 3
10 61 1
10 65 1
10 83 1
10 97 1
10 98 3
10 102 1
10 111 2
10 119 2
10 120 1
10 129 2
10 137 1
10 138 1
11 4 1
11 13 3
11 17 1
11 21 2
11 22 1
11 27 2
11 48 3
11 53 2
11 57 3
11 62 1
11 66 1
11 84 1
11 98 1
11 99 3
11 103 1
11 112 2
11 120 2
11 121 1
11 130 2
11 138 1
11 139 1
12 5 1
12 14 3
12 18 1
12 22 2
12 23 1
12 28 2
12 49 3
12 54 2
12 58 3
12 63 1
12 67 1
12 85 1
12 99 1
12 100 3
12 104 1
12 113 2
12 121 2
12 122 1
12 131 2
12 139 1
12 140 1
13 6 1
13 15 3
13 19 1
13 23 2
13 24 1
13 29 2
13 50 3
13 55 2
13 59 3
13 64 1
13 68 1
13 86 1
13 100 1
13 101 3
13 105 1
13 114 2
13 122 2
13 123 1
13 132 2
13 140 1
13 141 1
14 7 1
14 16 3
14 20 1
14 24 2
14 25 1
14 30 2
14 51 3
14 56 2
14 60 3
14 65 1
14 69 1
14 87 1
14 101 1
14 102 3
14 106 1
14 115 2
14 123 2
14 124 1
14 133 2
14 141 1
14 142 1
15 8 1
15 17 3
15 21 1
15 25 2
15 26 1
15 31 2
15 52 3
15 57 2
15 61 3
15 66 1
15 70 1
15 88 1
15 102 1
15 103 3
15 107 1
15 116 2
15 124 2
15 125 1
15 134 2
15 142 1
15 143 1
16 9 1
16 18 3
16 22 1
16 26 2
16 27 1
16 32 2
16 53 3
16 58 2
16 62 3
16 67 1
16 71 1
16 89 1
16 103 1
16 104 3
16 108 1
16 117 2
16 125 2
16 126 1
16 135 2
16 143 1
16 144 1
17 10 1
17 19 3
17 23 1
17 27 2
17 28 1
17 33 2
17 54 3
17 59 2
17 63 3
17 68 1
17 72 1
17 73 1
17 90 1
17 104 1
17 105 3
17 109 1
17 118 2
17 126 2
17 127 1
17 136 2
17 144 1
18 11 1
18 20 3
18 24 1
18 28 2
18 29 1
18 34 2
18 37 1
18 55 3
18 60 2
18 64 3
18 69 1
18 74 1
18 91 1
18 105 1
18 106 3
18 109 1
18 110 1
18 119 2
18 127 2
18 128 1
18 137 2
19 12 1
19 21 3
19 25 1
19 29 2
19 30 1
19 35 2
19 38 1
19 56 3
19 61 2
19 65 3
19 70 1
19 75 1
19 92 1
19 106 1
19 107 3
19 110 1
19 111 1
19 120 2
19 128 2
19 129 1
19 138 2
20 13 1
20 22 3
20 26 1
20 30 2
20 31 1
20 36 2
20 39 1
20 57 3
20 62 2
20 66 3
20 71 1
20 76 1
20 93 1
20 107 1
20 108 3
20 111 1
20 112 1
20 121 2
20 129 2
20 130 1
20 139 2
21 1 2
21 14 1
21 23 3
21 27 1
21 31 2
21 32 1
21 40 1
21 58 3
21 63 2
21 67 3
21 72 1
21 73 3
21 77 1
21 94 1
21 108 1
21 112 1
21 113 1
21 122 2
21 130 2
21 131 1
21 140 2
22 2 2
22 15 1
22 24 3
22 28 1
22 32 2
22 33 1
22 37 1
22 41 1
22 59 3
22 64 2
22 68 3
22 73 1
22 74 3
22 78 1
22 95 1
22 113 1
22 114 1
22 123 2
22 131 2
22 132 1
22 141 2
23 3 2
23 16 1
23 25 3
23 29 1
23 33 2
23 34 1
23 38 1
23 42 1
23 60 3
23 65 2
23 69 3
23 74 1
23 75 3
23 79 1
23 96 1
23 114 1
23 115 1
23 124 2
23 132 2
23 133 1
23 142 2
24 4 2
24 17 1
24 26 3
24 30 1
24 34 2
24 35 1
24 39 1
24 43 1
24 61 3
24 66 2
24 70 3
24 75 1
24 76 3
24 80 1
24 97 1
24 115 1
24 116 1
24 125 2
24 133 2
24 134 1
24 143 2
25 5 2
25 18 1
25 27 3
25 31 1
25 35 2
25 36 1
25 40 1
25 44 1
25 62 3
25 67 2
25 71 3
25 76 1
25 77 3
25 81 1
25 98 1
25 116 1
25 117 1
25 126 2
25 134 2
25 135 1
25 144 2
26 1 1
26 6 2
26 19 1
26 28 3
26 32 1
26 36 2
26 41 1
26 45 1
26 63 3
26 68 2
26 72 3
26 77 1
26 78 3
26 82 1
26 99 1
26 109 2
26 117 1
26 118 1
26 127 2
26 135 2
26 136 1
27 1 2
27 2 1
27 7 2
27 20 1
27 29 3
27 33 1
27 37 3
27 42 1
27 46 1
27 64 3
27 69 2
27 78 1
27 79 3
27 83 1
27 100 1
27 110 2
27 118 1
27 119 1
27 128 2
27 136 2
27 137 1
28 2 2
28 3 1
28 8 2
28 21 1
28 30 3
28 34 1
28 38 3
28 43 1
28 47 1
28 65 3
28 70 2
28 79 1
28 80 3
28 84 1
28 101 1
28 111 2
28 119 1
28 120 1
28 129 2
28 137 2
28 138 1
29 3 2
29 4 1
29 9 2
29 22 1
29 31 3
29 35 1
29 39 3
29 44 1
29 48 1
29 66 3
29 71 2
29 80 1
29 81 3
29 85 1
29 102 1
29 112 2
29 120 1
29 121 1
29 130 2
29 138 2
29 139 1
30 4 2
30 5 1
30 10 2
30 23 1
30 32 3
30 36 1
30 40 3
30 45 1
30 49 1
30 67 3
30 72 2
30 81 1
30 82 3
30 86 1
30 103 1
30 113 2
30 121 1
30 122 1
30 131 2
30 139 2
30 140 1
31 1 1
31 5 2
31 6 1
31 11 2
31 24 1
31 33 3
31 37 2
31 41 3
31 46 1
31 50 1
31 68 3
31 82 1
31 83 3
31 87 1
31 104 1
31 114 2
31 122 1
31 123 1
31 132 2
31 140 2
31 141 1
32 2 1
32 6 2
32 7 1
32 12 2
32 25 1
32 34 3
32 38 2
32 42 3
32 47 1
32 51 1
32 69 3
32 83 1
32 84 3
32 88 1
32 105 1
32 115 2
32 123 1
32 124 1
32 133 2
32 141 2
32 142 1
33 3 1
33 7 2
33 8 1
33 13 2
33 26 1
33 35 3
33 39 2
33 43 3
33 48 1
33 52 1
33 70 3
33 84 1
33 85 3
33 89 1
33 106 1
33 116 2
33 124 1
33 125 1
33 134 2
33 142 2
33 143 1
34 4 1
34 8 2
34 9 1
34 14 2
34 27 1
34 36 3
34 40 2
34 44 3
34 49 1
34 53 1
34 71 3
34 85 1
34 86 3
34 90 1
34 107 1
34 117 2
34 125 1
34 126 1
34 135 2
34 143 2
34 144 1
35 1 3
35 5 1
35 9 2
35 10 1
35 15 2
35 28 1
35 41 2
35 45 3
35 50 1
35 54 1
35 72 3
35 86 1
35 87 3
35 91 1
35 108 1
35 109 1
35 118 2
35 126 1
35 127 1
35 136 2
35 144 2
36 2 3
36 6 1
36 10 2
36 11 1
36 16 2
36 29 1
36 37 3
36 42 2
36 46 3
36 51 1
36 55 1
36 73 1
36 87 1
36 88 3
36 92 1
36 109 2
36 110 1
36 119 2
36 127 1
36 128 1
36 137 2
37 1 1
37 2 1
37 3 2
37 12 3
37 20 3
37 28 3
37 37 1
37 38 1
37 56 3
37 64 2
37 73 3
37 74 2
37 92 1
37 93 3
37 100 3
37 102 1
37 254 1
37 255 3
37 264 1
37 272 3
37 273 3
37 282 1
38 2 1
38 3 1
38 4 2
38 13 3
38 21 3
38 29 3
38 38 1
38 39 1
38 57 3
38 65 2
38 74 3
38 75 2
38 93 1
38 94 3
38 101 3
38 103 1
38 255 1
38 256 3
38 265 1
38 273 3
38 274 3
38 283 1
39 3 1
39 4 1
39 5 2
39 14 3
39 22 3
39 30 3
39 39 1
39 40 1
39 58 3
39 66 2
39 75 3
39 76 2
39 94 1
39 95 3
39 102 3
39 104 1
39 256 1
39 257 3
39 266 1
39 274 3
39 275 3
39 284 1
40 4 1
40 5 1
40 6 2
40 15 3
40 23 3
40 31 3
40 40 1
40 41 1
40 59 3
40 67 2
40 76 3
40 77 2
40 95 1
40 96 3
40 103 3
40 105 1
40 257 1
40 258 3
40 267 1
40 275 3
40 276 3
40 285 1
41 5 1
41 6 1
41 7 2
41 16 3
41 24 3
41 32 3
41 41 1
41 42 1
41 60 3
41 68 2
41 77 3
41 78 2
41 96 1
41 97 3
41 104 3
41 106 1
41 258 1
41 259 3
41 268 1
41 276 3
41 277 3
41 286 1
42 6 1
42 7 1
42 8 2
42 17 3
42 25 3
42 33 3
42 42 1
42 43 1
42 61 3
42 69 2
42 78 3
42 79 2
42 97 1
42 98 3
42 105 3
42 107 1
42 259 1
42 260 3
42 269 1
42 277 3
42 278 3
42 287 1
43 7 1
43 8 1
43 9 2
43 18 3
43 26 3
43 34 3
43 43 1
43 44 1
43 62 3
43 70 2
43 79 3
43 80 2
43 98 1
43 99 3
43 106 3
43 108 1
43 260 1
43 261 3
43 270 1
43 278 3
43 279 3
43 288 1
44 8 1
44 9 1
44 10 2
44 19 3
44 27 3
44 35 3
44 44 1
44 45 1
44 63 3
44 71 2
44 73 1
44 80 3
44 81 2
44 99 1
44 100 3
44 107 3
44 253 1
44 261 1
44 262 3
44 271 1
44 279 3
44 280 3
45 9 1
45 10 1
45 11 2
45 20 3
45 28 3
45 36 3
45 45 1
45 46 1
45 64 3
45 72 2
45 74 1
45 81 3
45 82 2
45 100 1
45 101 3
45 108 3
45 254 1
45 262 1
45 263 3
45 272 1
45 280 3
45 281 3
46 1 3
46 10 1
46 11 1
46 12 2
46 21 3
46 29 3
46 37 2
46 46 1
46 47 1
46 65 3
46 73 3
46 75 1
46 82 3
46 83 2
46 101 1
46 102 3
46 255 1
46 263 1
46 264 3
46 273 1
46 281 3
46 282 3
47 2 3
47 11 1
47 12 1
47 13 2
47 22 3
47 30 3
47 38 2
47 47 1
47 48 1
47 66 3
47 74 3
47 76 1
47 83 3
47 84 2
47 102 1
47 103 3
47 256 1
47 264 1
47 265 3
47 274 1
47 282 3
47 283 3
48 3 3
48 12 1
48 13 1
48 14 2
48 23 3
48 31 3
48 39 2
48 48 1
48 49 1
48 67 3
48 75 3
48 77 1
48 84 3
48 85 2
48 103 1
48 104 3
48 257 1
48 265 1
48 266 3
48 275 1
48 283 3
48 284 3
49 4 3
49 13 1
49 14 1
49 15 2
49 24 3
49 32 3
49 40 2
49 49 1
49 50 1
49 68 3
49 76 3
49 78 1
49 85 3
49 86 2
49 104 1
49 105 3
49 258 1
49 266 1
49 267 3
49 276 1
49 284 3
49 285 3
50 5 3
50 14 1
50 15 1
50 16 2
50 25 3
50 33 3
50 41 2
50 50 1
50 51 1
50 69 3
50 77 3
50 79 1
50 86 3
50 87 2
50 105 1
50 106 3
50 259 1
50 267 1
50 268 3
50 277 1
50 285 3
50 286 3
51 6 3
51 15 1
51 16 1
51 17 2
51 26 3
51 34 3
51 42 2
51 51 1
51 52 1
51 70 3
51 78 3
51 80 1
51 87 3
51 88 2
51 106 1
51 107 3
51 260 1
51 268 1
51 269 3
51 278 1
51 286 3
51 287 3
52 7 3
52 16 1
52 17 1
52 18 2
52 27 3
52 35 3
52 43 2
52 52 1
52 53 1
52 71 3
52 79 3
52 81 1
52 88 3
52 89 2
52 107 1
52 108 3
52 261 1
52 269 1
52 270 3
52 279 1
52 287 3
52 288 3
53 8 3
53 17 1
53 18 1
53 19 2
53 28 3
53 36 3
53 44 2
53 53 1
53 54 1
53 72 3
53 73 3
53 80 3
53 82 1
53 89 3
53 90 2
53 108 1
53 253 3
53 262 1
53 270 1
53 271 3
53 280 1
53 288 3
54 1 3
54 9 3
54 18 1
54 19 1
54 20 2
54 29 3
54 37 3
54 45 2
54 54 1
54 55 1
54 73 1
54 74 3
54 81 3
54 83 1
54 90 3
54 91 2
54 253 3
54 254 3
54 263 1
54 271 1
54 272 3
54 281 1
55 2 3
55 10 3
55 19 1
55 20 1
55 21 2
55 30 3
55 38 3
55 46 2
55 55 1
55 56 1
55 74 1
55 75 3
55 82 3
55 84 1
55 91 3
55 92 2
55 254 3
55 255 3
55 264 1
55 272 1
55 273 3
55 282 1
56 3 3
56 11 3
56 20 1
56 21 1
56 22 2
56 31 3
56 39 3
56 47 2
56 56 1
56 57 1
56 75 1
56 76 3
56 83 3
56 85 1
56 92 3
56 93 2
56 255 3
56 256 3
56 265 1
56 273 1
56 274 3
56 283 1
57 4 3
57 12 3
57 21 1
57 22 1
57 23 2
57 32 3
57 40 3
57 48 2
57 57 1
57 58 1
57 76 1
57 77 3
57 84 3
57 86 1
57 93 3
57 94 2
57 256 3
57 257 3
57 266 1
57 274 1
57 275 3
57 284 1
58 5 3
58 13 3
58 22 1
58 23 1
58 24 2
58 33 3
58 41 3
58 49 2
58 58 1
58 59 1
58 77 1
58 78 3
58 85 3
58 87 1
58 94 3
58 95 2
58 257 3
58 258 3
58 267 1
58 275 1
58 276 3
58 285 1
59 6 3
59 14 3
59 23 1
59 24 1
59 25 2
59 34 3
59 42 3
59 50 2
59 59 1
59 60 1
59 78 1
59 79 3
59 86 3
59 88 1
59 95 3
59 96 2
59 258 3
59 259 3
59 268 1
59 276 1
59 277 3
59 286 1
60 7 3
60 15 3
60 24 1
60 25 1
60 26 2
60 35 3
60 43 3
60 51 2
60 60 1
60 61 1
60 79 1
60 80 3
60 87 3
60 89 1
60 96 3
60 97 2
60 259 3
60 260 3
60 269 1
60 277 1
60 278 3
60 287 1
61 8 3
61 16 3
61 25 1
61 26 1
61 27 2
61 36 3
61 44 3
61 52 2
61 61 1
61 62 1
61 80 1
61 81 3
61 88 3
61 90 1
61 97 3
61 98 2
61 260 3
61 261 3
61 270 1
61 278 1
61 279 3
61 288 1
62 1 3
62 9 3
62 17 3
62 26 1
62 27 1
62 28 2
62 45 3
62 53 2
62 62 1
62 63 1
62 81 1
62 82 3
62 89 3
62 91 1
62 98 3
62 99 2
62 253 1
62 261 3
62 262 3
62 271 1
62 279 1
62 280 3
63 2 3
63 10 3
63 18 3
63 27 1
63 28 1
63 29 2
63 46 3
63 54 2
63 63 1
63 64 1
63 82 1
63 83 3
63 90 3
63 92 1
63 99 3
63 100 2
63 254 1
63 262 3
63 263 3
63 272 1
63 280 1
63 281 3
64 3 3
64 11 3
64 19 3
64 28 1
64 29 1
64 30 2
64 47 3
64 55 2
64 64 1
64 65 1
64 83 1
64 84 3
64 91 3
64 93 1
64 100 3
64 101 2
64 255 1
64 263 3
64 264 3
64 273 1
64 281 1
64 282 3
65 4 3
65 12 3
65 20 3
65 29 1
65 30 1
65 31 2
65 48 3
65 56 2
65 65 1
65 66 1
65 84 1
65 85 3
65 92 3
65 94 1
65 101 3
65 102 2
65 256 1
65 264 3
65 265 3
65 274 1
65 282 1
65 283 3
66 5 3
66 13 3
66 21 3
66 30 1
66 31 1
66 32 2
66 49 3
66 57 2
66 66 1
66 67 1
66 85 1
66 86 3
66 93 3
66 95 1
66 102 3
66 103 2
66 257 1
66 265 3
66 266 3
66 275 1
66 283 1
66 284 3
67 6 3
67 14 3
67 22 3
67 31 1
67 32 1
67 33 2
67 50 3
67 58 2
67 67 1
67 68 1
67 86 1
67 87 3
67 94 3
67 96 1
67 103 3
67 104 2
67 258 1
67 266 3
67 267 3
67 276 1
67 284 1
67 285 3
68 7 3
68 15 3
68 23 3
68 32 1
68 33 1
68 34 2
68 51 3
68 59 2
68 68 1
68 69 1
68 87 1
68 88 3
68 95 3
68 97 1
68 104 3
68 105 2
68 259 1
68 267 3
68 268 3
68 277 1
68 285 1
68 286 3
69 8 3
69 16 3
69 24 3
69 33 1
69 34 1
69 35 2
69 52 3
69 60 2
69 69 1
69 70 1
69 88 1
69 89 3
69 96 3
69 98 1
69 105 3
69 106 2
69 260 1
69 268 3
69 269 3
69 278 1
69 286 1
69 287 3
70 9 3
70 17 3
70 25 3
70 34 1
70 35 1
70 36 2
70 53 3
70 61 2
70 70 1
70 71 1
70 89 1
70 90 3
70 97 3
70 99 1
70 106 3
70 107 2
70 261 1
70 269 3
70 270 3
70 279 1
70 287 1
70 288 3
71 1 2
71 10 3
71 18 3
71 26 3
71 35 1
71 36 1
71 54 3
71 62 2
71 71 1
71 72 1
71 90 1
71 91 3
71 98 3
71 100 1
71 107 3
71 108 2
71 253 3
71 262 1
71 270 3
71 271 3
71 280 1
71 288 1
72 1 1
72 2 2
72 11 3
72 19 3
72 27 3
72 36 1
72 37 1
72 55 3
72 63 2
72 72 1
72 73 2
72 91 1
72 92 3
72 99 3
72 101 1
72 108 3
72 253 1
72 254 3
72 263 1
72 271 3
72 272 3
72 281 1
