%%MatrixMarket matrix coordinate integer general
% GF(4) labels 0,1,2=omega,3=omega+1; arithmetic is NOT integer arithmetic.
% Coordinate indices are 1-based; omitted entries are zero.
54 144 432
1 1 2
1 19 1
1 37 1
1 55 1
1 73 1
1 91 1
1 109 1
1 127 1
2 2 2
2 20 1
2 38 1
2 56 1
2 74 1
2 92 1
2 110 1
2 128 1
3 3 2
3 21 1
3 39 1
3 57 1
3 75 1
3 93 1
3 111 1
3 129 1
4 4 2
4 22 1
4 40 1
4 58 1
4 76 1
4 94 1
4 112 1
4 130 1
5 5 2
5 23 1
5 41 1
5 59 1
5 77 1
5 95 1
5 113 1
5 131 1
6 6 2
6 24 1
6 42 1
6 60 1
6 78 1
6 96 1
6 114 1
6 132 1
7 7 2
7 25 1
7 43 1
7 61 1
7 79 1
7 97 1
7 115 1
7 133 1
8 8 2
8 26 1
8 44 1
8 62 1
8 80 1
8 98 1
8 116 1
8 134 1
9 9 2
9 27 1
9 45 1
9 63 1
9 81 1
9 99 1
9 117 1
9 135 1
10 10 2
10 28 1
10 46 1
10 64 1
10 82 1
10 100 1
10 118 1
10 136 1
11 11 2
11 29 1
11 47 1
11 65 1
11 83 1
11 101 1
11 119 1
11 137 1
12 12 2
12 30 1
12 48 1
12 66 1
12 84 1
12 102 1
12 120 1
12 138 1
13 13 2
13 31 1
13 49 1
13 67 1
13 85 1
13 103 1
13 121 1
13 139 1
14 14 2
14 32 1
14 50 1
14 68 1
14 86 1
14 104 1
14 122 1
14 140 1
15 15 2
15 33 1
15 51 1
15 69 1
15 87 1
15 105 1
15 123 1
15 141 1
16 16 2
16 34 1
16 52 1
16 70 1
16 88 1
16 106 1
16 124 1
16 142 1
17 17 2
17 35 1
17 53 1
17 71 1
17 89 1
17 107 1
17 125 1
17 143 1
18 18 2
18 36 1
18 54 1
18 72 1
18 90 1
18 108 1
18 126 1
18 144 1
19 1 1
19 36 2
19 47 1
19 64 1
19 74 1
19 98 1
19 124 1
19 140 1
20 2 1
20 19 2
20 48 1
20 65 1
20 75 1
20 99 1
20 125 1
20 141 1
21 3 1
21 20 2
21 49 1
21 66 1
21 76 1
21 100 1
21 126 1
21 142 1
22 4 1
22 21 2
22 50 1
22 67 1
22 77 1
22 101 1
22 109 1
22 143 1
23 5 1
23 22 2
23 51 1
23 68 1
23 78 1
23 102 1
23 110 1
23 144 1
24 6 1
24 23 2
24 52 1
24 69 1
24 79 1
24 103 1
24 111 1
24 127 1
25 7 1
25 24 2
25 53 1
25 70 1
25 80 1
25 104 1
25 112 1
25 128 1
26 8 1
26 25 2
26 54 1
26 71 1
26 81 1
26 105 1
26 113 1
26 129 1
27 9 1
27 26 2
27 37 1
27 72 1
27 82 1
27 106 1
27 114 1
27 130 1
28 10 1
28 27 2
28 38 1
28 55 1
28 83 1
28 107 1
28 115 1
28 131 1
29 11 1
29 28 2
29 39 1
29 56 1
29 84 1
29 108 1
29 116 1
29 132 1
30 12 1
30 29 2
30 40 1
30 57 1
30 85 1
30 91 1
30 117 1
30 133 1
31 13 1
31 30 2
31 41 1
31 58 1
31 86 1
31 92 1
31 118 1
31 134 1
32 14 1
32 31 2
32 42 1
32 59 1
32 87 1
32 93 1
32 119 1
32 135 1
33 15 1
33 32 2
33 43 1
33 60 1
33 88 1
33 94 1
33 120 1
33 136 1
34 16 1
34 33 2
34 44 1
34 61 1
34 89 1
34 95 1
34 121 1
34 137 1
35 17 1
35 34 2
35 45 1
35 62 1
35 90 1
35 96 1
35 122 1
35 138 1
36 18 1
36 35 2
36 46 1
36 63 1
36 73 1
36 97 1
36 123 1
36 139 1
37 1 1
37 27 1
37 46 2
37 65 1
37 87 1
37 108 1
37 122 1
37 128 1
38 2 1
38 28 1
38 47 2
38 66 1
38 88 1
38 91 1
38 123 1
38 129 1
39 3 1
39 29 1
39 48 2
39 67 1
39 89 1
39 92 1
39 124 1
39 130 1
40 4 1
40 30 1
40 49 2
40 68 1
40 90 1
40 93 1
40 125 1
40 131 1
41 5 1
41 31 1
41 50 2
41 69 1
41 73 1
41 94 1
41 126 1
41 132 1
42 6 1
42 32 1
42 51 2
42 70 1
42 74 1
42 95 1
42 109 1
42 133 1
43 7 1
43 33 1
43 52 2
43 71 1
43 75 1
43 96 1
43 110 1
43 134 1
44 8 1
44 34 1
44 53 2
44 72 1
44 76 1
44 97 1
44 111 1
44 135 1
45 9 1
45 35 1
45 54 2
45 55 1
45 77 1
45 98 1
45 112 1
45 136 1
46 10 1
46 36 1
46 37 2
46 56 1
46 78 1
46 99 1
46 113 1
46 137 1
47 11 1
47 19 1
47 38 2
47 57 1
47 79 1
47 100 1
47 114 1
47 138 1
48 12 1
48 20 1
48 39 2
48 58 1
48 80 1
48 101 1
48 115 1
48 139 1
49 13 1
49 21 1
49 40 2
49 59 1
49 81 1
49 102 1
49 116 1
49 140 1
50 14 1
50 22 1
50 41 2
50 60 1
50 82 1
50 103 1
50 117 1
50 141 1
51 15 1
51 23 1
51 42 2
51 61 1
51 83 1
51 104 1
51 118 1
51 142 1
52 16 1
52 24 1
52 43 2
52 62 1
52 84 1
52 105 1
52 119 1
52 143 1
53 17 1
53 25 1
53 44 2
53 63 1
53 85 1
53 106 1
53 120 1
53 144 1
54 18 1
54 26 1
54 45 2
54 64 1
54 86 1
54 107 1
54 121 1
54 127 1
