%%MatrixMarket matrix coordinate integer general
% Binary matrix over GF(2).
% Coordinate indices are 1-based; omitted entries are zero.
108 288 918
1 1 1
1 69 1
1 99 1
1 123 1
1 146 1
1 195 1
1 243 1
1 285 1
2 2 1
2 70 1
2 100 1
2 124 1
2 145 1
2 146 1
2 196 1
2 244 1
2 286 1
3 3 1
3 71 1
3 101 1
3 125 1
3 148 1
3 197 1
3 245 1
3 287 1
4 4 1
4 72 1
4 102 1
4 126 1
4 147 1
4 148 1
4 198 1
4 246 1
4 288 1
5 5 1
5 37 1
5 103 1
5 127 1
5 150 1
5 199 1
5 247 1
5 253 1
6 6 1
6 38 1
6 104 1
6 128 1
6 149 1
6 150 1
6 200 1
6 248 1
6 254 1
7 7 1
7 39 1
7 105 1
7 129 1
7 152 1
7 201 1
7 249 1
7 255 1
8 8 1
8 40 1
8 106 1
8 130 1
8 151 1
8 152 1
8 202 1
8 250 1
8 256 1
9 9 1
9 41 1
9 107 1
9 131 1
9 154 1
9 203 1
9 251 1
9 257 1
10 10 1
10 42 1
10 108 1
10 132 1
10 153 1
10 154 1
10 204 1
10 252 1
10 258 1
11 11 1
11 43 1
11 73 1
11 133 1
11 156 1
11 205 1
11 217 1
11 259 1
12 12 1
12 44 1
12 74 1
12 134 1
12 155 1
12 156 1
12 206 1
12 218 1
12 260 1
13 13 1
13 45 1
13 75 1
13 135 1
13 158 1
13 207 1
13 219 1
13 261 1
14 14 1
14 46 1
14 76 1
14 136 1
14 157 1
14 158 1
14 208 1
14 220 1
14 262 1
15 15 1
15 47 1
15 77 1
15 137 1
15 160 1
15 209 1
15 221 1
15 263 1
16 16 1
16 48 1
16 78 1
16 138 1
16 159 1
16 160 1
16 210 1
16 222 1
16 264 1
17 17 1
17 49 1
17 79 1
17 139 1
17 162 1
17 211 1
17 223 1
17 265 1
18 18 1
18 50 1
18 80 1
18 140 1
18 161 1
18 162 1
18 212 1
18 224 1
18 266 1
19 19 1
19 51 1
19 81 1
19 141 1
19 164 1
19 213 1
19 225 1
19 267 1
20 20 1
20 52 1
20 82 1
20 142 1
20 163 1
20 164 1
20 214 1
20 226 1
20 268 1
21 21 1
21 53 1
21 83 1
21 143 1
21 166 1
21 215 1
21 227 1
21 269 1
22 22 1
22 54 1
22 84 1
22 144 1
22 165 1
22 166 1
22 216 1
22 228 1
22 270 1
23 23 1
23 55 1
23 85 1
23 109 1
23 168 1
23 181 1
23 229 1
23 271 1
24 24 1
24 56 1
24 86 1
24 110 1
24 167 1
24 168 1
24 182 1
24 230 1
24 272 1
25 25 1
25 57 1
25 87 1
25 111 1
25 170 1
25 183 1
25 231 1
25 273 1
26 26 1
26 58 1
26 88 1
26 112 1
26 169 1
26 170 1
26 184 1
26 232 1
26 274 1
27 27 1
27 59 1
27 89 1
27 113 1
27 172 1
27 185 1
27 233 1
27 275 1
28 28 1
28 60 1
28 90 1
28 114 1
28 171 1
28 172 1
28 186 1
28 234 1
28 276 1
29 29 1
29 61 1
29 91 1
29 115 1
29 174 1
29 187 1
29 235 1
29 277 1
30 30 1
30 62 1
30 92 1
30 116 1
30 173 1
30 174 1
30 188 1
30 236 1
30 278 1
31 31 1
31 63 1
31 93 1
31 117 1
31 176 1
31 189 1
31 237 1
31 279 1
32 32 1
32 64 1
32 94 1
32 118 1
32 175 1
32 176 1
32 190 1
32 238 1
32 280 1
33 33 1
33 65 1
33 95 1
33 119 1
33 178 1
33 191 1
33 239 1
33 281 1
34 34 1
34 66 1
34 96 1
34 120 1
34 177 1
34 178 1
34 192 1
34 240 1
34 282 1
35 35 1
35 67 1
35 97 1
35 121 1
35 180 1
35 193 1
35 241 1
35 283 1
36 36 1
36 68 1
36 98 1
36 122 1
36 179 1
36 180 1
36 194 1
36 242 1
36 284 1
37 1 1
37 57 1
37 93 1
37 139 1
37 147 1
37 182 1
37 247 1
37 255 1
38 2 1
38 58 1
38 94 1
38 140 1
38 148 1
38 181 1
38 182 1
38 248 1
38 256 1
39 3 1
39 59 1
39 95 1
39 141 1
39 149 1
39 184 1
39 249 1
39 257 1
40 4 1
40 60 1
40 96 1
40 142 1
40 150 1
40 183 1
40 184 1
40 250 1
40 258 1
41 5 1
41 61 1
41 97 1
41 143 1
41 151 1
41 186 1
41 251 1
41 259 1
42 6 1
42 62 1
42 98 1
42 144 1
42 152 1
42 185 1
42 186 1
42 252 1
42 260 1
43 7 1
43 63 1
43 99 1
43 109 1
43 153 1
43 188 1
43 217 1
43 261 1
44 8 1
44 64 1
44 100 1
44 110 1
44 154 1
44 187 1
44 188 1
44 218 1
44 262 1
45 9 1
45 65 1
45 101 1
45 111 1
45 155 1
45 190 1
45 219 1
45 263 1
46 10 1
46 66 1
46 102 1
46 112 1
46 156 1
46 189 1
46 190 1
46 220 1
46 264 1
47 11 1
47 67 1
47 103 1
47 113 1
47 157 1
47 192 1
47 221 1
47 265 1
48 12 1
48 68 1
48 104 1
48 114 1
48 158 1
48 191 1
48 192 1
48 222 1
48 266 1
49 13 1
49 69 1
49 105 1
49 115 1
49 159 1
49 194 1
49 223 1
49 267 1
50 14 1
50 70 1
50 106 1
50 116 1
50 160 1
50 193 1
50 194 1
50 224 1
50 268 1
51 15 1
51 71 1
51 107 1
51 117 1
51 161 1
51 196 1
51 225 1
51 269 1
52 16 1
52 72 1
52 108 1
52 118 1
52 162 1
52 195 1
52 196 1
52 226 1
52 270 1
53 17 1
53 37 1
53 73 1
53 119 1
53 163 1
53 198 1
53 227 1
53 271 1
54 18 1
54 38 1
54 74 1
54 120 1
54 164 1
54 197 1
54 198 1
54 228 1
54 272 1
55 19 1
55 39 1
55 75 1
55 121 1
55 165 1
55 200 1
55 229 1
55 273 1
56 20 1
56 40 1
56 76 1
56 122 1
56 166 1
56 199 1
56 200 1
56 230 1
56 274 1
57 21 1
57 41 1
57 77 1
57 123 1
57 167 1
57 202 1
57 231 1
57 275 1
58 22 1
58 42 1
58 78 1
58 124 1
58 168 1
58 201 1
58 202 1
58 232 1
58 276 1
59 23 1
59 43 1
59 79 1
59 125 1
59 169 1
59 204 1
59 233 1
59 277 1
60 24 1
60 44 1
60 80 1
60 126 1
60 170 1
60 203 1
60 204 1
60 234 1
60 278 1
61 25 1
61 45 1
61 81 1
61 127 1
61 171 1
61 206 1
61 235 1
61 279 1
62 26 1
62 46 1
62 82 1
62 128 1
62 172 1
62 205 1
62 206 1
62 236 1
62 280 1
63 27 1
63 47 1
63 83 1
63 129 1
63 173 1
63 208 1
63 237 1
63 281 1
64 28 1
64 48 1
64 84 1
64 130 1
64 174 1
64 207 1
64 208 1
64 238 1
64 282 1
65 29 1
65 49 1
65 85 1
65 131 1
65 175 1
65 210 1
65 239 1
65 283 1
66 30 1
66 50 1
66 86 1
66 132 1
66 176 1
66 209 1
66 210 1
66 240 1
66 284 1
67 31 1
67 51 1
67 87 1
67 133 1
67 177 1
67 212 1
67 241 1
67 285 1
68 32 1
68 52 1
68 88 1
68 134 1
68 178 1
68 211 1
68 212 1
68 242 1
68 286 1
69 33 1
69 53 1
69 89 1
69 135 1
69 179 1
69 214 1
69 243 1
69 287 1
70 34 1
70 54 1
70 90 1
70 136 1
70 180 1
70 213 1
70 214 1
70 244 1
70 288 1
71 35 1
71 55 1
71 91 1
71 137 1
71 145 1
71 216 1
71 245 1
71 253 1
72 36 1
72 56 1
72 92 1
72 138 1
72 146 1
72 215 1
72 216 1
72 246 1
72 254 1
73 1 1
73 41 1
73 101 1
73 135 1
73 173 1
73 185 1
73 218 1
73 279 1
74 2 1
74 42 1
74 102 1
74 136 1
74 174 1
74 186 1
74 217 1
74 218 1
74 280 1
75 3 1
75 43 1
75 103 1
75 137 1
75 175 1
75 187 1
75 220 1
75 281 1
76 4 1
76 44 1
76 104 1
76 138 1
76 176 1
76 188 1
76 219 1
76 220 1
76 282 1
77 5 1
77 45 1
77 105 1
77 139 1
77 177 1
77 189 1
77 222 1
77 283 1
78 6 1
78 46 1
78 106 1
78 140 1
78 178 1
78 190 1
78 221 1
78 222 1
78 284 1
79 7 1
79 47 1
79 107 1
79 141 1
79 179 1
79 191 1
79 224 1
79 285 1
80 8 1
80 48 1
80 108 1
80 142 1
80 180 1
80 192 1
80 223 1
80 224 1
80 286 1
81 9 1
81 49 1
81 73 1
81 143 1
81 145 1
81 193 1
81 226 1
81 287 1
82 10 1
82 50 1
82 74 1
82 144 1
82 146 1
82 194 1
82 225 1
82 226 1
82 288 1
83 11 1
83 51 1
83 75 1
83 109 1
83 147 1
83 195 1
83 228 1
83 253 1
84 12 1
84 52 1
84 76 1
84 110 1
84 148 1
84 196 1
84 227 1
84 228 1
84 254 1
85 13 1
85 53 1
85 77 1
85 111 1
85 149 1
85 197 1
85 230 1
85 255 1
86 14 1
86 54 1
86 78 1
86 112 1
86 150 1
86 198 1
86 229 1
86 230 1
86 256 1
87 15 1
87 55 1
87 79 1
87 113 1
87 151 1
87 199 1
87 232 1
87 257 1
88 16 1
88 56 1
88 80 1
88 114 1
88 152 1
88 200 1
88 231 1
88 232 1
88 258 1
89 17 1
89 57 1
89 81 1
89 115 1
89 153 1
89 201 1
89 234 1
89 259 1
90 18 1
90 58 1
90 82 1
90 116 1
90 154 1
90 202 1
90 233 1
90 234 1
90 260 1
91 19 1
91 59 1
91 83 1
91 117 1
91 155 1
91 203 1
91 236 1
91 261 1
92 20 1
92 60 1
92 84 1
92 118 1
92 156 1
92 204 1
92 235 1
92 236 1
92 262 1
93 21 1
93 61 1
93 85 1
93 119 1
93 157 1
93 205 1
93 238 1
93 263 1
94 22 1
94 62 1
94 86 1
94 120 1
94 158 1
94 206 1
94 237 1
94 238 1
94 264 1
95 23 1
95 63 1
95 87 1
95 121 1
95 159 1
95 207 1
95 240 1
95 265 1
96 24 1
96 64 1
96 88 1
96 122 1
96 160 1
96 208 1
96 239 1
96 240 1
96 266 1
97 25 1
97 65 1
97 89 1
97 123 1
97 161 1
97 209 1
97 242 1
97 267 1
98 26 1
98 66 1
98 90 1
98 124 1
98 162 1
98 210 1
98 241 1
98 242 1
98 268 1
99 27 1
99 67 1
99 91 1
99 125 1
99 163 1
99 211 1
99 244 1
99 269 1
100 28 1
100 68 1
100 92 1
100 126 1
100 164 1
100 212 1
100 243 1
100 244 1
100 270 1
101 29 1
101 69 1
101 93 1
101 127 1
101 165 1
101 213 1
101 246 1
101 271 1
102 30 1
102 70 1
102 94 1
102 128 1
102 166 1
102 214 1
102 245 1
102 246 1
102 272 1
103 31 1
103 71 1
103 95 1
103 129 1
103 167 1
103 215 1
103 248 1
103 273 1
104 32 1
104 72 1
104 96 1
104 130 1
104 168 1
104 216 1
104 247 1
104 248 1
104 274 1
105 33 1
105 37 1
105 97 1
105 131 1
105 169 1
105 181 1
105 250 1
105 275 1
106 34 1
106 38 1
106 98 1
106 132 1
106 170 1
106 182 1
106 249 1
106 250 1
106 276 1
107 35 1
107 39 1
107 99 1
107 133 1
107 171 1
107 183 1
107 252 1
107 277 1
108 36 1
108 40 1
108 100 1
108 134 1
108 172 1
108 184 1
108 251 1
108 252 1
108 278 1
