%%MatrixMarket matrix coordinate integer general
% GF(4) labels 0,1,2=omega,3=omega+1; arithmetic is NOT integer arithmetic.
% Coordinate indices are 1-based; omitted entries are zero.
54 144 432
1 1 1
1 35 1
1 50 1
1 62 1
1 73 2
1 98 1
1 122 1
1 143 1
2 2 1
2 36 1
2 51 1
2 63 1
2 74 2
2 99 1
2 123 1
2 144 1
3 3 1
3 19 1
3 52 1
3 64 1
3 75 2
3 100 1
3 124 1
3 127 1
4 4 1
4 20 1
4 53 1
4 65 1
4 76 2
4 101 1
4 125 1
4 128 1
5 5 1
5 21 1
5 54 1
5 66 1
5 77 2
5 102 1
5 126 1
5 129 1
6 6 1
6 22 1
6 37 1
6 67 1
6 78 2
6 103 1
6 109 1
6 130 1
7 7 1
7 23 1
7 38 1
7 68 1
7 79 2
7 104 1
7 110 1
7 131 1
8 8 1
8 24 1
8 39 1
8 69 1
8 80 2
8 105 1
8 111 1
8 132 1
9 9 1
9 25 1
9 40 1
9 70 1
9 81 2
9 106 1
9 112 1
9 133 1
10 10 1
10 26 1
10 41 1
10 71 1
10 82 2
10 107 1
10 113 1
10 134 1
11 11 1
11 27 1
11 42 1
11 72 1
11 83 2
11 108 1
11 114 1
11 135 1
12 12 1
12 28 1
12 43 1
12 55 1
12 84 2
12 91 1
12 115 1
12 136 1
13 13 1
13 29 1
13 44 1
13 56 1
13 85 2
13 92 1
13 116 1
13 137 1
14 14 1
14 30 1
14 45 1
14 57 1
14 86 2
14 93 1
14 117 1
14 138 1
15 15 1
15 31 1
15 46 1
15 58 1
15 87 2
15 94 1
15 118 1
15 139 1
16 16 1
16 32 1
16 47 1
16 59 1
16 88 2
16 95 1
16 119 1
16 140 1
17 17 1
17 33 1
17 48 1
17 60 1
17 89 2
17 96 1
17 120 1
17 141 1
18 18 1
18 34 1
18 49 1
18 61 1
18 90 2
18 97 1
18 121 1
18 142 1
19 1 1
19 29 1
19 47 1
19 70 1
19 74 1
19 91 2
19 124 1
19 128 1
20 2 1
20 30 1
20 48 1
20 71 1
20 75 1
20 92 2
20 125 1
20 129 1
21 3 1
21 31 1
21 49 1
21 72 1
21 76 1
21 93 2
21 126 1
21 130 1
22 4 1
22 32 1
22 50 1
22 55 1
22 77 1
22 94 2
22 109 1
22 131 1
23 5 1
23 33 1
23 51 1
23 56 1
23 78 1
23 95 2
23 110 1
23 132 1
24 6 1
24 34 1
24 52 1
24 57 1
24 79 1
24 96 2
24 111 1
24 133 1
25 7 1
25 35 1
25 53 1
25 58 1
25 80 1
25 97 2
25 112 1
25 134 1
26 8 1
26 36 1
26 54 1
26 59 1
26 81 1
26 98 2
26 113 1
26 135 1
27 9 1
27 19 1
27 37 1
27 60 1
27 82 1
27 99 2
27 114 1
27 136 1
28 10 1
28 20 1
28 38 1
28 61 1
28 83 1
28 100 2
28 115 1
28 137 1
29 11 1
29 21 1
29 39 1
29 62 1
29 84 1
29 101 2
29 116 1
29 138 1
30 12 1
30 22 1
30 40 1
30 63 1
30 85 1
30 102 2
30 117 1
30 139 1
31 13 1
31 23 1
31 41 1
31 64 1
31 86 1
31 103 2
31 118 1
31 140 1
32 14 1
32 24 1
32 42 1
32 65 1
32 87 1
32 104 2
32 119 1
32 141 1
33 15 1
33 25 1
33 43 1
33 66 1
33 88 1
33 105 2
33 120 1
33 142 1
34 16 1
34 26 1
34 44 1
34 67 1
34 89 1
34 106 2
34 121 1
34 143 1
35 17 1
35 27 1
35 45 1
35 68 1
35 90 1
35 107 2
35 122 1
35 144 1
36 18 1
36 28 1
36 46 1
36 69 1
36 73 1
36 108 2
36 123 1
36 127 1
37 1 1
37 21 1
37 51 1
37 68 1
37 87 1
37 93 1
37 109 2
37 140 1
38 2 1
38 22 1
38 52 1
38 69 1
38 88 1
38 94 1
38 110 2
38 141 1
39 3 1
39 23 1
39 53 1
39 70 1
39 89 1
39 95 1
39 111 2
39 142 1
40 4 1
40 24 1
40 54 1
40 71 1
40 90 1
40 96 1
40 112 2
40 143 1
41 5 1
41 25 1
41 37 1
41 72 1
41 73 1
41 97 1
41 113 2
41 144 1
42 6 1
42 26 1
42 38 1
42 55 1
42 74 1
42 98 1
42 114 2
42 127 1
43 7 1
43 27 1
43 39 1
43 56 1
43 75 1
43 99 1
43 115 2
43 128 1
44 8 1
44 28 1
44 40 1
44 57 1
44 76 1
44 100 1
44 116 2
44 129 1
45 9 1
45 29 1
45 41 1
45 58 1
45 77 1
45 101 1
45 117 2
45 130 1
46 10 1
46 30 1
46 42 1
46 59 1
46 78 1
46 102 1
46 118 2
46 131 1
47 11 1
47 31 1
47 43 1
47 60 1
47 79 1
47 103 1
47 119 2
47 132 1
48 12 1
48 32 1
48 44 1
48 61 1
48 80 1
48 104 1
48 120 2
48 133 1
49 13 1
49 33 1
49 45 1
49 62 1
49 81 1
49 105 1
49 121 2
49 134 1
50 14 1
50 34 1
50 46 1
50 63 1
50 82 1
50 106 1
50 122 2
50 135 1
51 15 1
51 35 1
51 47 1
51 64 1
51 83 1
51 107 1
51 123 2
51 136 1
52 16 1
52 36 1
52 48 1
52 65 1
52 84 1
52 108 1
52 124 2
52 137 1
53 17 1
53 19 1
53 49 1
53 66 1
53 85 1
53 91 1
53 125 2
53 138 1
54 18 1
54 20 1
54 50 1
54 67 1
54 86 1
54 92 1
54 126 2
54 139 1
