%%MatrixMarket matrix coordinate integer general
% Binary matrix over GF(2).
% Coordinate indices are 1-based; omitted entries are zero.
72 288 1530
1 40 1
1 53 1
1 54 1
1 71 1
1 72 1
1 145 1
1 148 1
1 149 1
1 151 1
1 165 1
1 166 1
1 227 1
1 229 1
1 244 1
1 245 1
1 248 1
1 251 1
1 257 1
1 269 1
1 270 1
1 271 1
1 287 1
2 37 1
2 38 1
2 42 1
2 55 1
2 56 1
2 147 1
2 150 1
2 151 1
2 153 1
2 167 1
2 168 1
2 217 1
2 229 1
2 231 1
2 246 1
2 247 1
2 250 1
2 253 1
2 259 1
2 271 1
2 272 1
2 273 1
3 39 1
3 40 1
3 44 1
3 57 1
3 58 1
3 149 1
3 152 1
3 153 1
3 155 1
3 169 1
3 170 1
3 219 1
3 231 1
3 233 1
3 248 1
3 249 1
3 252 1
3 255 1
3 261 1
3 273 1
3 274 1
3 275 1
4 41 1
4 42 1
4 46 1
4 59 1
4 60 1
4 151 1
4 154 1
4 155 1
4 157 1
4 171 1
4 172 1
4 218 1
4 221 1
4 233 1
4 235 1
4 250 1
4 251 1
4 257 1
4 263 1
4 275 1
4 276 1
4 277 1
5 43 1
5 44 1
5 48 1
5 61 1
5 62 1
5 153 1
5 156 1
5 157 1
5 159 1
5 173 1
5 174 1
5 217 1
5 220 1
5 223 1
5 235 1
5 237 1
5 252 1
5 259 1
5 265 1
5 277 1
5 278 1
5 279 1
6 45 1
6 46 1
6 50 1
6 63 1
6 64 1
6 155 1
6 158 1
6 159 1
6 161 1
6 175 1
6 176 1
6 218 1
6 219 1
6 222 1
6 225 1
6 237 1
6 239 1
6 261 1
6 267 1
6 279 1
6 280 1
6 281 1
7 47 1
7 48 1
7 52 1
7 65 1
7 66 1
7 157 1
7 160 1
7 161 1
7 163 1
7 177 1
7 178 1
7 220 1
7 221 1
7 224 1
7 227 1
7 239 1
7 241 1
7 263 1
7 269 1
7 281 1
7 282 1
7 283 1
8 49 1
8 50 1
8 54 1
8 67 1
8 68 1
8 159 1
8 162 1
8 163 1
8 165 1
8 179 1
8 180 1
8 222 1
8 223 1
8 226 1
8 229 1
8 241 1
8 243 1
8 265 1
8 271 1
8 283 1
8 284 1
8 285 1
9 51 1
9 52 1
9 56 1
9 69 1
9 70 1
9 145 1
9 146 1
9 161 1
9 164 1
9 165 1
9 167 1
9 224 1
9 225 1
9 228 1
9 231 1
9 243 1
9 245 1
9 267 1
9 273 1
9 285 1
9 286 1
9 287 1
10 53 1
10 54 1
10 58 1
10 71 1
10 72 1
10 147 1
10 148 1
10 163 1
10 166 1
10 167 1
10 169 1
10 226 1
10 227 1
10 230 1
10 233 1
10 245 1
10 247 1
10 253 1
10 269 1
10 275 1
10 287 1
10 288 1
11 37 1
11 38 1
11 55 1
11 56 1
11 60 1
11 149 1
11 150 1
11 165 1
11 168 1
11 169 1
11 171 1
11 228 1
11 229 1
11 232 1
11 235 1
11 247 1
11 249 1
11 253 1
11 254 1
11 255 1
11 271 1
11 277 1
12 39 1
12 40 1
12 57 1
12 58 1
12 62 1
12 151 1
12 152 1
12 167 1
12 170 1
12 171 1
12 173 1
12 230 1
12 231 1
12 234 1
12 237 1
12 249 1
12 251 1
12 255 1
12 256 1
12 257 1
12 273 1
12 279 1
13 41 1
13 42 1
13 59 1
13 60 1
13 64 1
13 153 1
13 154 1
13 169 1
13 172 1
13 173 1
13 175 1
13 217 1
13 232 1
13 233 1
13 236 1
13 239 1
13 251 1
13 257 1
13 258 1
13 259 1
13 275 1
13 281 1
14 43 1
14 44 1
14 61 1
14 62 1
14 66 1
14 155 1
14 156 1
14 171 1
14 174 1
14 175 1
14 177 1
14 217 1
14 219 1
14 234 1
14 235 1
14 238 1
14 241 1
14 259 1
14 260 1
14 261 1
14 277 1
14 283 1
15 45 1
15 46 1
15 63 1
15 64 1
15 68 1
15 157 1
15 158 1
15 173 1
15 176 1
15 177 1
15 179 1
15 219 1
15 221 1
15 236 1
15 237 1
15 240 1
15 243 1
15 261 1
15 262 1
15 263 1
15 279 1
15 285 1
16 47 1
16 48 1
16 65 1
16 66 1
16 70 1
16 145 1
16 159 1
16 160 1
16 175 1
16 178 1
16 179 1
16 221 1
16 223 1
16 238 1
16 239 1
16 242 1
16 245 1
16 263 1
16 264 1
16 265 1
16 281 1
16 287 1
17 49 1
17 50 1
17 67 1
17 68 1
17 72 1
17 145 1
17 147 1
17 161 1
17 162 1
17 177 1
17 180 1
17 223 1
17 225 1
17 240 1
17 241 1
17 244 1
17 247 1
17 253 1
17 265 1
17 266 1
17 267 1
17 283 1
18 38 1
18 51 1
18 52 1
18 69 1
18 70 1
18 146 1
18 147 1
18 149 1
18 163 1
18 164 1
18 179 1
18 225 1
18 227 1
18 242 1
18 243 1
18 246 1
18 249 1
18 255 1
18 267 1
18 268 1
18 269 1
18 285 1
19 39 1
19 40 1
19 53 1
19 71 1
19 146 1
19 147 1
19 148 1
19 150 1
19 152 1
19 165 1
19 228 1
19 230 1
19 243 1
19 244 1
19 246 1
19 247 1
19 248 1
19 252 1
19 258 1
19 269 1
19 272 1
19 288 1
20 37 1
20 41 1
20 42 1
20 55 1
20 148 1
20 149 1
20 150 1
20 152 1
20 154 1
20 167 1
20 218 1
20 230 1
20 232 1
20 245 1
20 246 1
20 248 1
20 249 1
20 250 1
20 254 1
20 260 1
20 271 1
20 274 1
21 39 1
21 43 1
21 44 1
21 57 1
21 150 1
21 151 1
21 152 1
21 154 1
21 156 1
21 169 1
21 220 1
21 232 1
21 234 1
21 247 1
21 248 1
21 250 1
21 251 1
21 252 1
21 256 1
21 262 1
21 273 1
21 276 1
22 41 1
22 45 1
22 46 1
22 59 1
22 152 1
22 153 1
22 154 1
22 156 1
22 158 1
22 171 1
22 217 1
22 218 1
22 222 1
22 234 1
22 236 1
22 249 1
22 250 1
22 252 1
22 258 1
22 264 1
22 275 1
22 278 1
23 43 1
23 47 1
23 48 1
23 61 1
23 154 1
23 155 1
23 156 1
23 158 1
23 160 1
23 173 1
23 218 1
23 219 1
23 220 1
23 224 1
23 236 1
23 238 1
23 251 1
23 252 1
23 260 1
23 266 1
23 277 1
23 280 1
24 45 1
24 49 1
24 50 1
24 63 1
24 156 1
24 157 1
24 158 1
24 160 1
24 162 1
24 175 1
24 217 1
24 218 1
24 220 1
24 221 1
24 222 1
24 226 1
24 238 1
24 240 1
24 262 1
24 268 1
24 279 1
24 282 1
25 47 1
25 51 1
25 52 1
25 65 1
25 158 1
25 159 1
25 160 1
25 162 1
25 164 1
25 177 1
25 219 1
25 220 1
25 222 1
25 223 1
25 224 1
25 228 1
25 240 1
25 242 1
25 264 1
25 270 1
25 281 1
25 284 1
26 49 1
26 53 1
26 54 1
26 67 1
26 160 1
26 161 1
26 162 1
26 164 1
26 166 1
26 179 1
26 221 1
26 222 1
26 224 1
26 225 1
26 226 1
26 230 1
26 242 1
26 244 1
26 266 1
26 272 1
26 283 1
26 286 1
27 51 1
27 55 1
27 56 1
27 69 1
27 145 1
27 162 1
27 163 1
27 164 1
27 166 1
27 168 1
27 223 1
27 224 1
27 226 1
27 227 1
27 228 1
27 232 1
27 244 1
27 246 1
27 268 1
27 274 1
27 285 1
27 288 1
28 53 1
28 57 1
28 58 1
28 71 1
28 147 1
28 164 1
28 165 1
28 166 1
28 168 1
28 170 1
28 225 1
28 226 1
28 228 1
28 229 1
28 230 1
28 234 1
28 246 1
28 248 1
28 254 1
28 270 1
28 276 1
28 287 1
29 37 1
29 55 1
29 59 1
29 60 1
29 149 1
29 166 1
29 167 1
29 168 1
29 170 1
29 172 1
29 227 1
29 228 1
29 230 1
29 231 1
29 232 1
29 236 1
29 248 1
29 250 1
29 253 1
29 256 1
29 272 1
29 278 1
30 39 1
30 57 1
30 61 1
30 62 1
30 151 1
30 168 1
30 169 1
30 170 1
30 172 1
30 174 1
30 229 1
30 230 1
30 232 1
30 233 1
30 234 1
30 238 1
30 250 1
30 252 1
30 255 1
30 258 1
30 274 1
30 280 1
31 41 1
31 59 1
31 63 1
31 64 1
31 153 1
31 170 1
31 171 1
31 172 1
31 174 1
31 176 1
31 218 1
31 231 1
31 232 1
31 234 1
31 235 1
31 236 1
31 240 1
31 252 1
31 257 1
31 260 1
31 276 1
31 282 1
32 43 1
32 61 1
32 65 1
32 66 1
32 155 1
32 172 1
32 173 1
32 174 1
32 176 1
32 178 1
32 218 1
32 220 1
32 233 1
32 234 1
32 236 1
32 237 1
32 238 1
32 242 1
32 259 1
32 262 1
32 278 1
32 284 1
33 45 1
33 63 1
33 67 1
33 68 1
33 157 1
33 174 1
33 175 1
33 176 1
33 178 1
33 180 1
33 220 1
33 222 1
33 235 1
33 236 1
33 238 1
33 239 1
33 240 1
33 244 1
33 261 1
33 264 1
33 280 1
33 286 1
34 47 1
34 65 1
34 69 1
34 70 1
34 146 1
34 159 1
34 176 1
34 177 1
34 178 1
34 180 1
34 222 1
34 224 1
34 237 1
34 238 1
34 240 1
34 241 1
34 242 1
34 246 1
34 263 1
34 266 1
34 282 1
34 288 1
35 49 1
35 67 1
35 71 1
35 72 1
35 146 1
35 148 1
35 161 1
35 178 1
35 179 1
35 180 1
35 224 1
35 226 1
35 239 1
35 240 1
35 242 1
35 243 1
35 244 1
35 248 1
35 254 1
35 265 1
35 268 1
35 284 1
36 37 1
36 38 1
36 51 1
36 69 1
36 145 1
36 146 1
36 148 1
36 150 1
36 163 1
36 180 1
36 226 1
36 228 1
36 241 1
36 242 1
36 244 1
36 245 1
36 246 1
36 250 1
36 256 1
36 267 1
36 270 1
36 286 1
37 148 1
37 149 1
37 150 1
37 152 1
37 183 1
37 184 1
37 197 1
37 215 1
37 227 1
37 229 1
37 230 1
37 246 1
37 247 1
37 252 1
37 255 1
37 256 1
37 258 1
37 271 1
37 272 1
37 273 1
37 274 1
38 150 1
38 151 1
38 152 1
38 154 1
38 181 1
38 185 1
38 186 1
38 199 1
38 218 1
38 229 1
38 231 1
38 232 1
38 248 1
38 249 1
38 257 1
38 258 1
38 260 1
38 273 1
38 274 1
38 275 1
38 276 1
39 152 1
39 153 1
39 154 1
39 156 1
39 183 1
39 187 1
39 188 1
39 201 1
39 220 1
39 231 1
39 233 1
39 234 1
39 250 1
39 251 1
39 259 1
39 260 1
39 262 1
39 275 1
39 276 1
39 277 1
39 278 1
40 154 1
40 155 1
40 156 1
40 158 1
40 185 1
40 189 1
40 190 1
40 203 1
40 217 1
40 222 1
40 233 1
40 235 1
40 236 1
40 252 1
40 261 1
40 262 1
40 264 1
40 277 1
40 278 1
40 279 1
40 280 1
41 156 1
41 157 1
41 158 1
41 160 1
41 187 1
41 191 1
41 192 1
41 205 1
41 218 1
41 219 1
41 224 1
41 235 1
41 237 1
41 238 1
41 263 1
41 264 1
41 266 1
41 279 1
41 280 1
41 281 1
41 282 1
42 158 1
42 159 1
42 160 1
42 162 1
42 189 1
42 193 1
42 194 1
42 207 1
42 220 1
42 221 1
42 226 1
42 237 1
42 239 1
42 240 1
42 265 1
42 266 1
42 268 1
42 281 1
42 282 1
42 283 1
42 284 1
43 160 1
43 161 1
43 162 1
43 164 1
43 191 1
43 195 1
43 196 1
43 209 1
43 222 1
43 223 1
43 228 1
43 239 1
43 241 1
43 242 1
43 267 1
43 268 1
43 270 1
43 283 1
43 284 1
43 285 1
43 286 1
44 162 1
44 163 1
44 164 1
44 166 1
44 193 1
44 197 1
44 198 1
44 211 1
44 224 1
44 225 1
44 230 1
44 241 1
44 243 1
44 244 1
44 269 1
44 270 1
44 272 1
44 285 1
44 286 1
44 287 1
44 288 1
45 164 1
45 165 1
45 166 1
45 168 1
45 195 1
45 199 1
45 200 1
45 213 1
45 226 1
45 227 1
45 232 1
45 243 1
45 245 1
45 246 1
45 253 1
45 254 1
45 271 1
45 272 1
45 274 1
45 287 1
45 288 1
46 166 1
46 167 1
46 168 1
46 170 1
46 197 1
46 201 1
46 202 1
46 215 1
46 228 1
46 229 1
46 234 1
46 245 1
46 247 1
46 248 1
46 253 1
46 254 1
46 255 1
46 256 1
46 273 1
46 274 1
46 276 1
47 168 1
47 169 1
47 170 1
47 172 1
47 181 1
47 199 1
47 203 1
47 204 1
47 230 1
47 231 1
47 236 1
47 247 1
47 249 1
47 250 1
47 255 1
47 256 1
47 257 1
47 258 1
47 275 1
47 276 1
47 278 1
48 170 1
48 171 1
48 172 1
48 174 1
48 183 1
48 201 1
48 205 1
48 206 1
48 232 1
48 233 1
48 238 1
48 249 1
48 251 1
48 252 1
48 257 1
48 258 1
48 259 1
48 260 1
48 277 1
48 278 1
48 280 1
49 172 1
49 173 1
49 174 1
49 176 1
49 185 1
49 203 1
49 207 1
49 208 1
49 217 1
49 218 1
49 234 1
49 235 1
49 240 1
49 251 1
49 259 1
49 260 1
49 261 1
49 262 1
49 279 1
49 280 1
49 282 1
50 174 1
50 175 1
50 176 1
50 178 1
50 187 1
50 205 1
50 209 1
50 210 1
50 217 1
50 219 1
50 220 1
50 236 1
50 237 1
50 242 1
50 261 1
50 262 1
50 263 1
50 264 1
50 281 1
50 282 1
50 284 1
51 176 1
51 177 1
51 178 1
51 180 1
51 189 1
51 207 1
51 211 1
51 212 1
51 219 1
51 221 1
51 222 1
51 238 1
51 239 1
51 244 1
51 263 1
51 264 1
51 265 1
51 266 1
51 283 1
51 284 1
51 286 1
52 146 1
52 178 1
52 179 1
52 180 1
52 191 1
52 209 1
52 213 1
52 214 1
52 221 1
52 223 1
52 224 1
52 240 1
52 241 1
52 246 1
52 265 1
52 266 1
52 267 1
52 268 1
52 285 1
52 286 1
52 288 1
53 145 1
53 146 1
53 148 1
53 180 1
53 193 1
53 211 1
53 215 1
53 216 1
53 223 1
53 225 1
53 226 1
53 242 1
53 243 1
53 248 1
53 254 1
53 267 1
53 268 1
53 269 1
53 270 1
53 287 1
53 288 1
54 146 1
54 147 1
54 148 1
54 150 1
54 181 1
54 182 1
54 195 1
54 213 1
54 225 1
54 227 1
54 228 1
54 244 1
54 245 1
54 250 1
54 253 1
54 254 1
54 256 1
54 269 1
54 270 1
54 271 1
54 272 1
55 147 1
55 148 1
55 149 1
55 151 1
55 152 1
55 183 1
55 198 1
55 216 1
55 228 1
55 229 1
55 245 1
55 246 1
55 248 1
55 251 1
55 252 1
55 255 1
55 257 1
55 258 1
55 271 1
55 273 1
56 149 1
56 150 1
56 151 1
56 153 1
56 154 1
56 182 1
56 185 1
56 200 1
56 217 1
56 218 1
56 230 1
56 231 1
56 247 1
56 248 1
56 250 1
56 257 1
56 259 1
56 260 1
56 273 1
56 275 1
57 151 1
57 152 1
57 153 1
57 155 1
57 156 1
57 184 1
57 187 1
57 202 1
57 219 1
57 220 1
57 232 1
57 233 1
57 249 1
57 250 1
57 252 1
57 259 1
57 261 1
57 262 1
57 275 1
57 277 1
58 153 1
58 154 1
58 155 1
58 157 1
58 158 1
58 186 1
58 189 1
58 204 1
58 218 1
58 221 1
58 222 1
58 234 1
58 235 1
58 251 1
58 252 1
58 261 1
58 263 1
58 264 1
58 277 1
58 279 1
59 155 1
59 156 1
59 157 1
59 159 1
59 160 1
59 188 1
59 191 1
59 206 1
59 217 1
59 218 1
59 220 1
59 223 1
59 224 1
59 236 1
59 237 1
59 263 1
59 265 1
59 266 1
59 279 1
59 281 1
60 157 1
60 158 1
60 159 1
60 161 1
60 162 1
60 190 1
60 193 1
60 208 1
60 219 1
60 220 1
60 222 1
60 225 1
60 226 1
60 238 1
60 239 1
60 265 1
60 267 1
60 268 1
60 281 1
60 283 1
61 159 1
61 160 1
61 161 1
61 163 1
61 164 1
61 192 1
61 195 1
61 210 1
61 221 1
61 222 1
61 224 1
61 227 1
61 228 1
61 240 1
61 241 1
61 267 1
61 269 1
61 270 1
61 283 1
61 285 1
62 161 1
62 162 1
62 163 1
62 165 1
62 166 1
62 194 1
62 197 1
62 212 1
62 223 1
62 224 1
62 226 1
62 229 1
62 230 1
62 242 1
62 243 1
62 269 1
62 271 1
62 272 1
62 285 1
62 287 1
63 163 1
63 164 1
63 165 1
63 167 1
63 168 1
63 196 1
63 199 1
63 214 1
63 225 1
63 226 1
63 228 1
63 231 1
63 232 1
63 244 1
63 245 1
63 253 1
63 271 1
63 273 1
63 274 1
63 287 1
64 165 1
64 166 1
64 167 1
64 169 1
64 170 1
64 198 1
64 201 1
64 216 1
64 227 1
64 228 1
64 230 1
64 233 1
64 234 1
64 246 1
64 247 1
64 253 1
64 255 1
64 273 1
64 275 1
64 276 1
65 167 1
65 168 1
65 169 1
65 171 1
65 172 1
65 182 1
65 200 1
65 203 1
65 229 1
65 230 1
65 232 1
65 235 1
65 236 1
65 248 1
65 249 1
65 255 1
65 257 1
65 275 1
65 277 1
65 278 1
66 169 1
66 170 1
66 171 1
66 173 1
66 174 1
66 184 1
66 202 1
66 205 1
66 231 1
66 232 1
66 234 1
66 237 1
66 238 1
66 250 1
66 251 1
66 257 1
66 259 1
66 277 1
66 279 1
66 280 1
67 171 1
67 172 1
67 173 1
67 175 1
67 176 1
67 186 1
67 204 1
67 207 1
67 217 1
67 233 1
67 234 1
67 236 1
67 239 1
67 240 1
67 252 1
67 259 1
67 261 1
67 279 1
67 281 1
67 282 1
68 173 1
68 174 1
68 175 1
68 177 1
68 178 1
68 188 1
68 206 1
68 209 1
68 218 1
68 219 1
68 235 1
68 236 1
68 238 1
68 241 1
68 242 1
68 261 1
68 263 1
68 281 1
68 283 1
68 284 1
69 175 1
69 176 1
69 177 1
69 179 1
69 180 1
69 190 1
69 208 1
69 211 1
69 220 1
69 221 1
69 237 1
69 238 1
69 240 1
69 243 1
69 244 1
69 263 1
69 265 1
69 283 1
69 285 1
69 286 1
70 145 1
70 146 1
70 177 1
70 178 1
70 179 1
70 192 1
70 210 1
70 213 1
70 222 1
70 223 1
70 239 1
70 240 1
70 242 1
70 245 1
70 246 1
70 265 1
70 267 1
70 285 1
70 287 1
70 288 1
71 145 1
71 147 1
71 148 1
71 179 1
71 180 1
71 194 1
71 212 1
71 215 1
71 224 1
71 225 1
71 241 1
71 242 1
71 244 1
71 247 1
71 248 1
71 253 1
71 254 1
71 267 1
71 269 1
71 287 1
72 145 1
72 146 1
72 147 1
72 149 1
72 150 1
72 181 1
72 196 1
72 214 1
72 226 1
72 227 1
72 243 1
72 244 1
72 246 1
72 249 1
72 250 1
72 253 1
72 255 1
72 256 1
72 269 1
72 271 1
