%%MatrixMarket matrix coordinate integer general
% GF(4) labels 0,1,2=omega,3=omega+1; arithmetic is NOT integer arithmetic.
% Coordinate indices are 1-based; omitted entries are zero.
36 144 594
1 20 2
1 27 3
1 36 3
1 73 1
1 74 2
1 75 1
1 76 1
1 83 3
1 114 1
1 115 1
1 122 2
1 123 1
1 124 2
1 126 1
1 129 1
1 135 3
1 136 1
1 144 1
2 19 3
2 21 2
2 28 3
2 74 1
2 75 2
2 76 1
2 77 1
2 84 3
2 109 1
2 115 1
2 116 1
2 123 2
2 124 1
2 125 2
2 127 1
2 130 1
2 136 3
2 137 1
3 20 3
3 22 2
3 29 3
3 75 1
3 76 2
3 77 1
3 78 1
3 85 3
3 110 1
3 116 1
3 117 1
3 124 2
3 125 1
3 126 2
3 128 1
3 131 1
3 137 3
3 138 1
4 21 3
4 23 2
4 30 3
4 76 1
4 77 2
4 78 1
4 79 1
4 86 3
4 109 2
4 111 1
4 117 1
4 118 1
4 125 2
4 126 1
4 129 1
4 132 1
4 138 3
4 139 1
5 22 3
5 24 2
5 31 3
5 77 1
5 78 2
5 79 1
5 80 1
5 87 3
5 109 1
5 110 2
5 112 1
5 118 1
5 119 1
5 126 2
5 130 1
5 133 1
5 139 3
5 140 1
6 23 3
6 25 2
6 32 3
6 78 1
6 79 2
6 80 1
6 81 1
6 88 3
6 109 2
6 110 1
6 111 2
6 113 1
6 119 1
6 120 1
6 131 1
6 134 1
6 140 3
6 141 1
7 24 3
7 26 2
7 33 3
7 79 1
7 80 2
7 81 1
7 82 1
7 89 3
7 110 2
7 111 1
7 112 2
7 114 1
7 120 1
7 121 1
7 132 1
7 135 1
7 141 3
7 142 1
8 25 3
8 27 2
8 34 3
8 80 1
8 81 2
8 82 1
8 83 1
8 90 3
8 111 2
8 112 1
8 113 2
8 115 1
8 121 1
8 122 1
8 133 1
8 136 1
8 142 3
8 143 1
9 26 3
9 28 2
9 35 3
9 73 3
9 81 1
9 82 2
9 83 1
9 84 1
9 112 2
9 113 1
9 114 2
9 116 1
9 122 1
9 123 1
9 134 1
9 137 1
9 143 3
9 144 1
10 27 3
10 29 2
10 36 3
10 74 3
10 82 1
10 83 2
10 84 1
10 85 1
10 113 2
10 114 1
10 115 2
10 117 1
10 123 1
10 124 1
10 127 1
10 135 1
10 138 1
10 144 3
11 19 3
11 28 3
11 30 2
11 75 3
11 83 1
11 84 2
11 85 1
11 86 1
11 114 2
11 115 1
11 116 2
11 118 1
11 124 1
11 125 1
11 127 3
11 128 1
11 136 1
11 139 1
12 20 3
12 29 3
12 31 2
12 76 3
12 84 1
12 85 2
12 86 1
12 87 1
12 115 2
12 116 1
12 117 2
12 119 1
12 125 1
12 126 1
12 128 3
12 129 1
12 137 1
12 140 1
13 21 3
13 30 3
13 32 2
13 77 3
13 85 1
13 86 2
13 87 1
13 88 1
13 109 1
13 116 2
13 117 1
13 118 2
13 120 1
13 126 1
13 129 3
13 130 1
13 138 1
13 141 1
14 22 3
14 31 3
14 33 2
14 78 3
14 86 1
14 87 2
14 88 1
14 89 1
14 109 1
14 110 1
14 117 2
14 118 1
14 119 2
14 121 1
14 130 3
14 131 1
14 139 1
14 142 1
15 23 3
15 32 3
15 34 2
15 79 3
15 87 1
15 88 2
15 89 1
15 90 1
15 110 1
15 111 1
15 118 2
15 119 1
15 120 2
15 122 1
15 131 3
15 132 1
15 140 1
15 143 1
16 24 3
16 33 3
16 35 2
16 73 1
16 80 3
16 88 1
16 89 2
16 90 1
16 111 1
16 112 1
16 119 2
16 120 1
16 121 2
16 123 1
16 132 3
16 133 1
16 141 1
16 144 1
17 25 3
17 34 3
17 36 2
17 73 1
17 74 1
17 81 3
17 89 1
17 90 2
17 112 1
17 113 1
17 120 2
17 121 1
17 122 2
17 124 1
17 127 1
17 133 3
17 134 1
17 142 1
18 19 2
18 26 3
18 35 3
18 73 2
18 74 1
18 75 1
18 82 3
18 90 1
18 113 1
18 114 1
18 121 2
18 122 1
18 123 2
18 125 1
18 128 1
18 134 3
18 135 1
18 143 1
19 74 2
19 75 3
19 76 2
19 92 3
19 99 1
19 108 1
19 114 1
19 115 3
19 123 2
19 124 1
19 126 2
19 128 3
19 129 2
19 136 3
19 137 3
20 75 2
20 76 3
20 77 2
20 91 1
20 93 3
20 100 1
20 109 2
20 115 1
20 116 3
20 124 2
20 125 1
20 129 3
20 130 2
20 137 3
20 138 3
21 76 2
21 77 3
21 78 2
21 92 1
21 94 3
21 101 1
21 110 2
21 116 1
21 117 3
21 125 2
21 126 1
21 130 3
21 131 2
21 138 3
21 139 3
22 77 2
22 78 3
22 79 2
22 93 1
22 95 3
22 102 1
22 109 1
22 111 2
22 117 1
22 118 3
22 126 2
22 131 3
22 132 2
22 139 3
22 140 3
23 78 2
23 79 3
23 80 2
23 94 1
23 96 3
23 103 1
23 109 2
23 110 1
23 112 2
23 118 1
23 119 3
23 132 3
23 133 2
23 140 3
23 141 3
24 79 2
24 80 3
24 81 2
24 95 1
24 97 3
24 104 1
24 110 2
24 111 1
24 113 2
24 119 1
24 120 3
24 133 3
24 134 2
24 141 3
24 142 3
25 80 2
25 81 3
25 82 2
25 96 1
25 98 3
25 105 1
25 111 2
25 112 1
25 114 2
25 120 1
25 121 3
25 134 3
25 135 2
25 142 3
25 143 3
26 81 2
26 82 3
26 83 2
26 97 1
26 99 3
26 106 1
26 112 2
26 113 1
26 115 2
26 121 1
26 122 3
26 135 3
26 136 2
26 143 3
26 144 3
27 82 2
27 83 3
27 84 2
27 98 1
27 100 3
27 107 1
27 113 2
27 114 1
27 116 2
27 122 1
27 123 3
27 127 3
27 136 3
27 137 2
27 144 3
28 83 2
28 84 3
28 85 2
28 99 1
28 101 3
28 108 1
28 114 2
28 115 1
28 117 2
28 123 1
28 124 3
28 127 3
28 128 3
28 137 3
28 138 2
29 84 2
29 85 3
29 86 2
29 91 1
29 100 1
29 102 3
29 115 2
29 116 1
29 118 2
29 124 1
29 125 3
29 128 3
29 129 3
29 138 3
29 139 2
30 85 2
30 86 3
30 87 2
30 92 1
30 101 1
30 103 3
30 116 2
30 117 1
30 119 2
30 125 1
30 126 3
30 129 3
30 130 3
30 139 3
30 140 2
31 86 2
31 87 3
31 88 2
31 93 1
31 102 1
31 104 3
31 109 3
31 117 2
31 118 1
31 120 2
31 126 1
31 130 3
31 131 3
31 140 3
31 141 2
32 87 2
32 88 3
32 89 2
32 94 1
32 103 1
32 105 3
32 109 1
32 110 3
32 118 2
32 119 1
32 121 2
32 131 3
32 132 3
32 141 3
32 142 2
33 88 2
33 89 3
33 90 2
33 95 1
33 104 1
33 106 3
33 110 1
33 111 3
33 119 2
33 120 1
33 122 2
33 132 3
33 133 3
33 142 3
33 143 2
34 73 2
34 89 2
34 90 3
34 96 1
34 105 1
34 107 3
34 111 1
34 112 3
34 120 2
34 121 1
34 123 2
34 133 3
34 134 3
34 143 3
34 144 2
35 73 3
35 74 2
35 90 2
35 97 1
35 106 1
35 108 3
35 112 1
35 113 3
35 121 2
35 122 1
35 124 2
35 127 2
35 134 3
35 135 3
35 144 3
36 73 2
36 74 3
36 75 2
36 91 3
36 98 1
36 107 1
36 113 1
36 114 3
36 122 2
36 123 1
36 125 2
36 127 3
36 128 2
36 135 3
36 136 3
