%%MatrixMarket matrix coordinate integer general
% Binary matrix over GF(2).
% Coordinate indices are 1-based; omitted entries are zero.
72 288 1530
1 4 1
1 7 1
1 10 1
1 25 1
1 26 1
1 27 1
1 39 1
1 40 1
1 43 1
1 61 1
1 96 1
1 97 1
1 98 1
1 100 1
1 115 1
1 116 1
1 117 1
1 118 1
1 132 1
1 133 1
1 134 1
2 6 1
2 9 1
2 12 1
2 27 1
2 28 1
2 29 1
2 41 1
2 42 1
2 45 1
2 63 1
2 98 1
2 99 1
2 100 1
2 102 1
2 117 1
2 118 1
2 119 1
2 120 1
2 134 1
2 135 1
2 136 1
3 8 1
3 11 1
3 14 1
3 29 1
3 30 1
3 31 1
3 43 1
3 44 1
3 47 1
3 65 1
3 100 1
3 101 1
3 102 1
3 104 1
3 119 1
3 120 1
3 121 1
3 122 1
3 136 1
3 137 1
3 138 1
4 10 1
4 13 1
4 16 1
4 31 1
4 32 1
4 33 1
4 45 1
4 46 1
4 49 1
4 67 1
4 102 1
4 103 1
4 104 1
4 106 1
4 121 1
4 122 1
4 123 1
4 124 1
4 138 1
4 139 1
4 140 1
5 12 1
5 15 1
5 18 1
5 33 1
5 34 1
5 35 1
5 47 1
5 48 1
5 51 1
5 69 1
5 104 1
5 105 1
5 106 1
5 108 1
5 123 1
5 124 1
5 125 1
5 126 1
5 140 1
5 141 1
5 142 1
6 1 1
6 14 1
6 17 1
6 20 1
6 35 1
6 36 1
6 49 1
6 50 1
6 53 1
6 71 1
6 74 1
6 106 1
6 107 1
6 108 1
6 125 1
6 126 1
6 127 1
6 128 1
6 142 1
6 143 1
6 144 1
7 1 1
7 2 1
7 3 1
7 16 1
7 19 1
7 22 1
7 37 1
7 51 1
7 52 1
7 55 1
7 73 1
7 74 1
7 76 1
7 108 1
7 109 1
7 110 1
7 127 1
7 128 1
7 129 1
7 130 1
7 144 1
8 3 1
8 4 1
8 5 1
8 18 1
8 21 1
8 24 1
8 39 1
8 53 1
8 54 1
8 57 1
8 74 1
8 75 1
8 76 1
8 78 1
8 110 1
8 111 1
8 112 1
8 129 1
8 130 1
8 131 1
8 132 1
9 5 1
9 6 1
9 7 1
9 20 1
9 23 1
9 26 1
9 41 1
9 55 1
9 56 1
9 59 1
9 76 1
9 77 1
9 78 1
9 80 1
9 112 1
9 113 1
9 114 1
9 131 1
9 132 1
9 133 1
9 134 1
10 7 1
10 8 1
10 9 1
10 22 1
10 25 1
10 28 1
10 43 1
10 57 1
10 58 1
10 61 1
10 78 1
10 79 1
10 80 1
10 82 1
10 114 1
10 115 1
10 116 1
10 133 1
10 134 1
10 135 1
10 136 1
11 9 1
11 10 1
11 11 1
11 24 1
11 27 1
11 30 1
11 45 1
11 59 1
11 60 1
11 63 1
11 80 1
11 81 1
11 82 1
11 84 1
11 116 1
11 117 1
11 118 1
11 135 1
11 136 1
11 137 1
11 138 1
12 11 1
12 12 1
12 13 1
12 26 1
12 29 1
12 32 1
12 47 1
12 61 1
12 62 1
12 65 1
12 82 1
12 83 1
12 84 1
12 86 1
12 118 1
12 119 1
12 120 1
12 137 1
12 138 1
12 139 1
12 140 1
13 13 1
13 14 1
13 15 1
13 28 1
13 31 1
13 34 1
13 49 1
13 63 1
13 64 1
13 67 1
13 84 1
13 85 1
13 86 1
13 88 1
13 120 1
13 121 1
13 122 1
13 139 1
13 140 1
13 141 1
13 142 1
14 15 1
14 16 1
14 17 1
14 30 1
14 33 1
14 36 1
14 51 1
14 65 1
14 66 1
14 69 1
14 86 1
14 87 1
14 88 1
14 90 1
14 122 1
14 123 1
14 124 1
14 141 1
14 142 1
14 143 1
14 144 1
15 2 1
15 17 1
15 18 1
15 19 1
15 32 1
15 35 1
15 53 1
15 67 1
15 68 1
15 71 1
15 88 1
15 89 1
15 90 1
15 92 1
15 109 1
15 110 1
15 124 1
15 125 1
15 126 1
15 143 1
15 144 1
16 1 1
16 4 1
16 19 1
16 20 1
16 21 1
16 34 1
16 37 1
16 55 1
16 69 1
16 70 1
16 90 1
16 91 1
16 92 1
16 94 1
16 109 1
16 110 1
16 111 1
16 112 1
16 126 1
16 127 1
16 128 1
17 3 1
17 6 1
17 21 1
17 22 1
17 23 1
17 36 1
17 39 1
17 57 1
17 71 1
17 72 1
17 92 1
17 93 1
17 94 1
17 96 1
17 111 1
17 112 1
17 113 1
17 114 1
17 128 1
17 129 1
17 130 1
18 2 1
18 5 1
18 8 1
18 23 1
18 24 1
18 25 1
18 37 1
18 38 1
18 41 1
18 59 1
18 94 1
18 95 1
18 96 1
18 98 1
18 113 1
18 114 1
18 115 1
18 116 1
18 130 1
18 131 1
18 132 1
19 3 1
19 4 1
19 8 1
19 9 1
19 10 1
19 25 1
19 28 1
19 39 1
19 44 1
19 62 1
19 95 1
19 96 1
19 97 1
19 99 1
19 100 1
19 115 1
19 117 1
19 131 1
19 132 1
19 133 1
20 5 1
20 6 1
20 10 1
20 11 1
20 12 1
20 27 1
20 30 1
20 41 1
20 46 1
20 64 1
20 97 1
20 98 1
20 99 1
20 101 1
20 102 1
20 117 1
20 119 1
20 133 1
20 134 1
20 135 1
21 7 1
21 8 1
21 12 1
21 13 1
21 14 1
21 29 1
21 32 1
21 43 1
21 48 1
21 66 1
21 99 1
21 100 1
21 101 1
21 103 1
21 104 1
21 119 1
21 121 1
21 135 1
21 136 1
21 137 1
22 9 1
22 10 1
22 14 1
22 15 1
22 16 1
22 31 1
22 34 1
22 45 1
22 50 1
22 68 1
22 101 1
22 102 1
22 103 1
22 105 1
22 106 1
22 121 1
22 123 1
22 137 1
22 138 1
22 139 1
23 11 1
23 12 1
23 16 1
23 17 1
23 18 1
23 33 1
23 36 1
23 47 1
23 52 1
23 70 1
23 103 1
23 104 1
23 105 1
23 107 1
23 108 1
23 123 1
23 125 1
23 139 1
23 140 1
23 141 1
24 2 1
24 13 1
24 14 1
24 18 1
24 19 1
24 20 1
24 35 1
24 49 1
24 54 1
24 72 1
24 73 1
24 74 1
24 105 1
24 106 1
24 107 1
24 125 1
24 127 1
24 141 1
24 142 1
24 143 1
25 1 1
25 4 1
25 15 1
25 16 1
25 20 1
25 21 1
25 22 1
25 38 1
25 51 1
25 56 1
25 73 1
25 75 1
25 76 1
25 107 1
25 108 1
25 109 1
25 127 1
25 129 1
25 143 1
25 144 1
26 3 1
26 6 1
26 17 1
26 18 1
26 22 1
26 23 1
26 24 1
26 40 1
26 53 1
26 58 1
26 73 1
26 74 1
26 75 1
26 77 1
26 78 1
26 109 1
26 110 1
26 111 1
26 129 1
26 131 1
27 5 1
27 8 1
27 19 1
27 20 1
27 24 1
27 25 1
27 26 1
27 42 1
27 55 1
27 60 1
27 75 1
27 76 1
27 77 1
27 79 1
27 80 1
27 111 1
27 112 1
27 113 1
27 131 1
27 133 1
28 7 1
28 10 1
28 21 1
28 22 1
28 26 1
28 27 1
28 28 1
28 44 1
28 57 1
28 62 1
28 77 1
28 78 1
28 79 1
28 81 1
28 82 1
28 113 1
28 114 1
28 115 1
28 133 1
28 135 1
29 9 1
29 12 1
29 23 1
29 24 1
29 28 1
29 29 1
29 30 1
29 46 1
29 59 1
29 64 1
29 79 1
29 80 1
29 81 1
29 83 1
29 84 1
29 115 1
29 116 1
29 117 1
29 135 1
29 137 1
30 11 1
30 14 1
30 25 1
30 26 1
30 30 1
30 31 1
30 32 1
30 48 1
30 61 1
30 66 1
30 81 1
30 82 1
30 83 1
30 85 1
30 86 1
30 117 1
30 118 1
30 119 1
30 137 1
30 139 1
31 13 1
31 16 1
31 27 1
31 28 1
31 32 1
31 33 1
31 34 1
31 50 1
31 63 1
31 68 1
31 83 1
31 84 1
31 85 1
31 87 1
31 88 1
31 119 1
31 120 1
31 121 1
31 139 1
31 141 1
32 15 1
32 18 1
32 29 1
32 30 1
32 34 1
32 35 1
32 36 1
32 52 1
32 65 1
32 70 1
32 85 1
32 86 1
32 87 1
32 89 1
32 90 1
32 121 1
32 122 1
32 123 1
32 141 1
32 143 1
33 1 1
33 2 1
33 17 1
33 20 1
33 31 1
33 32 1
33 36 1
33 54 1
33 67 1
33 72 1
33 87 1
33 88 1
33 89 1
33 91 1
33 92 1
33 109 1
33 123 1
33 124 1
33 125 1
33 143 1
34 2 1
34 3 1
34 4 1
34 19 1
34 22 1
34 33 1
34 34 1
34 38 1
34 56 1
34 69 1
34 89 1
34 90 1
34 91 1
34 93 1
34 94 1
34 109 1
34 111 1
34 125 1
34 126 1
34 127 1
35 4 1
35 5 1
35 6 1
35 21 1
35 24 1
35 35 1
35 36 1
35 40 1
35 58 1
35 71 1
35 91 1
35 92 1
35 93 1
35 95 1
35 96 1
35 111 1
35 113 1
35 127 1
35 128 1
35 129 1
36 1 1
36 2 1
36 6 1
36 7 1
36 8 1
36 23 1
36 26 1
36 37 1
36 42 1
36 60 1
36 93 1
36 94 1
36 95 1
36 97 1
36 98 1
36 113 1
36 115 1
36 129 1
36 130 1
36 131 1
37 3 1
37 8 1
37 9 1
37 12 1
37 25 1
37 27 1
37 81 1
37 82 1
37 95 1
37 97 1
37 100 1
37 101 1
37 117 1
37 119 1
37 120 1
37 131 1
37 137 1
37 184 1
37 187 1
37 188 1
37 205 1
37 206 1
38 5 1
38 10 1
38 11 1
38 14 1
38 27 1
38 29 1
38 83 1
38 84 1
38 97 1
38 99 1
38 102 1
38 103 1
38 119 1
38 121 1
38 122 1
38 133 1
38 139 1
38 186 1
38 189 1
38 190 1
38 207 1
38 208 1
39 7 1
39 12 1
39 13 1
39 16 1
39 29 1
39 31 1
39 85 1
39 86 1
39 99 1
39 101 1
39 104 1
39 105 1
39 121 1
39 123 1
39 124 1
39 135 1
39 141 1
39 188 1
39 191 1
39 192 1
39 209 1
39 210 1
40 9 1
40 14 1
40 15 1
40 18 1
40 31 1
40 33 1
40 87 1
40 88 1
40 101 1
40 103 1
40 106 1
40 107 1
40 123 1
40 125 1
40 126 1
40 137 1
40 143 1
40 190 1
40 193 1
40 194 1
40 211 1
40 212 1
41 11 1
41 16 1
41 17 1
41 20 1
41 33 1
41 35 1
41 73 1
41 89 1
41 90 1
41 103 1
41 105 1
41 108 1
41 109 1
41 125 1
41 127 1
41 128 1
41 139 1
41 192 1
41 195 1
41 196 1
41 213 1
41 214 1
42 1 1
42 13 1
42 18 1
42 19 1
42 22 1
42 35 1
42 74 1
42 75 1
42 91 1
42 92 1
42 105 1
42 107 1
42 111 1
42 127 1
42 129 1
42 130 1
42 141 1
42 194 1
42 197 1
42 198 1
42 215 1
42 216 1
43 1 1
43 3 1
43 15 1
43 20 1
43 21 1
43 24 1
43 73 1
43 76 1
43 77 1
43 93 1
43 94 1
43 107 1
43 113 1
43 129 1
43 131 1
43 132 1
43 143 1
43 181 1
43 182 1
43 196 1
43 199 1
43 200 1
44 3 1
44 5 1
44 17 1
44 22 1
44 23 1
44 26 1
44 73 1
44 75 1
44 78 1
44 79 1
44 95 1
44 96 1
44 109 1
44 115 1
44 131 1
44 133 1
44 134 1
44 183 1
44 184 1
44 198 1
44 201 1
44 202 1
45 5 1
45 7 1
45 19 1
45 24 1
45 25 1
45 28 1
45 75 1
45 77 1
45 80 1
45 81 1
45 97 1
45 98 1
45 111 1
45 117 1
45 133 1
45 135 1
45 136 1
45 185 1
45 186 1
45 200 1
45 203 1
45 204 1
46 7 1
46 9 1
46 21 1
46 26 1
46 27 1
46 30 1
46 77 1
46 79 1
46 82 1
46 83 1
46 99 1
46 100 1
46 113 1
46 119 1
46 135 1
46 137 1
46 138 1
46 187 1
46 188 1
46 202 1
46 205 1
46 206 1
47 9 1
47 11 1
47 23 1
47 28 1
47 29 1
47 32 1
47 79 1
47 81 1
47 84 1
47 85 1
47 101 1
47 102 1
47 115 1
47 121 1
47 137 1
47 139 1
47 140 1
47 189 1
47 190 1
47 204 1
47 207 1
47 208 1
48 11 1
48 13 1
48 25 1
48 30 1
48 31 1
48 34 1
48 81 1
48 83 1
48 86 1
48 87 1
48 103 1
48 104 1
48 117 1
48 123 1
48 139 1
48 141 1
48 142 1
48 191 1
48 192 1
48 206 1
48 209 1
48 210 1
49 13 1
49 15 1
49 27 1
49 32 1
49 33 1
49 36 1
49 83 1
49 85 1
49 88 1
49 89 1
49 105 1
49 106 1
49 119 1
49 125 1
49 141 1
49 143 1
49 144 1
49 193 1
49 194 1
49 208 1
49 211 1
49 212 1
50 2 1
50 15 1
50 17 1
50 29 1
50 34 1
50 35 1
50 85 1
50 87 1
50 90 1
50 91 1
50 107 1
50 108 1
50 109 1
50 110 1
50 121 1
50 127 1
50 143 1
50 195 1
50 196 1
50 210 1
50 213 1
50 214 1
51 1 1
51 4 1
51 17 1
51 19 1
51 31 1
51 36 1
51 73 1
51 74 1
51 87 1
51 89 1
51 92 1
51 93 1
51 109 1
51 111 1
51 112 1
51 123 1
51 129 1
51 197 1
51 198 1
51 212 1
51 215 1
51 216 1
52 2 1
52 3 1
52 6 1
52 19 1
52 21 1
52 33 1
52 75 1
52 76 1
52 89 1
52 91 1
52 94 1
52 95 1
52 111 1
52 113 1
52 114 1
52 125 1
52 131 1
52 181 1
52 182 1
52 199 1
52 200 1
52 214 1
53 4 1
53 5 1
53 8 1
53 21 1
53 23 1
53 35 1
53 77 1
53 78 1
53 91 1
53 93 1
53 96 1
53 97 1
53 113 1
53 115 1
53 116 1
53 127 1
53 133 1
53 183 1
53 184 1
53 201 1
53 202 1
53 216 1
54 1 1
54 6 1
54 7 1
54 10 1
54 23 1
54 25 1
54 79 1
54 80 1
54 93 1
54 95 1
54 98 1
54 99 1
54 115 1
54 117 1
54 118 1
54 129 1
54 135 1
54 182 1
54 185 1
54 186 1
54 203 1
54 204 1
55 4 1
55 7 1
55 8 1
55 10 1
55 11 1
55 12 1
55 26 1
55 28 1
55 81 1
55 96 1
55 98 1
55 99 1
55 100 1
55 102 1
55 118 1
55 119 1
55 132 1
55 138 1
55 183 1
55 184 1
55 187 1
55 205 1
56 6 1
56 9 1
56 10 1
56 12 1
56 13 1
56 14 1
56 28 1
56 30 1
56 83 1
56 98 1
56 100 1
56 101 1
56 102 1
56 104 1
56 120 1
56 121 1
56 134 1
56 140 1
56 185 1
56 186 1
56 189 1
56 207 1
57 8 1
57 11 1
57 12 1
57 14 1
57 15 1
57 16 1
57 30 1
57 32 1
57 85 1
57 100 1
57 102 1
57 103 1
57 104 1
57 106 1
57 122 1
57 123 1
57 136 1
57 142 1
57 187 1
57 188 1
57 191 1
57 209 1
58 10 1
58 13 1
58 14 1
58 16 1
58 17 1
58 18 1
58 32 1
58 34 1
58 87 1
58 102 1
58 104 1
58 105 1
58 106 1
58 108 1
58 124 1
58 125 1
58 138 1
58 144 1
58 189 1
58 190 1
58 193 1
58 211 1
59 12 1
59 15 1
59 16 1
59 18 1
59 19 1
59 20 1
59 34 1
59 36 1
59 74 1
59 89 1
59 104 1
59 106 1
59 107 1
59 108 1
59 110 1
59 126 1
59 127 1
59 140 1
59 191 1
59 192 1
59 195 1
59 213 1
60 2 1
60 14 1
60 17 1
60 18 1
60 20 1
60 21 1
60 22 1
60 36 1
60 73 1
60 74 1
60 76 1
60 91 1
60 106 1
60 108 1
60 112 1
60 128 1
60 129 1
60 142 1
60 193 1
60 194 1
60 197 1
60 215 1
61 2 1
61 4 1
61 16 1
61 19 1
61 20 1
61 22 1
61 23 1
61 24 1
61 74 1
61 75 1
61 76 1
61 78 1
61 93 1
61 108 1
61 114 1
61 130 1
61 131 1
61 144 1
61 181 1
61 195 1
61 196 1
61 199 1
62 4 1
62 6 1
62 18 1
62 21 1
62 22 1
62 24 1
62 25 1
62 26 1
62 74 1
62 76 1
62 77 1
62 78 1
62 80 1
62 95 1
62 110 1
62 116 1
62 132 1
62 133 1
62 183 1
62 197 1
62 198 1
62 201 1
63 6 1
63 8 1
63 20 1
63 23 1
63 24 1
63 26 1
63 27 1
63 28 1
63 76 1
63 78 1
63 79 1
63 80 1
63 82 1
63 97 1
63 112 1
63 118 1
63 134 1
63 135 1
63 185 1
63 199 1
63 200 1
63 203 1
64 8 1
64 10 1
64 22 1
64 25 1
64 26 1
64 28 1
64 29 1
64 30 1
64 78 1
64 80 1
64 81 1
64 82 1
64 84 1
64 99 1
64 114 1
64 120 1
64 136 1
64 137 1
64 187 1
64 201 1
64 202 1
64 205 1
65 10 1
65 12 1
65 24 1
65 27 1
65 28 1
65 30 1
65 31 1
65 32 1
65 80 1
65 82 1
65 83 1
65 84 1
65 86 1
65 101 1
65 116 1
65 122 1
65 138 1
65 139 1
65 189 1
65 203 1
65 204 1
65 207 1
66 12 1
66 14 1
66 26 1
66 29 1
66 30 1
66 32 1
66 33 1
66 34 1
66 82 1
66 84 1
66 85 1
66 86 1
66 88 1
66 103 1
66 118 1
66 124 1
66 140 1
66 141 1
66 191 1
66 205 1
66 206 1
66 209 1
67 14 1
67 16 1
67 28 1
67 31 1
67 32 1
67 34 1
67 35 1
67 36 1
67 84 1
67 86 1
67 87 1
67 88 1
67 90 1
67 105 1
67 120 1
67 126 1
67 142 1
67 143 1
67 193 1
67 207 1
67 208 1
67 211 1
68 1 1
68 2 1
68 16 1
68 18 1
68 30 1
68 33 1
68 34 1
68 36 1
68 86 1
68 88 1
68 89 1
68 90 1
68 92 1
68 107 1
68 109 1
68 122 1
68 128 1
68 144 1
68 195 1
68 209 1
68 210 1
68 213 1
69 2 1
69 3 1
69 4 1
69 18 1
69 20 1
69 32 1
69 35 1
69 36 1
69 73 1
69 88 1
69 90 1
69 91 1
69 92 1
69 94 1
69 110 1
69 111 1
69 124 1
69 130 1
69 197 1
69 211 1
69 212 1
69 215 1
70 1 1
70 2 1
70 4 1
70 5 1
70 6 1
70 20 1
70 22 1
70 34 1
70 75 1
70 90 1
70 92 1
70 93 1
70 94 1
70 96 1
70 112 1
70 113 1
70 126 1
70 132 1
70 181 1
70 199 1
70 213 1
70 214 1
71 3 1
71 4 1
71 6 1
71 7 1
71 8 1
71 22 1
71 24 1
71 36 1
71 77 1
71 92 1
71 94 1
71 95 1
71 96 1
71 98 1
71 114 1
71 115 1
71 128 1
71 134 1
71 183 1
71 201 1
71 215 1
71 216 1
72 2 1
72 5 1
72 6 1
72 8 1
72 9 1
72 10 1
72 24 1
72 26 1
72 79 1
72 94 1
72 96 1
72 97 1
72 98 1
72 100 1
72 116 1
72 117 1
72 130 1
72 136 1
72 181 1
72 182 1
72 185 1
72 203 1
