%%MatrixMarket matrix coordinate integer general
% GF(4) labels 0,1,2=omega,3=omega+1; arithmetic is NOT integer arithmetic.
% Coordinate indices are 1-based; omitted entries are zero.
36 144 594
1 2 2
1 4 1
1 5 2
1 13 3
1 14 1
1 20 3
1 22 1
1 31 1
1 48 2
1 49 3
1 50 2
1 58 3
1 59 3
1 66 2
1 67 3
2 3 2
2 5 1
2 6 2
2 14 3
2 15 1
2 21 3
2 23 1
2 32 1
2 49 2
2 50 3
2 51 2
2 59 3
2 60 3
2 67 2
2 68 3
3 4 2
3 6 1
3 7 2
3 15 3
3 16 1
3 22 3
3 24 1
3 33 1
3 50 2
3 51 3
3 52 2
3 60 3
3 61 3
3 68 2
3 69 3
4 5 2
4 7 1
4 8 2
4 16 3
4 17 1
4 23 3
4 25 1
4 34 1
4 51 2
4 52 3
4 53 2
4 61 3
4 62 3
4 69 2
4 70 3
5 6 2
5 8 1
5 9 2
5 17 3
5 18 1
5 24 3
5 26 1
5 35 1
5 52 2
5 53 3
5 54 2
5 62 3
5 63 3
5 70 2
5 71 3
6 1 1
6 7 2
6 9 1
6 10 2
6 18 3
6 25 3
6 27 1
6 36 1
6 37 2
6 53 2
6 54 3
6 63 3
6 64 3
6 71 2
6 72 3
7 1 3
7 2 1
7 8 2
7 10 1
7 11 2
7 19 1
7 26 3
7 28 1
7 37 3
7 38 2
7 54 2
7 55 3
7 64 3
7 65 3
7 72 2
8 2 3
8 3 1
8 9 2
8 11 1
8 12 2
8 20 1
8 27 3
8 29 1
8 37 2
8 38 3
8 39 2
8 55 2
8 56 3
8 65 3
8 66 3
9 3 3
9 4 1
9 10 2
9 12 1
9 13 2
9 21 1
9 28 3
9 30 1
9 38 2
9 39 3
9 40 2
9 56 2
9 57 3
9 66 3
9 67 3
10 4 3
10 5 1
10 11 2
10 13 1
10 14 2
10 22 1
10 29 3
10 31 1
10 39 2
10 40 3
10 41 2
10 57 2
10 58 3
10 67 3
10 68 3
11 5 3
11 6 1
11 12 2
11 14 1
11 15 2
11 23 1
11 30 3
11 32 1
11 40 2
11 41 3
11 42 2
11 58 2
11 59 3
11 68 3
11 69 3
12 6 3
12 7 1
12 13 2
12 15 1
12 16 2
12 24 1
12 31 3
12 33 1
12 41 2
12 42 3
12 43 2
12 59 2
12 60 3
12 69 3
12 70 3
13 7 3
13 8 1
13 14 2
13 16 1
13 17 2
13 25 1
13 32 3
13 34 1
13 42 2
13 43 3
13 44 2
13 60 2
13 61 3
13 70 3
13 71 3
14 8 3
14 9 1
14 15 2
14 17 1
14 18 2
14 26 1
14 33 3
14 35 1
14 43 2
14 44 3
14 45 2
14 61 2
14 62 3
14 71 3
14 72 3
15 1 2
15 9 3
15 10 1
15 16 2
15 18 1
15 27 1
15 34 3
15 36 1
15 44 2
15 45 3
15 46 2
15 55 3
15 62 2
15 63 3
15 72 3
16 1 1
16 2 2
16 10 3
16 11 1
16 17 2
16 19 1
16 28 1
16 35 3
16 45 2
16 46 3
16 47 2
16 55 3
16 56 3
16 63 2
16 64 3
17 2 1
17 3 2
17 11 3
17 12 1
17 18 2
17 20 1
17 29 1
17 36 3
17 46 2
17 47 3
17 48 2
17 56 3
17 57 3
17 64 2
17 65 3
18 1 2
18 3 1
18 4 2
18 12 3
18 13 1
18 19 3
18 21 1
18 30 1
18 47 2
18 48 3
18 49 2
18 57 3
18 58 3
18 65 2
18 66 3
19 2 1
19 4 2
19 5 1
19 6 2
19 13 1
19 14 1
19 41 3
19 48 1
19 49 1
19 50 2
19 51 1
19 59 1
19 60 3
19 66 1
19 69 1
19 92 2
19 94 3
19 103 3
20 3 1
20 5 2
20 6 1
20 7 2
20 14 1
20 15 1
20 42 3
20 49 1
20 50 1
20 51 2
20 52 1
20 60 1
20 61 3
20 67 1
20 70 1
20 93 2
20 95 3
20 104 3
21 4 1
21 6 2
21 7 1
21 8 2
21 15 1
21 16 1
21 43 3
21 50 1
21 51 1
21 52 2
21 53 1
21 61 1
21 62 3
21 68 1
21 71 1
21 94 2
21 96 3
21 105 3
22 5 1
22 7 2
22 8 1
22 9 2
22 16 1
22 17 1
22 44 3
22 51 1
22 52 1
22 53 2
22 54 1
22 62 1
22 63 3
22 69 1
22 72 1
22 95 2
22 97 3
22 106 3
23 6 1
23 8 2
23 9 1
23 10 2
23 17 1
23 18 1
23 37 1
23 45 3
23 52 1
23 53 1
23 54 2
23 55 1
23 63 1
23 64 3
23 70 1
23 96 2
23 98 3
23 107 3
24 1 1
24 7 1
24 9 2
24 10 1
24 11 2
24 18 1
24 37 2
24 38 1
24 46 3
24 53 1
24 54 1
24 56 1
24 64 1
24 65 3
24 71 1
24 97 2
24 99 3
24 108 3
25 1 1
25 2 1
25 8 1
25 10 2
25 11 1
25 12 2
25 37 1
25 38 2
25 39 1
25 47 3
25 54 1
25 57 1
25 65 1
25 66 3
25 72 1
25 91 3
25 98 2
25 100 3
26 2 1
26 3 1
26 9 1
26 11 2
26 12 1
26 13 2
26 37 1
26 38 1
26 39 2
26 40 1
26 48 3
26 55 1
26 58 1
26 66 1
26 67 3
26 92 3
26 99 2
26 101 3
27 3 1
27 4 1
27 10 1
27 12 2
27 13 1
27 14 2
27 38 1
27 39 1
27 40 2
27 41 1
27 49 3
27 56 1
27 59 1
27 67 1
27 68 3
27 93 3
27 100 2
27 102 3
28 4 1
28 5 1
28 11 1
28 13 2
28 14 1
28 15 2
28 39 1
28 40 1
28 41 2
28 42 1
28 50 3
28 57 1
28 60 1
28 68 1
28 69 3
28 94 3
28 101 2
28 103 3
29 5 1
29 6 1
29 12 1
29 14 2
29 15 1
29 16 2
29 40 1
29 41 1
29 42 2
29 43 1
29 51 3
29 58 1
29 61 1
29 69 1
29 70 3
29 95 3
29 102 2
29 104 3
30 6 1
30 7 1
30 13 1
30 15 2
30 16 1
30 17 2
30 41 1
30 42 1
30 43 2
30 44 1
30 52 3
30 59 1
30 62 1
30 70 1
30 71 3
30 96 3
30 103 2
30 105 3
31 7 1
31 8 1
31 14 1
31 16 2
31 17 1
31 18 2
31 42 1
31 43 1
31 44 2
31 45 1
31 53 3
31 60 1
31 63 1
31 71 1
31 72 3
31 97 3
31 104 2
31 106 3
32 1 2
32 8 1
32 9 1
32 15 1
32 17 2
32 18 1
32 43 1
32 44 1
32 45 2
32 46 1
32 54 3
32 55 3
32 61 1
32 64 1
32 72 1
32 98 3
32 105 2
32 107 3
33 1 1
33 2 2
33 9 1
33 10 1
33 16 1
33 18 2
33 37 3
33 44 1
33 45 1
33 46 2
33 47 1
33 55 1
33 56 3
33 62 1
33 65 1
33 99 3
33 106 2
33 108 3
34 1 2
34 2 1
34 3 2
34 10 1
34 11 1
34 17 1
34 38 3
34 45 1
34 46 1
34 47 2
34 48 1
34 56 1
34 57 3
34 63 1
34 66 1
34 91 3
34 100 3
34 107 2
35 2 2
35 3 1
35 4 2
35 11 1
35 12 1
35 18 1
35 39 3
35 46 1
35 47 1
35 48 2
35 49 1
35 57 1
35 58 3
35 64 1
35 67 1
35 92 3
35 101 3
35 108 2
36 1 1
36 3 2
36 4 1
36 5 2
36 12 1
36 13 1
36 40 3
36 47 1
36 48 1
36 49 2
36 50 1
36 58 1
36 59 3
36 65 1
36 68 1
36 91 2
36 93 3
36 102 3
