%%MatrixMarket matrix coordinate integer general
% Binary matrix over GF(2).
% Coordinate indices are 1-based; omitted entries are zero.
108 288 918
1 2 1
1 37 1
1 73 1
1 109 1
1 145 1
1 181 1
1 217 1
1 253 1
2 1 1
2 2 1
2 38 1
2 74 1
2 110 1
2 146 1
2 182 1
2 218 1
2 254 1
3 4 1
3 39 1
3 75 1
3 111 1
3 147 1
3 183 1
3 219 1
3 255 1
4 3 1
4 4 1
4 40 1
4 76 1
4 112 1
4 148 1
4 184 1
4 220 1
4 256 1
5 6 1
5 41 1
5 77 1
5 113 1
5 149 1
5 185 1
5 221 1
5 257 1
6 5 1
6 6 1
6 42 1
6 78 1
6 114 1
6 150 1
6 186 1
6 222 1
6 258 1
7 8 1
7 43 1
7 79 1
7 115 1
7 151 1
7 187 1
7 223 1
7 259 1
8 7 1
8 8 1
8 44 1
8 80 1
8 116 1
8 152 1
8 188 1
8 224 1
8 260 1
9 10 1
9 45 1
9 81 1
9 117 1
9 153 1
9 189 1
9 225 1
9 261 1
10 9 1
10 10 1
10 46 1
10 82 1
10 118 1
10 154 1
10 190 1
10 226 1
10 262 1
11 12 1
11 47 1
11 83 1
11 119 1
11 155 1
11 191 1
11 227 1
11 263 1
12 11 1
12 12 1
12 48 1
12 84 1
12 120 1
12 156 1
12 192 1
12 228 1
12 264 1
13 14 1
13 49 1
13 85 1
13 121 1
13 157 1
13 193 1
13 229 1
13 265 1
14 13 1
14 14 1
14 50 1
14 86 1
14 122 1
14 158 1
14 194 1
14 230 1
14 266 1
15 16 1
15 51 1
15 87 1
15 123 1
15 159 1
15 195 1
15 231 1
15 267 1
16 15 1
16 16 1
16 52 1
16 88 1
16 124 1
16 160 1
16 196 1
16 232 1
16 268 1
17 18 1
17 53 1
17 89 1
17 125 1
17 161 1
17 197 1
17 233 1
17 269 1
18 17 1
18 18 1
18 54 1
18 90 1
18 126 1
18 162 1
18 198 1
18 234 1
18 270 1
19 20 1
19 55 1
19 91 1
19 127 1
19 163 1
19 199 1
19 235 1
19 271 1
20 19 1
20 20 1
20 56 1
20 92 1
20 128 1
20 164 1
20 200 1
20 236 1
20 272 1
21 22 1
21 57 1
21 93 1
21 129 1
21 165 1
21 201 1
21 237 1
21 273 1
22 21 1
22 22 1
22 58 1
22 94 1
22 130 1
22 166 1
22 202 1
22 238 1
22 274 1
23 24 1
23 59 1
23 95 1
23 131 1
23 167 1
23 203 1
23 239 1
23 275 1
24 23 1
24 24 1
24 60 1
24 96 1
24 132 1
24 168 1
24 204 1
24 240 1
24 276 1
25 26 1
25 61 1
25 97 1
25 133 1
25 169 1
25 205 1
25 241 1
25 277 1
26 25 1
26 26 1
26 62 1
26 98 1
26 134 1
26 170 1
26 206 1
26 242 1
26 278 1
27 28 1
27 63 1
27 99 1
27 135 1
27 171 1
27 207 1
27 243 1
27 279 1
28 27 1
28 28 1
28 64 1
28 100 1
28 136 1
28 172 1
28 208 1
28 244 1
28 280 1
29 30 1
29 65 1
29 101 1
29 137 1
29 173 1
29 209 1
29 245 1
29 281 1
30 29 1
30 30 1
30 66 1
30 102 1
30 138 1
30 174 1
30 210 1
30 246 1
30 282 1
31 32 1
31 67 1
31 103 1
31 139 1
31 175 1
31 211 1
31 247 1
31 283 1
32 31 1
32 32 1
32 68 1
32 104 1
32 140 1
32 176 1
32 212 1
32 248 1
32 284 1
33 34 1
33 69 1
33 105 1
33 141 1
33 177 1
33 213 1
33 249 1
33 285 1
34 33 1
34 34 1
34 70 1
34 106 1
34 142 1
34 178 1
34 214 1
34 250 1
34 286 1
35 36 1
35 71 1
35 107 1
35 143 1
35 179 1
35 215 1
35 251 1
35 287 1
36 35 1
36 36 1
36 72 1
36 108 1
36 144 1
36 180 1
36 216 1
36 252 1
36 288 1
37 1 1
37 72 1
37 93 1
37 127 1
37 147 1
37 195 1
37 225 1
37 265 1
38 2 1
38 71 1
38 72 1
38 94 1
38 128 1
38 148 1
38 196 1
38 226 1
38 266 1
39 3 1
39 38 1
39 95 1
39 129 1
39 149 1
39 197 1
39 227 1
39 267 1
40 4 1
40 37 1
40 38 1
40 96 1
40 130 1
40 150 1
40 198 1
40 228 1
40 268 1
41 5 1
41 40 1
41 97 1
41 131 1
41 151 1
41 199 1
41 229 1
41 269 1
42 6 1
42 39 1
42 40 1
42 98 1
42 132 1
42 152 1
42 200 1
42 230 1
42 270 1
43 7 1
43 42 1
43 99 1
43 133 1
43 153 1
43 201 1
43 231 1
43 271 1
44 8 1
44 41 1
44 42 1
44 100 1
44 134 1
44 154 1
44 202 1
44 232 1
44 272 1
45 9 1
45 44 1
45 101 1
45 135 1
45 155 1
45 203 1
45 233 1
45 273 1
46 10 1
46 43 1
46 44 1
46 102 1
46 136 1
46 156 1
46 204 1
46 234 1
46 274 1
47 11 1
47 46 1
47 103 1
47 137 1
47 157 1
47 205 1
47 235 1
47 275 1
48 12 1
48 45 1
48 46 1
48 104 1
48 138 1
48 158 1
48 206 1
48 236 1
48 276 1
49 13 1
49 48 1
49 105 1
49 139 1
49 159 1
49 207 1
49 237 1
49 277 1
50 14 1
50 47 1
50 48 1
50 106 1
50 140 1
50 160 1
50 208 1
50 238 1
50 278 1
51 15 1
51 50 1
51 107 1
51 141 1
51 161 1
51 209 1
51 239 1
51 279 1
52 16 1
52 49 1
52 50 1
52 108 1
52 142 1
52 162 1
52 210 1
52 240 1
52 280 1
53 17 1
53 52 1
53 73 1
53 143 1
53 163 1
53 211 1
53 241 1
53 281 1
54 18 1
54 51 1
54 52 1
54 74 1
54 144 1
54 164 1
54 212 1
54 242 1
54 282 1
55 19 1
55 54 1
55 75 1
55 109 1
55 165 1
55 213 1
55 243 1
55 283 1
56 20 1
56 53 1
56 54 1
56 76 1
56 110 1
56 166 1
56 214 1
56 244 1
56 284 1
57 21 1
57 56 1
57 77 1
57 111 1
57 167 1
57 215 1
57 245 1
57 285 1
58 22 1
58 55 1
58 56 1
58 78 1
58 112 1
58 168 1
58 216 1
58 246 1
58 286 1
59 23 1
59 58 1
59 79 1
59 113 1
59 169 1
59 181 1
59 247 1
59 287 1
60 24 1
60 57 1
60 58 1
60 80 1
60 114 1
60 170 1
60 182 1
60 248 1
60 288 1
61 25 1
61 60 1
61 81 1
61 115 1
61 171 1
61 183 1
61 249 1
61 253 1
62 26 1
62 59 1
62 60 1
62 82 1
62 116 1
62 172 1
62 184 1
62 250 1
62 254 1
63 27 1
63 62 1
63 83 1
63 117 1
63 173 1
63 185 1
63 251 1
63 255 1
64 28 1
64 61 1
64 62 1
64 84 1
64 118 1
64 174 1
64 186 1
64 252 1
64 256 1
65 29 1
65 64 1
65 85 1
65 119 1
65 175 1
65 187 1
65 217 1
65 257 1
66 30 1
66 63 1
66 64 1
66 86 1
66 120 1
66 176 1
66 188 1
66 218 1
66 258 1
67 31 1
67 66 1
67 87 1
67 121 1
67 177 1
67 189 1
67 219 1
67 259 1
68 32 1
68 65 1
68 66 1
68 88 1
68 122 1
68 178 1
68 190 1
68 220 1
68 260 1
69 33 1
69 68 1
69 89 1
69 123 1
69 179 1
69 191 1
69 221 1
69 261 1
70 34 1
70 67 1
70 68 1
70 90 1
70 124 1
70 180 1
70 192 1
70 222 1
70 262 1
71 35 1
71 70 1
71 91 1
71 125 1
71 145 1
71 193 1
71 223 1
71 263 1
72 36 1
72 69 1
72 70 1
72 92 1
72 126 1
72 146 1
72 194 1
72 224 1
72 264 1
73 1 1
73 53 1
73 92 1
73 129 1
73 159 1
73 215 1
73 221 1
73 255 1
74 2 1
74 54 1
74 91 1
74 92 1
74 130 1
74 160 1
74 216 1
74 222 1
74 256 1
75 3 1
75 55 1
75 94 1
75 131 1
75 161 1
75 181 1
75 223 1
75 257 1
76 4 1
76 56 1
76 93 1
76 94 1
76 132 1
76 162 1
76 182 1
76 224 1
76 258 1
77 5 1
77 57 1
77 96 1
77 133 1
77 163 1
77 183 1
77 225 1
77 259 1
78 6 1
78 58 1
78 95 1
78 96 1
78 134 1
78 164 1
78 184 1
78 226 1
78 260 1
79 7 1
79 59 1
79 98 1
79 135 1
79 165 1
79 185 1
79 227 1
79 261 1
80 8 1
80 60 1
80 97 1
80 98 1
80 136 1
80 166 1
80 186 1
80 228 1
80 262 1
81 9 1
81 61 1
81 100 1
81 137 1
81 167 1
81 187 1
81 229 1
81 263 1
82 10 1
82 62 1
82 99 1
82 100 1
82 138 1
82 168 1
82 188 1
82 230 1
82 264 1
83 11 1
83 63 1
83 102 1
83 139 1
83 169 1
83 189 1
83 231 1
83 265 1
84 12 1
84 64 1
84 101 1
84 102 1
84 140 1
84 170 1
84 190 1
84 232 1
84 266 1
85 13 1
85 65 1
85 104 1
85 141 1
85 171 1
85 191 1
85 233 1
85 267 1
86 14 1
86 66 1
86 103 1
86 104 1
86 142 1
86 172 1
86 192 1
86 234 1
86 268 1
87 15 1
87 67 1
87 106 1
87 143 1
87 173 1
87 193 1
87 235 1
87 269 1
88 16 1
88 68 1
88 105 1
88 106 1
88 144 1
88 174 1
88 194 1
88 236 1
88 270 1
89 17 1
89 69 1
89 108 1
89 109 1
89 175 1
89 195 1
89 237 1
89 271 1
90 18 1
90 70 1
90 107 1
90 108 1
90 110 1
90 176 1
90 196 1
90 238 1
90 272 1
91 19 1
91 71 1
91 74 1
91 111 1
91 177 1
91 197 1
91 239 1
91 273 1
92 20 1
92 72 1
92 73 1
92 74 1
92 112 1
92 178 1
92 198 1
92 240 1
92 274 1
93 21 1
93 37 1
93 76 1
93 113 1
93 179 1
93 199 1
93 241 1
93 275 1
94 22 1
94 38 1
94 75 1
94 76 1
94 114 1
94 180 1
94 200 1
94 242 1
94 276 1
95 23 1
95 39 1
95 78 1
95 115 1
95 145 1
95 201 1
95 243 1
95 277 1
96 24 1
96 40 1
96 77 1
96 78 1
96 116 1
96 146 1
96 202 1
96 244 1
96 278 1
97 25 1
97 41 1
97 80 1
97 117 1
97 147 1
97 203 1
97 245 1
97 279 1
98 26 1
98 42 1
98 79 1
98 80 1
98 118 1
98 148 1
98 204 1
98 246 1
98 280 1
99 27 1
99 43 1
99 82 1
99 119 1
99 149 1
99 205 1
99 247 1
99 281 1
100 28 1
100 44 1
100 81 1
100 82 1
100 120 1
100 150 1
100 206 1
100 248 1
100 282 1
101 29 1
101 45 1
101 84 1
101 121 1
101 151 1
101 207 1
101 249 1
101 283 1
102 30 1
102 46 1
102 83 1
102 84 1
102 122 1
102 152 1
102 208 1
102 250 1
102 284 1
103 31 1
103 47 1
103 86 1
103 123 1
103 153 1
103 209 1
103 251 1
103 285 1
104 32 1
104 48 1
104 85 1
104 86 1
104 124 1
104 154 1
104 210 1
104 252 1
104 286 1
105 33 1
105 49 1
105 88 1
105 125 1
105 155 1
105 211 1
105 217 1
105 287 1
106 34 1
106 50 1
106 87 1
106 88 1
106 126 1
106 156 1
106 212 1
106 218 1
106 288 1
107 35 1
107 51 1
107 90 1
107 127 1
107 157 1
107 213 1
107 219 1
107 253 1
108 36 1
108 52 1
108 89 1
108 90 1
108 128 1
108 158 1
108 214 1
108 220 1
108 254 1
