%%MatrixMarket matrix coordinate integer general
% Binary matrix over GF(2).
% Coordinate indices are 1-based; omitted entries are zero.
108 288 918
1 1 1
1 69 1
1 77 1
1 123 1
1 146 1
1 195 1
1 221 1
1 285 1
2 2 1
2 70 1
2 78 1
2 124 1
2 145 1
2 146 1
2 196 1
2 222 1
2 286 1
3 3 1
3 71 1
3 79 1
3 125 1
3 148 1
3 197 1
3 223 1
3 287 1
4 4 1
4 72 1
4 80 1
4 126 1
4 147 1
4 148 1
4 198 1
4 224 1
4 288 1
5 5 1
5 37 1
5 81 1
5 127 1
5 150 1
5 199 1
5 225 1
5 253 1
6 6 1
6 38 1
6 82 1
6 128 1
6 149 1
6 150 1
6 200 1
6 226 1
6 254 1
7 7 1
7 39 1
7 83 1
7 129 1
7 152 1
7 201 1
7 227 1
7 255 1
8 8 1
8 40 1
8 84 1
8 130 1
8 151 1
8 152 1
8 202 1
8 228 1
8 256 1
9 9 1
9 41 1
9 85 1
9 131 1
9 154 1
9 203 1
9 229 1
9 257 1
10 10 1
10 42 1
10 86 1
10 132 1
10 153 1
10 154 1
10 204 1
10 230 1
10 258 1
11 11 1
11 43 1
11 87 1
11 133 1
11 156 1
11 205 1
11 231 1
11 259 1
12 12 1
12 44 1
12 88 1
12 134 1
12 155 1
12 156 1
12 206 1
12 232 1
12 260 1
13 13 1
13 45 1
13 89 1
13 135 1
13 158 1
13 207 1
13 233 1
13 261 1
14 14 1
14 46 1
14 90 1
14 136 1
14 157 1
14 158 1
14 208 1
14 234 1
14 262 1
15 15 1
15 47 1
15 91 1
15 137 1
15 160 1
15 209 1
15 235 1
15 263 1
16 16 1
16 48 1
16 92 1
16 138 1
16 159 1
16 160 1
16 210 1
16 236 1
16 264 1
17 17 1
17 49 1
17 93 1
17 139 1
17 162 1
17 211 1
17 237 1
17 265 1
18 18 1
18 50 1
18 94 1
18 140 1
18 161 1
18 162 1
18 212 1
18 238 1
18 266 1
19 19 1
19 51 1
19 95 1
19 141 1
19 164 1
19 213 1
19 239 1
19 267 1
20 20 1
20 52 1
20 96 1
20 142 1
20 163 1
20 164 1
20 214 1
20 240 1
20 268 1
21 21 1
21 53 1
21 97 1
21 143 1
21 166 1
21 215 1
21 241 1
21 269 1
22 22 1
22 54 1
22 98 1
22 144 1
22 165 1
22 166 1
22 216 1
22 242 1
22 270 1
23 23 1
23 55 1
23 99 1
23 109 1
23 168 1
23 181 1
23 243 1
23 271 1
24 24 1
24 56 1
24 100 1
24 110 1
24 167 1
24 168 1
24 182 1
24 244 1
24 272 1
25 25 1
25 57 1
25 101 1
25 111 1
25 170 1
25 183 1
25 245 1
25 273 1
26 26 1
26 58 1
26 102 1
26 112 1
26 169 1
26 170 1
26 184 1
26 246 1
26 274 1
27 27 1
27 59 1
27 103 1
27 113 1
27 172 1
27 185 1
27 247 1
27 275 1
28 28 1
28 60 1
28 104 1
28 114 1
28 171 1
28 172 1
28 186 1
28 248 1
28 276 1
29 29 1
29 61 1
29 105 1
29 115 1
29 174 1
29 187 1
29 249 1
29 277 1
30 30 1
30 62 1
30 106 1
30 116 1
30 173 1
30 174 1
30 188 1
30 250 1
30 278 1
31 31 1
31 63 1
31 107 1
31 117 1
31 176 1
31 189 1
31 251 1
31 279 1
32 32 1
32 64 1
32 108 1
32 118 1
32 175 1
32 176 1
32 190 1
32 252 1
32 280 1
33 33 1
33 65 1
33 73 1
33 119 1
33 178 1
33 191 1
33 217 1
33 281 1
34 34 1
34 66 1
34 74 1
34 120 1
34 177 1
34 178 1
34 192 1
34 218 1
34 282 1
35 35 1
35 67 1
35 75 1
35 121 1
35 180 1
35 193 1
35 219 1
35 283 1
36 36 1
36 68 1
36 76 1
36 122 1
36 179 1
36 180 1
36 194 1
36 220 1
36 284 1
37 1 1
37 57 1
37 93 1
37 117 1
37 147 1
37 182 1
37 225 1
37 255 1
38 2 1
38 58 1
38 94 1
38 118 1
38 148 1
38 181 1
38 182 1
38 226 1
38 256 1
39 3 1
39 59 1
39 95 1
39 119 1
39 149 1
39 184 1
39 227 1
39 257 1
40 4 1
40 60 1
40 96 1
40 120 1
40 150 1
40 183 1
40 184 1
40 228 1
40 258 1
41 5 1
41 61 1
41 97 1
41 121 1
41 151 1
41 186 1
41 229 1
41 259 1
42 6 1
42 62 1
42 98 1
42 122 1
42 152 1
42 185 1
42 186 1
42 230 1
42 260 1
43 7 1
43 63 1
43 99 1
43 123 1
43 153 1
43 188 1
43 231 1
43 261 1
44 8 1
44 64 1
44 100 1
44 124 1
44 154 1
44 187 1
44 188 1
44 232 1
44 262 1
45 9 1
45 65 1
45 101 1
45 125 1
45 155 1
45 190 1
45 233 1
45 263 1
46 10 1
46 66 1
46 102 1
46 126 1
46 156 1
46 189 1
46 190 1
46 234 1
46 264 1
47 11 1
47 67 1
47 103 1
47 127 1
47 157 1
47 192 1
47 235 1
47 265 1
48 12 1
48 68 1
48 104 1
48 128 1
48 158 1
48 191 1
48 192 1
48 236 1
48 266 1
49 13 1
49 69 1
49 105 1
49 129 1
49 159 1
49 194 1
49 237 1
49 267 1
50 14 1
50 70 1
50 106 1
50 130 1
50 160 1
50 193 1
50 194 1
50 238 1
50 268 1
51 15 1
51 71 1
51 107 1
51 131 1
51 161 1
51 196 1
51 239 1
51 269 1
52 16 1
52 72 1
52 108 1
52 132 1
52 162 1
52 195 1
52 196 1
52 240 1
52 270 1
53 17 1
53 37 1
53 73 1
53 133 1
53 163 1
53 198 1
53 241 1
53 271 1
54 18 1
54 38 1
54 74 1
54 134 1
54 164 1
54 197 1
54 198 1
54 242 1
54 272 1
55 19 1
55 39 1
55 75 1
55 135 1
55 165 1
55 200 1
55 243 1
55 273 1
56 20 1
56 40 1
56 76 1
56 136 1
56 166 1
56 199 1
56 200 1
56 244 1
56 274 1
57 21 1
57 41 1
57 77 1
57 137 1
57 167 1
57 202 1
57 245 1
57 275 1
58 22 1
58 42 1
58 78 1
58 138 1
58 168 1
58 201 1
58 202 1
58 246 1
58 276 1
59 23 1
59 43 1
59 79 1
59 139 1
59 169 1
59 204 1
59 247 1
59 277 1
60 24 1
60 44 1
60 80 1
60 140 1
60 170 1
60 203 1
60 204 1
60 248 1
60 278 1
61 25 1
61 45 1
61 81 1
61 141 1
61 171 1
61 206 1
61 249 1
61 279 1
62 26 1
62 46 1
62 82 1
62 142 1
62 172 1
62 205 1
62 206 1
62 250 1
62 280 1
63 27 1
63 47 1
63 83 1
63 143 1
63 173 1
63 208 1
63 251 1
63 281 1
64 28 1
64 48 1
64 84 1
64 144 1
64 174 1
64 207 1
64 208 1
64 252 1
64 282 1
65 29 1
65 49 1
65 85 1
65 109 1
65 175 1
65 210 1
65 217 1
65 283 1
66 30 1
66 50 1
66 86 1
66 110 1
66 176 1
66 209 1
66 210 1
66 218 1
66 284 1
67 31 1
67 51 1
67 87 1
67 111 1
67 177 1
67 212 1
67 219 1
67 285 1
68 32 1
68 52 1
68 88 1
68 112 1
68 178 1
68 211 1
68 212 1
68 220 1
68 286 1
69 33 1
69 53 1
69 89 1
69 113 1
69 179 1
69 214 1
69 221 1
69 287 1
70 34 1
70 54 1
70 90 1
70 114 1
70 180 1
70 213 1
70 214 1
70 222 1
70 288 1
71 35 1
71 55 1
71 91 1
71 115 1
71 145 1
71 216 1
71 223 1
71 253 1
72 36 1
72 56 1
72 92 1
72 116 1
72 146 1
72 215 1
72 216 1
72 224 1
72 254 1
73 1 1
73 63 1
73 87 1
73 121 1
73 159 1
73 207 1
73 218 1
73 265 1
74 2 1
74 64 1
74 88 1
74 122 1
74 160 1
74 208 1
74 217 1
74 218 1
74 266 1
75 3 1
75 65 1
75 89 1
75 123 1
75 161 1
75 209 1
75 220 1
75 267 1
76 4 1
76 66 1
76 90 1
76 124 1
76 162 1
76 210 1
76 219 1
76 220 1
76 268 1
77 5 1
77 67 1
77 91 1
77 125 1
77 163 1
77 211 1
77 222 1
77 269 1
78 6 1
78 68 1
78 92 1
78 126 1
78 164 1
78 212 1
78 221 1
78 222 1
78 270 1
79 7 1
79 69 1
79 93 1
79 127 1
79 165 1
79 213 1
79 224 1
79 271 1
80 8 1
80 70 1
80 94 1
80 128 1
80 166 1
80 214 1
80 223 1
80 224 1
80 272 1
81 9 1
81 71 1
81 95 1
81 129 1
81 167 1
81 215 1
81 226 1
81 273 1
82 10 1
82 72 1
82 96 1
82 130 1
82 168 1
82 216 1
82 225 1
82 226 1
82 274 1
83 11 1
83 37 1
83 97 1
83 131 1
83 169 1
83 181 1
83 228 1
83 275 1
84 12 1
84 38 1
84 98 1
84 132 1
84 170 1
84 182 1
84 227 1
84 228 1
84 276 1
85 13 1
85 39 1
85 99 1
85 133 1
85 171 1
85 183 1
85 230 1
85 277 1
86 14 1
86 40 1
86 100 1
86 134 1
86 172 1
86 184 1
86 229 1
86 230 1
86 278 1
87 15 1
87 41 1
87 101 1
87 135 1
87 173 1
87 185 1
87 232 1
87 279 1
88 16 1
88 42 1
88 102 1
88 136 1
88 174 1
88 186 1
88 231 1
88 232 1
88 280 1
89 17 1
89 43 1
89 103 1
89 137 1
89 175 1
89 187 1
89 234 1
89 281 1
90 18 1
90 44 1
90 104 1
90 138 1
90 176 1
90 188 1
90 233 1
90 234 1
90 282 1
91 19 1
91 45 1
91 105 1
91 139 1
91 177 1
91 189 1
91 236 1
91 283 1
92 20 1
92 46 1
92 106 1
92 140 1
92 178 1
92 190 1
92 235 1
92 236 1
92 284 1
93 21 1
93 47 1
93 107 1
93 141 1
93 179 1
93 191 1
93 238 1
93 285 1
94 22 1
94 48 1
94 108 1
94 142 1
94 180 1
94 192 1
94 237 1
94 238 1
94 286 1
95 23 1
95 49 1
95 73 1
95 143 1
95 145 1
95 193 1
95 240 1
95 287 1
96 24 1
96 50 1
96 74 1
96 144 1
96 146 1
96 194 1
96 239 1
96 240 1
96 288 1
97 25 1
97 51 1
97 75 1
97 109 1
97 147 1
97 195 1
97 242 1
97 253 1
98 26 1
98 52 1
98 76 1
98 110 1
98 148 1
98 196 1
98 241 1
98 242 1
98 254 1
99 27 1
99 53 1
99 77 1
99 111 1
99 149 1
99 197 1
99 244 1
99 255 1
100 28 1
100 54 1
100 78 1
100 112 1
100 150 1
100 198 1
100 243 1
100 244 1
100 256 1
101 29 1
101 55 1
101 79 1
101 113 1
101 151 1
101 199 1
101 246 1
101 257 1
102 30 1
102 56 1
102 80 1
102 114 1
102 152 1
102 200 1
102 245 1
102 246 1
102 258 1
103 31 1
103 57 1
103 81 1
103 115 1
103 153 1
103 201 1
103 248 1
103 259 1
104 32 1
104 58 1
104 82 1
104 116 1
104 154 1
104 202 1
104 247 1
104 248 1
104 260 1
105 33 1
105 59 1
105 83 1
105 117 1
105 155 1
105 203 1
105 250 1
105 261 1
106 34 1
106 60 1
106 84 1
106 118 1
106 156 1
106 204 1
106 249 1
106 250 1
106 262 1
107 35 1
107 61 1
107 85 1
107 119 1
107 157 1
107 205 1
107 252 1
107 263 1
108 36 1
108 62 1
108 86 1
108 120 1
108 158 1
108 206 1
108 251 1
108 252 1
108 264 1
