%%MatrixMarket matrix coordinate integer general
% GF(4) labels 0,1,2=omega,3=omega+1; arithmetic is NOT integer arithmetic.
% Coordinate indices are 1-based; omitted entries are zero.
54 144 432
1 1 1
1 35 1
1 39 1
1 62 1
1 73 2
1 98 1
1 111 1
1 143 1
2 2 1
2 36 1
2 40 1
2 63 1
2 74 2
2 99 1
2 112 1
2 144 1
3 3 1
3 19 1
3 41 1
3 64 1
3 75 2
3 100 1
3 113 1
3 127 1
4 4 1
4 20 1
4 42 1
4 65 1
4 76 2
4 101 1
4 114 1
4 128 1
5 5 1
5 21 1
5 43 1
5 66 1
5 77 2
5 102 1
5 115 1
5 129 1
6 6 1
6 22 1
6 44 1
6 67 1
6 78 2
6 103 1
6 116 1
6 130 1
7 7 1
7 23 1
7 45 1
7 68 1
7 79 2
7 104 1
7 117 1
7 131 1
8 8 1
8 24 1
8 46 1
8 69 1
8 80 2
8 105 1
8 118 1
8 132 1
9 9 1
9 25 1
9 47 1
9 70 1
9 81 2
9 106 1
9 119 1
9 133 1
10 10 1
10 26 1
10 48 1
10 71 1
10 82 2
10 107 1
10 120 1
10 134 1
11 11 1
11 27 1
11 49 1
11 72 1
11 83 2
11 108 1
11 121 1
11 135 1
12 12 1
12 28 1
12 50 1
12 55 1
12 84 2
12 91 1
12 122 1
12 136 1
13 13 1
13 29 1
13 51 1
13 56 1
13 85 2
13 92 1
13 123 1
13 137 1
14 14 1
14 30 1
14 52 1
14 57 1
14 86 2
14 93 1
14 124 1
14 138 1
15 15 1
15 31 1
15 53 1
15 58 1
15 87 2
15 94 1
15 125 1
15 139 1
16 16 1
16 32 1
16 54 1
16 59 1
16 88 2
16 95 1
16 126 1
16 140 1
17 17 1
17 33 1
17 37 1
17 60 1
17 89 2
17 96 1
17 109 1
17 141 1
18 18 1
18 34 1
18 38 1
18 61 1
18 90 2
18 97 1
18 110 1
18 142 1
19 1 1
19 29 1
19 47 1
19 59 1
19 74 1
19 91 2
19 113 1
19 128 1
20 2 1
20 30 1
20 48 1
20 60 1
20 75 1
20 92 2
20 114 1
20 129 1
21 3 1
21 31 1
21 49 1
21 61 1
21 76 1
21 93 2
21 115 1
21 130 1
22 4 1
22 32 1
22 50 1
22 62 1
22 77 1
22 94 2
22 116 1
22 131 1
23 5 1
23 33 1
23 51 1
23 63 1
23 78 1
23 95 2
23 117 1
23 132 1
24 6 1
24 34 1
24 52 1
24 64 1
24 79 1
24 96 2
24 118 1
24 133 1
25 7 1
25 35 1
25 53 1
25 65 1
25 80 1
25 97 2
25 119 1
25 134 1
26 8 1
26 36 1
26 54 1
26 66 1
26 81 1
26 98 2
26 120 1
26 135 1
27 9 1
27 19 1
27 37 1
27 67 1
27 82 1
27 99 2
27 121 1
27 136 1
28 10 1
28 20 1
28 38 1
28 68 1
28 83 1
28 100 2
28 122 1
28 137 1
29 11 1
29 21 1
29 39 1
29 69 1
29 84 1
29 101 2
29 123 1
29 138 1
30 12 1
30 22 1
30 40 1
30 70 1
30 85 1
30 102 2
30 124 1
30 139 1
31 13 1
31 23 1
31 41 1
31 71 1
31 86 1
31 103 2
31 125 1
31 140 1
32 14 1
32 24 1
32 42 1
32 72 1
32 87 1
32 104 2
32 126 1
32 141 1
33 15 1
33 25 1
33 43 1
33 55 1
33 88 1
33 105 2
33 109 1
33 142 1
34 16 1
34 26 1
34 44 1
34 56 1
34 89 1
34 106 2
34 110 1
34 143 1
35 17 1
35 27 1
35 45 1
35 57 1
35 90 1
35 107 2
35 111 1
35 144 1
36 18 1
36 28 1
36 46 1
36 58 1
36 73 1
36 108 2
36 112 1
36 127 1
37 1 1
37 32 1
37 44 1
37 61 1
37 80 1
37 104 1
37 109 2
37 133 1
38 2 1
38 33 1
38 45 1
38 62 1
38 81 1
38 105 1
38 110 2
38 134 1
39 3 1
39 34 1
39 46 1
39 63 1
39 82 1
39 106 1
39 111 2
39 135 1
40 4 1
40 35 1
40 47 1
40 64 1
40 83 1
40 107 1
40 112 2
40 136 1
41 5 1
41 36 1
41 48 1
41 65 1
41 84 1
41 108 1
41 113 2
41 137 1
42 6 1
42 19 1
42 49 1
42 66 1
42 85 1
42 91 1
42 114 2
42 138 1
43 7 1
43 20 1
43 50 1
43 67 1
43 86 1
43 92 1
43 115 2
43 139 1
44 8 1
44 21 1
44 51 1
44 68 1
44 87 1
44 93 1
44 116 2
44 140 1
45 9 1
45 22 1
45 52 1
45 69 1
45 88 1
45 94 1
45 117 2
45 141 1
46 10 1
46 23 1
46 53 1
46 70 1
46 89 1
46 95 1
46 118 2
46 142 1
47 11 1
47 24 1
47 54 1
47 71 1
47 90 1
47 96 1
47 119 2
47 143 1
48 12 1
48 25 1
48 37 1
48 72 1
48 73 1
48 97 1
48 120 2
48 144 1
49 13 1
49 26 1
49 38 1
49 55 1
49 74 1
49 98 1
49 121 2
49 127 1
50 14 1
50 27 1
50 39 1
50 56 1
50 75 1
50 99 1
50 122 2
50 128 1
51 15 1
51 28 1
51 40 1
51 57 1
51 76 1
51 100 1
51 123 2
51 129 1
52 16 1
52 29 1
52 41 1
52 58 1
52 77 1
52 101 1
52 124 2
52 130 1
53 17 1
53 30 1
53 42 1
53 59 1
53 78 1
53 102 1
53 125 2
53 131 1
54 18 1
54 31 1
54 43 1
54 60 1
54 79 1
54 103 1
54 126 2
54 132 1
