%%MatrixMarket matrix coordinate integer general
% GF(4) labels 0,1,2=omega,3=omega+1; arithmetic is NOT integer arithmetic.
% Coordinate indices are 1-based; omitted entries are zero.
36 144 594
1 20 2
1 27 3
1 36 3
1 73 1
1 74 2
1 75 1
1 76 1
1 83 3
1 111 2
1 112 1
1 113 2
1 115 1
1 121 1
1 122 1
1 129 1
1 135 3
1 136 1
1 144 1
2 19 3
2 21 2
2 28 3
2 74 1
2 75 2
2 76 1
2 77 1
2 84 3
2 112 2
2 113 1
2 114 2
2 116 1
2 122 1
2 123 1
2 127 1
2 130 1
2 136 3
2 137 1
3 20 3
3 22 2
3 29 3
3 75 1
3 76 2
3 77 1
3 78 1
3 85 3
3 113 2
3 114 1
3 115 2
3 117 1
3 123 1
3 124 1
3 128 1
3 131 1
3 137 3
3 138 1
4 21 3
4 23 2
4 30 3
4 76 1
4 77 2
4 78 1
4 79 1
4 86 3
4 114 2
4 115 1
4 116 2
4 118 1
4 124 1
4 125 1
4 129 1
4 132 1
4 138 3
4 139 1
5 22 3
5 24 2
5 31 3
5 77 1
5 78 2
5 79 1
5 80 1
5 87 3
5 115 2
5 116 1
5 117 2
5 119 1
5 125 1
5 126 1
5 130 1
5 133 1
5 139 3
5 140 1
6 23 3
6 25 2
6 32 3
6 78 1
6 79 2
6 80 1
6 81 1
6 88 3
6 109 1
6 116 2
6 117 1
6 118 2
6 120 1
6 126 1
6 131 1
6 134 1
6 140 3
6 141 1
7 24 3
7 26 2
7 33 3
7 79 1
7 80 2
7 81 1
7 82 1
7 89 3
7 109 1
7 110 1
7 117 2
7 118 1
7 119 2
7 121 1
7 132 1
7 135 1
7 141 3
7 142 1
8 25 3
8 27 2
8 34 3
8 80 1
8 81 2
8 82 1
8 83 1
8 90 3
8 110 1
8 111 1
8 118 2
8 119 1
8 120 2
8 122 1
8 133 1
8 136 1
8 142 3
8 143 1
9 26 3
9 28 2
9 35 3
9 73 3
9 81 1
9 82 2
9 83 1
9 84 1
9 111 1
9 112 1
9 119 2
9 120 1
9 121 2
9 123 1
9 134 1
9 137 1
9 143 3
9 144 1
10 27 3
10 29 2
10 36 3
10 74 3
10 82 1
10 83 2
10 84 1
10 85 1
10 112 1
10 113 1
10 120 2
10 121 1
10 122 2
10 124 1
10 127 1
10 135 1
10 138 1
10 144 3
11 19 3
11 28 3
11 30 2
11 75 3
11 83 1
11 84 2
11 85 1
11 86 1
11 113 1
11 114 1
11 121 2
11 122 1
11 123 2
11 125 1
11 127 3
11 128 1
11 136 1
11 139 1
12 20 3
12 29 3
12 31 2
12 76 3
12 84 1
12 85 2
12 86 1
12 87 1
12 114 1
12 115 1
12 122 2
12 123 1
12 124 2
12 126 1
12 128 3
12 129 1
12 137 1
12 140 1
13 21 3
13 30 3
13 32 2
13 77 3
13 85 1
13 86 2
13 87 1
13 88 1
13 109 1
13 115 1
13 116 1
13 123 2
13 124 1
13 125 2
13 129 3
13 130 1
13 138 1
13 141 1
14 22 3
14 31 3
14 33 2
14 78 3
14 86 1
14 87 2
14 88 1
14 89 1
14 110 1
14 116 1
14 117 1
14 124 2
14 125 1
14 126 2
14 130 3
14 131 1
14 139 1
14 142 1
15 23 3
15 32 3
15 34 2
15 79 3
15 87 1
15 88 2
15 89 1
15 90 1
15 109 2
15 111 1
15 117 1
15 118 1
15 125 2
15 126 1
15 131 3
15 132 1
15 140 1
15 143 1
16 24 3
16 33 3
16 35 2
16 73 1
16 80 3
16 88 1
16 89 2
16 90 1
16 109 1
16 110 2
16 112 1
16 118 1
16 119 1
16 126 2
16 132 3
16 133 1
16 141 1
16 144 1
17 25 3
17 34 3
17 36 2
17 73 1
17 74 1
17 81 3
17 89 1
17 90 2
17 109 2
17 110 1
17 111 2
17 113 1
17 119 1
17 120 1
17 127 1
17 133 3
17 134 1
17 142 1
18 19 2
18 26 3
18 35 3
18 73 2
18 74 1
18 75 1
18 82 3
18 90 1
18 110 2
18 111 1
18 112 2
18 114 1
18 120 1
18 121 1
18 128 1
18 134 3
18 135 1
18 143 1
19 74 2
19 75 3
19 76 2
19 92 3
19 99 1
19 108 1
19 112 2
19 113 1
19 115 2
19 121 1
19 122 3
19 128 3
19 129 2
19 136 3
19 137 3
20 75 2
20 76 3
20 77 2
20 91 1
20 93 3
20 100 1
20 113 2
20 114 1
20 116 2
20 122 1
20 123 3
20 129 3
20 130 2
20 137 3
20 138 3
21 76 2
21 77 3
21 78 2
21 92 1
21 94 3
21 101 1
21 114 2
21 115 1
21 117 2
21 123 1
21 124 3
21 130 3
21 131 2
21 138 3
21 139 3
22 77 2
22 78 3
22 79 2
22 93 1
22 95 3
22 102 1
22 115 2
22 116 1
22 118 2
22 124 1
22 125 3
22 131 3
22 132 2
22 139 3
22 140 3
23 78 2
23 79 3
23 80 2
23 94 1
23 96 3
23 103 1
23 116 2
23 117 1
23 119 2
23 125 1
23 126 3
23 132 3
23 133 2
23 140 3
23 141 3
24 79 2
24 80 3
24 81 2
24 95 1
24 97 3
24 104 1
24 109 3
24 117 2
24 118 1
24 120 2
24 126 1
24 133 3
24 134 2
24 141 3
24 142 3
25 80 2
25 81 3
25 82 2
25 96 1
25 98 3
25 105 1
25 109 1
25 110 3
25 118 2
25 119 1
25 121 2
25 134 3
25 135 2
25 142 3
25 143 3
26 81 2
26 82 3
26 83 2
26 97 1
26 99 3
26 106 1
26 110 1
26 111 3
26 119 2
26 120 1
26 122 2
26 135 3
26 136 2
26 143 3
26 144 3
27 82 2
27 83 3
27 84 2
27 98 1
27 100 3
27 107 1
27 111 1
27 112 3
27 120 2
27 121 1
27 123 2
27 127 3
27 136 3
27 137 2
27 144 3
28 83 2
28 84 3
28 85 2
28 99 1
28 101 3
28 108 1
28 112 1
28 113 3
28 121 2
28 122 1
28 124 2
28 127 3
28 128 3
28 137 3
28 138 2
29 84 2
29 85 3
29 86 2
29 91 1
29 100 1
29 102 3
29 113 1
29 114 3
29 122 2
29 123 1
29 125 2
29 128 3
29 129 3
29 138 3
29 139 2
30 85 2
30 86 3
30 87 2
30 92 1
30 101 1
30 103 3
30 114 1
30 115 3
30 123 2
30 124 1
30 126 2
30 129 3
30 130 3
30 139 3
30 140 2
31 86 2
31 87 3
31 88 2
31 93 1
31 102 1
31 104 3
31 109 2
31 115 1
31 116 3
31 124 2
31 125 1
31 130 3
31 131 3
31 140 3
31 141 2
32 87 2
32 88 3
32 89 2
32 94 1
32 103 1
32 105 3
32 110 2
32 116 1
32 117 3
32 125 2
32 126 1
32 131 3
32 132 3
32 141 3
32 142 2
33 88 2
33 89 3
33 90 2
33 95 1
33 104 1
33 106 3
33 109 1
33 111 2
33 117 1
33 118 3
33 126 2
33 132 3
33 133 3
33 142 3
33 143 2
34 73 2
34 89 2
34 90 3
34 96 1
34 105 1
34 107 3
34 109 2
34 110 1
34 112 2
34 118 1
34 119 3
34 133 3
34 134 3
34 143 3
34 144 2
35 73 3
35 74 2
35 90 2
35 97 1
35 106 1
35 108 3
35 110 2
35 111 1
35 113 2
35 119 1
35 120 3
35 127 2
35 134 3
35 135 3
35 144 3
36 73 2
36 74 3
36 75 2
36 91 3
36 98 1
36 107 1
36 111 2
36 112 1
36 114 2
36 120 1
36 121 3
36 127 3
36 128 2
36 135 3
36 136 3
