%%MatrixMarket matrix coordinate integer general
% Binary matrix over GF(2).
% Coordinate indices are 1-based; omitted entries are zero.
132 352 1122
1 2 1
1 45 1
1 89 1
1 133 1
1 177 1
1 221 1
1 265 1
1 309 1
2 1 1
2 2 1
2 46 1
2 90 1
2 134 1
2 178 1
2 222 1
2 266 1
2 310 1
3 4 1
3 47 1
3 91 1
3 135 1
3 179 1
3 223 1
3 267 1
3 311 1
4 3 1
4 4 1
4 48 1
4 92 1
4 136 1
4 180 1
4 224 1
4 268 1
4 312 1
5 6 1
5 49 1
5 93 1
5 137 1
5 181 1
5 225 1
5 269 1
5 313 1
6 5 1
6 6 1
6 50 1
6 94 1
6 138 1
6 182 1
6 226 1
6 270 1
6 314 1
7 8 1
7 51 1
7 95 1
7 139 1
7 183 1
7 227 1
7 271 1
7 315 1
8 7 1
8 8 1
8 52 1
8 96 1
8 140 1
8 184 1
8 228 1
8 272 1
8 316 1
9 10 1
9 53 1
9 97 1
9 141 1
9 185 1
9 229 1
9 273 1
9 317 1
10 9 1
10 10 1
10 54 1
10 98 1
10 142 1
10 186 1
10 230 1
10 274 1
10 318 1
11 12 1
11 55 1
11 99 1
11 143 1
11 187 1
11 231 1
11 275 1
11 319 1
12 11 1
12 12 1
12 56 1
12 100 1
12 144 1
12 188 1
12 232 1
12 276 1
12 320 1
13 14 1
13 57 1
13 101 1
13 145 1
13 189 1
13 233 1
13 277 1
13 321 1
14 13 1
14 14 1
14 58 1
14 102 1
14 146 1
14 190 1
14 234 1
14 278 1
14 322 1
15 16 1
15 59 1
15 103 1
15 147 1
15 191 1
15 235 1
15 279 1
15 323 1
16 15 1
16 16 1
16 60 1
16 104 1
16 148 1
16 192 1
16 236 1
16 280 1
16 324 1
17 18 1
17 61 1
17 105 1
17 149 1
17 193 1
17 237 1
17 281 1
17 325 1
18 17 1
18 18 1
18 62 1
18 106 1
18 150 1
18 194 1
18 238 1
18 282 1
18 326 1
19 20 1
19 63 1
19 107 1
19 151 1
19 195 1
19 239 1
19 283 1
19 327 1
20 19 1
20 20 1
20 64 1
20 108 1
20 152 1
20 196 1
20 240 1
20 284 1
20 328 1
21 22 1
21 65 1
21 109 1
21 153 1
21 197 1
21 241 1
21 285 1
21 329 1
22 21 1
22 22 1
22 66 1
22 110 1
22 154 1
22 198 1
22 242 1
22 286 1
22 330 1
23 24 1
23 67 1
23 111 1
23 155 1
23 199 1
23 243 1
23 287 1
23 331 1
24 23 1
24 24 1
24 68 1
24 112 1
24 156 1
24 200 1
24 244 1
24 288 1
24 332 1
25 26 1
25 69 1
25 113 1
25 157 1
25 201 1
25 245 1
25 289 1
25 333 1
26 25 1
26 26 1
26 70 1
26 114 1
26 158 1
26 202 1
26 246 1
26 290 1
26 334 1
27 28 1
27 71 1
27 115 1
27 159 1
27 203 1
27 247 1
27 291 1
27 335 1
28 27 1
28 28 1
28 72 1
28 116 1
28 160 1
28 204 1
28 248 1
28 292 1
28 336 1
29 30 1
29 73 1
29 117 1
29 161 1
29 205 1
29 249 1
29 293 1
29 337 1
30 29 1
30 30 1
30 74 1
30 118 1
30 162 1
30 206 1
30 250 1
30 294 1
30 338 1
31 32 1
31 75 1
31 119 1
31 163 1
31 207 1
31 251 1
31 295 1
31 339 1
32 31 1
32 32 1
32 76 1
32 120 1
32 164 1
32 208 1
32 252 1
32 296 1
32 340 1
33 34 1
33 77 1
33 121 1
33 165 1
33 209 1
33 253 1
33 297 1
33 341 1
34 33 1
34 34 1
34 78 1
34 122 1
34 166 1
34 210 1
34 254 1
34 298 1
34 342 1
35 36 1
35 79 1
35 123 1
35 167 1
35 211 1
35 255 1
35 299 1
35 343 1
36 35 1
36 36 1
36 80 1
36 124 1
36 168 1
36 212 1
36 256 1
36 300 1
36 344 1
37 38 1
37 81 1
37 125 1
37 169 1
37 213 1
37 257 1
37 301 1
37 345 1
38 37 1
38 38 1
38 82 1
38 126 1
38 170 1
38 214 1
38 258 1
38 302 1
38 346 1
39 40 1
39 83 1
39 127 1
39 171 1
39 215 1
39 259 1
39 303 1
39 347 1
40 39 1
40 40 1
40 84 1
40 128 1
40 172 1
40 216 1
40 260 1
40 304 1
40 348 1
41 42 1
41 85 1
41 129 1
41 173 1
41 217 1
41 261 1
41 305 1
41 349 1
42 41 1
42 42 1
42 86 1
42 130 1
42 174 1
42 218 1
42 262 1
42 306 1
42 350 1
43 44 1
43 87 1
43 131 1
43 175 1
43 219 1
43 263 1
43 307 1
43 351 1
44 43 1
44 44 1
44 88 1
44 132 1
44 176 1
44 220 1
44 264 1
44 308 1
44 352 1
45 1 1
45 88 1
45 113 1
45 155 1
45 179 1
45 225 1
45 271 1
45 341 1
46 2 1
46 87 1
46 88 1
46 114 1
46 156 1
46 180 1
46 226 1
46 272 1
46 342 1
47 3 1
47 46 1
47 115 1
47 157 1
47 181 1
47 227 1
47 273 1
47 343 1
48 4 1
48 45 1
48 46 1
48 116 1
48 158 1
48 182 1
48 228 1
48 274 1
48 344 1
49 5 1
49 48 1
49 117 1
49 159 1
49 183 1
49 229 1
49 275 1
49 345 1
50 6 1
50 47 1
50 48 1
50 118 1
50 160 1
50 184 1
50 230 1
50 276 1
50 346 1
51 7 1
51 50 1
51 119 1
51 161 1
51 185 1
51 231 1
51 277 1
51 347 1
52 8 1
52 49 1
52 50 1
52 120 1
52 162 1
52 186 1
52 232 1
52 278 1
52 348 1
53 9 1
53 52 1
53 121 1
53 163 1
53 187 1
53 233 1
53 279 1
53 349 1
54 10 1
54 51 1
54 52 1
54 122 1
54 164 1
54 188 1
54 234 1
54 280 1
54 350 1
55 11 1
55 54 1
55 123 1
55 165 1
55 189 1
55 235 1
55 281 1
55 351 1
56 12 1
56 53 1
56 54 1
56 124 1
56 166 1
56 190 1
56 236 1
56 282 1
56 352 1
57 13 1
57 56 1
57 125 1
57 167 1
57 191 1
57 237 1
57 283 1
57 309 1
58 14 1
58 55 1
58 56 1
58 126 1
58 168 1
58 192 1
58 238 1
58 284 1
58 310 1
59 15 1
59 58 1
59 127 1
59 169 1
59 193 1
59 239 1
59 285 1
59 311 1
60 16 1
60 57 1
60 58 1
60 128 1
60 170 1
60 194 1
60 240 1
60 286 1
60 312 1
61 17 1
61 60 1
61 129 1
61 171 1
61 195 1
61 241 1
61 287 1
61 313 1
62 18 1
62 59 1
62 60 1
62 130 1
62 172 1
62 196 1
62 242 1
62 288 1
62 314 1
63 19 1
63 62 1
63 131 1
63 173 1
63 197 1
63 243 1
63 289 1
63 315 1
64 20 1
64 61 1
64 62 1
64 132 1
64 174 1
64 198 1
64 244 1
64 290 1
64 316 1
65 21 1
65 64 1
65 89 1
65 175 1
65 199 1
65 245 1
65 291 1
65 317 1
66 22 1
66 63 1
66 64 1
66 90 1
66 176 1
66 200 1
66 246 1
66 292 1
66 318 1
67 23 1
67 66 1
67 91 1
67 133 1
67 201 1
67 247 1
67 293 1
67 319 1
68 24 1
68 65 1
68 66 1
68 92 1
68 134 1
68 202 1
68 248 1
68 294 1
68 320 1
69 25 1
69 68 1
69 93 1
69 135 1
69 203 1
69 249 1
69 295 1
69 321 1
70 26 1
70 67 1
70 68 1
70 94 1
70 136 1
70 204 1
70 250 1
70 296 1
70 322 1
71 27 1
71 70 1
71 95 1
71 137 1
71 205 1
71 251 1
71 297 1
71 323 1
72 28 1
72 69 1
72 70 1
72 96 1
72 138 1
72 206 1
72 252 1
72 298 1
72 324 1
73 29 1
73 72 1
73 97 1
73 139 1
73 207 1
73 253 1
73 299 1
73 325 1
74 30 1
74 71 1
74 72 1
74 98 1
74 140 1
74 208 1
74 254 1
74 300 1
74 326 1
75 31 1
75 74 1
75 99 1
75 141 1
75 209 1
75 255 1
75 301 1
75 327 1
76 32 1
76 73 1
76 74 1
76 100 1
76 142 1
76 210 1
76 256 1
76 302 1
76 328 1
77 33 1
77 76 1
77 101 1
77 143 1
77 211 1
77 257 1
77 303 1
77 329 1
78 34 1
78 75 1
78 76 1
78 102 1
78 144 1
78 212 1
78 258 1
78 304 1
78 330 1
79 35 1
79 78 1
79 103 1
79 145 1
79 213 1
79 259 1
79 305 1
79 331 1
80 36 1
80 77 1
80 78 1
80 104 1
80 146 1
80 214 1
80 260 1
80 306 1
80 332 1
81 37 1
81 80 1
81 105 1
81 147 1
81 215 1
81 261 1
81 307 1
81 333 1
82 38 1
82 79 1
82 80 1
82 106 1
82 148 1
82 216 1
82 262 1
82 308 1
82 334 1
83 39 1
83 82 1
83 107 1
83 149 1
83 217 1
83 263 1
83 265 1
83 335 1
84 40 1
84 81 1
84 82 1
84 108 1
84 150 1
84 218 1
84 264 1
84 266 1
84 336 1
85 41 1
85 84 1
85 109 1
85 151 1
85 219 1
85 221 1
85 267 1
85 337 1
86 42 1
86 83 1
86 84 1
86 110 1
86 152 1
86 220 1
86 222 1
86 268 1
86 338 1
87 43 1
87 86 1
87 111 1
87 153 1
87 177 1
87 223 1
87 269 1
87 339 1
88 44 1
88 85 1
88 86 1
88 112 1
88 154 1
88 178 1
88 224 1
88 270 1
88 340 1
89 1 1
89 65 1
89 112 1
89 157 1
89 211 1
89 249 1
89 297 1
89 325 1
90 2 1
90 66 1
90 111 1
90 112 1
90 158 1
90 212 1
90 250 1
90 298 1
90 326 1
91 3 1
91 67 1
91 114 1
91 159 1
91 213 1
91 251 1
91 299 1
91 327 1
92 4 1
92 68 1
92 113 1
92 114 1
92 160 1
92 214 1
92 252 1
92 300 1
92 328 1
93 5 1
93 69 1
93 116 1
93 161 1
93 215 1
93 253 1
93 301 1
93 329 1
94 6 1
94 70 1
94 115 1
94 116 1
94 162 1
94 216 1
94 254 1
94 302 1
94 330 1
95 7 1
95 71 1
95 118 1
95 163 1
95 217 1
95 255 1
95 303 1
95 331 1
96 8 1
96 72 1
96 117 1
96 118 1
96 164 1
96 218 1
96 256 1
96 304 1
96 332 1
97 9 1
97 73 1
97 120 1
97 165 1
97 219 1
97 257 1
97 305 1
97 333 1
98 10 1
98 74 1
98 119 1
98 120 1
98 166 1
98 220 1
98 258 1
98 306 1
98 334 1
99 11 1
99 75 1
99 122 1
99 167 1
99 177 1
99 259 1
99 307 1
99 335 1
100 12 1
100 76 1
100 121 1
100 122 1
100 168 1
100 178 1
100 260 1
100 308 1
100 336 1
101 13 1
101 77 1
101 124 1
101 169 1
101 179 1
101 261 1
101 265 1
101 337 1
102 14 1
102 78 1
102 123 1
102 124 1
102 170 1
102 180 1
102 262 1
102 266 1
102 338 1
103 15 1
103 79 1
103 126 1
103 171 1
103 181 1
103 263 1
103 267 1
103 339 1
104 16 1
104 80 1
104 125 1
104 126 1
104 172 1
104 182 1
104 264 1
104 268 1
104 340 1
105 17 1
105 81 1
105 128 1
105 173 1
105 183 1
105 221 1
105 269 1
105 341 1
106 18 1
106 82 1
106 127 1
106 128 1
106 174 1
106 184 1
106 222 1
106 270 1
106 342 1
107 19 1
107 83 1
107 130 1
107 175 1
107 185 1
107 223 1
107 271 1
107 343 1
108 20 1
108 84 1
108 129 1
108 130 1
108 176 1
108 186 1
108 224 1
108 272 1
108 344 1
109 21 1
109 85 1
109 132 1
109 133 1
109 187 1
109 225 1
109 273 1
109 345 1
110 22 1
110 86 1
110 131 1
110 132 1
110 134 1
110 188 1
110 226 1
110 274 1
110 346 1
111 23 1
111 87 1
111 90 1
111 135 1
111 189 1
111 227 1
111 275 1
111 347 1
112 24 1
112 88 1
112 89 1
112 90 1
112 136 1
112 190 1
112 228 1
112 276 1
112 348 1
113 25 1
113 45 1
113 92 1
113 137 1
113 191 1
113 229 1
113 277 1
113 349 1
114 26 1
114 46 1
114 91 1
114 92 1
114 138 1
114 192 1
114 230 1
114 278 1
114 350 1
115 27 1
115 47 1
115 94 1
115 139 1
115 193 1
115 231 1
115 279 1
115 351 1
116 28 1
116 48 1
116 93 1
116 94 1
116 140 1
116 194 1
116 232 1
116 280 1
116 352 1
117 29 1
117 49 1
117 96 1
117 141 1
117 195 1
117 233 1
117 281 1
117 309 1
118 30 1
118 50 1
118 95 1
118 96 1
118 142 1
118 196 1
118 234 1
118 282 1
118 310 1
119 31 1
119 51 1
119 98 1
119 143 1
119 197 1
119 235 1
119 283 1
119 311 1
120 32 1
120 52 1
120 97 1
120 98 1
120 144 1
120 198 1
120 236 1
120 284 1
120 312 1
121 33 1
121 53 1
121 100 1
121 145 1
121 199 1
121 237 1
121 285 1
121 313 1
122 34 1
122 54 1
122 99 1
122 100 1
122 146 1
122 200 1
122 238 1
122 286 1
122 314 1
123 35 1
123 55 1
123 102 1
123 147 1
123 201 1
123 239 1
123 287 1
123 315 1
124 36 1
124 56 1
124 101 1
124 102 1
124 148 1
124 202 1
124 240 1
124 288 1
124 316 1
125 37 1
125 57 1
125 104 1
125 149 1
125 203 1
125 241 1
125 289 1
125 317 1
126 38 1
126 58 1
126 103 1
126 104 1
126 150 1
126 204 1
126 242 1
126 290 1
126 318 1
127 39 1
127 59 1
127 106 1
127 151 1
127 205 1
127 243 1
127 291 1
127 319 1
128 40 1
128 60 1
128 105 1
128 106 1
128 152 1
128 206 1
128 244 1
128 292 1
128 320 1
129 41 1
129 61 1
129 108 1
129 153 1
129 207 1
129 245 1
129 293 1
129 321 1
130 42 1
130 62 1
130 107 1
130 108 1
130 154 1
130 208 1
130 246 1
130 294 1
130 322 1
131 43 1
131 63 1
131 110 1
131 155 1
131 209 1
131 247 1
131 295 1
131 323 1
132 44 1
132 64 1
132 109 1
132 110 1
132 156 1
132 210 1
132 248 1
132 296 1
132 324 1
