%%MatrixMarket matrix coordinate integer general
% GF(4) labels 0,1,2=omega,3=omega+1; arithmetic is NOT integer arithmetic.
% Coordinate indices are 1-based; omitted entries are zero.
66 176 528
1 1 2
1 23 1
1 45 1
1 67 1
1 89 1
1 111 1
1 133 1
1 155 1
2 2 2
2 24 1
2 46 1
2 68 1
2 90 1
2 112 1
2 134 1
2 156 1
3 3 2
3 25 1
3 47 1
3 69 1
3 91 1
3 113 1
3 135 1
3 157 1
4 4 2
4 26 1
4 48 1
4 70 1
4 92 1
4 114 1
4 136 1
4 158 1
5 5 2
5 27 1
5 49 1
5 71 1
5 93 1
5 115 1
5 137 1
5 159 1
6 6 2
6 28 1
6 50 1
6 72 1
6 94 1
6 116 1
6 138 1
6 160 1
7 7 2
7 29 1
7 51 1
7 73 1
7 95 1
7 117 1
7 139 1
7 161 1
8 8 2
8 30 1
8 52 1
8 74 1
8 96 1
8 118 1
8 140 1
8 162 1
9 9 2
9 31 1
9 53 1
9 75 1
9 97 1
9 119 1
9 141 1
9 163 1
10 10 2
10 32 1
10 54 1
10 76 1
10 98 1
10 120 1
10 142 1
10 164 1
11 11 2
11 33 1
11 55 1
11 77 1
11 99 1
11 121 1
11 143 1
11 165 1
12 12 2
12 34 1
12 56 1
12 78 1
12 100 1
12 122 1
12 144 1
12 166 1
13 13 2
13 35 1
13 57 1
13 79 1
13 101 1
13 123 1
13 145 1
13 167 1
14 14 2
14 36 1
14 58 1
14 80 1
14 102 1
14 124 1
14 146 1
14 168 1
15 15 2
15 37 1
15 59 1
15 81 1
15 103 1
15 125 1
15 147 1
15 169 1
16 16 2
16 38 1
16 60 1
16 82 1
16 104 1
16 126 1
16 148 1
16 170 1
17 17 2
17 39 1
17 61 1
17 83 1
17 105 1
17 127 1
17 149 1
17 171 1
18 18 2
18 40 1
18 62 1
18 84 1
18 106 1
18 128 1
18 150 1
18 172 1
19 19 2
19 41 1
19 63 1
19 85 1
19 107 1
19 129 1
19 151 1
19 173 1
20 20 2
20 42 1
20 64 1
20 86 1
20 108 1
20 130 1
20 152 1
20 174 1
21 21 2
21 43 1
21 65 1
21 87 1
21 109 1
21 131 1
21 153 1
21 175 1
22 22 2
22 44 1
22 66 1
22 88 1
22 110 1
22 132 1
22 154 1
22 176 1
23 1 1
23 44 2
23 57 1
23 78 1
23 90 1
23 113 1
23 136 1
23 171 1
24 2 1
24 23 2
24 58 1
24 79 1
24 91 1
24 114 1
24 137 1
24 172 1
25 3 1
25 24 2
25 59 1
25 80 1
25 92 1
25 115 1
25 138 1
25 173 1
26 4 1
26 25 2
26 60 1
26 81 1
26 93 1
26 116 1
26 139 1
26 174 1
27 5 1
27 26 2
27 61 1
27 82 1
27 94 1
27 117 1
27 140 1
27 175 1
28 6 1
28 27 2
28 62 1
28 83 1
28 95 1
28 118 1
28 141 1
28 176 1
29 7 1
29 28 2
29 63 1
29 84 1
29 96 1
29 119 1
29 142 1
29 155 1
30 8 1
30 29 2
30 64 1
30 85 1
30 97 1
30 120 1
30 143 1
30 156 1
31 9 1
31 30 2
31 65 1
31 86 1
31 98 1
31 121 1
31 144 1
31 157 1
32 10 1
32 31 2
32 66 1
32 87 1
32 99 1
32 122 1
32 145 1
32 158 1
33 11 1
33 32 2
33 45 1
33 88 1
33 100 1
33 123 1
33 146 1
33 159 1
34 12 1
34 33 2
34 46 1
34 67 1
34 101 1
34 124 1
34 147 1
34 160 1
35 13 1
35 34 2
35 47 1
35 68 1
35 102 1
35 125 1
35 148 1
35 161 1
36 14 1
36 35 2
36 48 1
36 69 1
36 103 1
36 126 1
36 149 1
36 162 1
37 15 1
37 36 2
37 49 1
37 70 1
37 104 1
37 127 1
37 150 1
37 163 1
38 16 1
38 37 2
38 50 1
38 71 1
38 105 1
38 128 1
38 151 1
38 164 1
39 17 1
39 38 2
39 51 1
39 72 1
39 106 1
39 129 1
39 152 1
39 165 1
40 18 1
40 39 2
40 52 1
40 73 1
40 107 1
40 130 1
40 153 1
40 166 1
41 19 1
41 40 2
41 53 1
41 74 1
41 108 1
41 131 1
41 154 1
41 167 1
42 20 1
42 41 2
42 54 1
42 75 1
42 109 1
42 132 1
42 133 1
42 168 1
43 21 1
43 42 2
43 55 1
43 76 1
43 110 1
43 111 1
43 134 1
43 169 1
44 22 1
44 43 2
44 56 1
44 77 1
44 89 1
44 112 1
44 135 1
44 170 1
45 1 1
45 33 1
45 56 2
45 79 1
45 106 1
45 125 1
45 149 1
45 163 1
46 2 1
46 34 1
46 57 2
46 80 1
46 107 1
46 126 1
46 150 1
46 164 1
47 3 1
47 35 1
47 58 2
47 81 1
47 108 1
47 127 1
47 151 1
47 165 1
48 4 1
48 36 1
48 59 2
48 82 1
48 109 1
48 128 1
48 152 1
48 166 1
49 5 1
49 37 1
49 60 2
49 83 1
49 110 1
49 129 1
49 153 1
49 167 1
50 6 1
50 38 1
50 61 2
50 84 1
50 89 1
50 130 1
50 154 1
50 168 1
51 7 1
51 39 1
51 62 2
51 85 1
51 90 1
51 131 1
51 133 1
51 169 1
52 8 1
52 40 1
52 63 2
52 86 1
52 91 1
52 132 1
52 134 1
52 170 1
53 9 1
53 41 1
53 64 2
53 87 1
53 92 1
53 111 1
53 135 1
53 171 1
54 10 1
54 42 1
54 65 2
54 88 1
54 93 1
54 112 1
54 136 1
54 172 1
55 11 1
55 43 1
55 66 2
55 67 1
55 94 1
55 113 1
55 137 1
55 173 1
56 12 1
56 44 1
56 45 2
56 68 1
56 95 1
56 114 1
56 138 1
56 174 1
57 13 1
57 23 1
57 46 2
57 69 1
57 96 1
57 115 1
57 139 1
57 175 1
58 14 1
58 24 1
58 47 2
58 70 1
58 97 1
58 116 1
58 140 1
58 176 1
59 15 1
59 25 1
59 48 2
59 71 1
59 98 1
59 117 1
59 141 1
59 155 1
60 16 1
60 26 1
60 49 2
60 72 1
60 99 1
60 118 1
60 142 1
60 156 1
61 17 1
61 27 1
61 50 2
61 73 1
61 100 1
61 119 1
61 143 1
61 157 1
62 18 1
62 28 1
62 51 2
62 74 1
62 101 1
62 120 1
62 144 1
62 158 1
63 19 1
63 29 1
63 52 2
63 75 1
63 102 1
63 121 1
63 145 1
63 159 1
64 20 1
64 30 1
64 53 2
64 76 1
64 103 1
64 122 1
64 146 1
64 160 1
65 21 1
65 31 1
65 54 2
65 77 1
65 104 1
65 123 1
65 147 1
65 161 1
66 22 1
66 32 1
66 55 2
66 78 1
66 105 1
66 124 1
66 148 1
66 162 1
