%%MatrixMarket matrix coordinate integer general
% Binary matrix over GF(2).
% Coordinate indices are 1-based; omitted entries are zero.
132 352 1122
1 1 1
1 85 1
1 121 1
1 137 1
1 178 1
1 225 1
1 297 1
1 349 1
2 2 1
2 86 1
2 122 1
2 138 1
2 177 1
2 178 1
2 226 1
2 298 1
2 350 1
3 3 1
3 87 1
3 123 1
3 139 1
3 180 1
3 227 1
3 299 1
3 351 1
4 4 1
4 88 1
4 124 1
4 140 1
4 179 1
4 180 1
4 228 1
4 300 1
4 352 1
5 5 1
5 45 1
5 125 1
5 141 1
5 182 1
5 229 1
5 301 1
5 309 1
6 6 1
6 46 1
6 126 1
6 142 1
6 181 1
6 182 1
6 230 1
6 302 1
6 310 1
7 7 1
7 47 1
7 127 1
7 143 1
7 184 1
7 231 1
7 303 1
7 311 1
8 8 1
8 48 1
8 128 1
8 144 1
8 183 1
8 184 1
8 232 1
8 304 1
8 312 1
9 9 1
9 49 1
9 129 1
9 145 1
9 186 1
9 233 1
9 305 1
9 313 1
10 10 1
10 50 1
10 130 1
10 146 1
10 185 1
10 186 1
10 234 1
10 306 1
10 314 1
11 11 1
11 51 1
11 131 1
11 147 1
11 188 1
11 235 1
11 307 1
11 315 1
12 12 1
12 52 1
12 132 1
12 148 1
12 187 1
12 188 1
12 236 1
12 308 1
12 316 1
13 13 1
13 53 1
13 89 1
13 149 1
13 190 1
13 237 1
13 265 1
13 317 1
14 14 1
14 54 1
14 90 1
14 150 1
14 189 1
14 190 1
14 238 1
14 266 1
14 318 1
15 15 1
15 55 1
15 91 1
15 151 1
15 192 1
15 239 1
15 267 1
15 319 1
16 16 1
16 56 1
16 92 1
16 152 1
16 191 1
16 192 1
16 240 1
16 268 1
16 320 1
17 17 1
17 57 1
17 93 1
17 153 1
17 194 1
17 241 1
17 269 1
17 321 1
18 18 1
18 58 1
18 94 1
18 154 1
18 193 1
18 194 1
18 242 1
18 270 1
18 322 1
19 19 1
19 59 1
19 95 1
19 155 1
19 196 1
19 243 1
19 271 1
19 323 1
20 20 1
20 60 1
20 96 1
20 156 1
20 195 1
20 196 1
20 244 1
20 272 1
20 324 1
21 21 1
21 61 1
21 97 1
21 157 1
21 198 1
21 245 1
21 273 1
21 325 1
22 22 1
22 62 1
22 98 1
22 158 1
22 197 1
22 198 1
22 246 1
22 274 1
22 326 1
23 23 1
23 63 1
23 99 1
23 159 1
23 200 1
23 247 1
23 275 1
23 327 1
24 24 1
24 64 1
24 100 1
24 160 1
24 199 1
24 200 1
24 248 1
24 276 1
24 328 1
25 25 1
25 65 1
25 101 1
25 161 1
25 202 1
25 249 1
25 277 1
25 329 1
26 26 1
26 66 1
26 102 1
26 162 1
26 201 1
26 202 1
26 250 1
26 278 1
26 330 1
27 27 1
27 67 1
27 103 1
27 163 1
27 204 1
27 251 1
27 279 1
27 331 1
28 28 1
28 68 1
28 104 1
28 164 1
28 203 1
28 204 1
28 252 1
28 280 1
28 332 1
29 29 1
29 69 1
29 105 1
29 165 1
29 206 1
29 253 1
29 281 1
29 333 1
30 30 1
30 70 1
30 106 1
30 166 1
30 205 1
30 206 1
30 254 1
30 282 1
30 334 1
31 31 1
31 71 1
31 107 1
31 167 1
31 208 1
31 255 1
31 283 1
31 335 1
32 32 1
32 72 1
32 108 1
32 168 1
32 207 1
32 208 1
32 256 1
32 284 1
32 336 1
33 33 1
33 73 1
33 109 1
33 169 1
33 210 1
33 257 1
33 285 1
33 337 1
34 34 1
34 74 1
34 110 1
34 170 1
34 209 1
34 210 1
34 258 1
34 286 1
34 338 1
35 35 1
35 75 1
35 111 1
35 171 1
35 212 1
35 259 1
35 287 1
35 339 1
36 36 1
36 76 1
36 112 1
36 172 1
36 211 1
36 212 1
36 260 1
36 288 1
36 340 1
37 37 1
37 77 1
37 113 1
37 173 1
37 214 1
37 261 1
37 289 1
37 341 1
38 38 1
38 78 1
38 114 1
38 174 1
38 213 1
38 214 1
38 262 1
38 290 1
38 342 1
39 39 1
39 79 1
39 115 1
39 175 1
39 216 1
39 263 1
39 291 1
39 343 1
40 40 1
40 80 1
40 116 1
40 176 1
40 215 1
40 216 1
40 264 1
40 292 1
40 344 1
41 41 1
41 81 1
41 117 1
41 133 1
41 218 1
41 221 1
41 293 1
41 345 1
42 42 1
42 82 1
42 118 1
42 134 1
42 217 1
42 218 1
42 222 1
42 294 1
42 346 1
43 43 1
43 83 1
43 119 1
43 135 1
43 220 1
43 223 1
43 295 1
43 347 1
44 44 1
44 84 1
44 120 1
44 136 1
44 219 1
44 220 1
44 224 1
44 296 1
44 348 1
45 1 1
45 83 1
45 127 1
45 139 1
45 193 1
45 222 1
45 271 1
45 325 1
46 2 1
46 84 1
46 128 1
46 140 1
46 194 1
46 221 1
46 222 1
46 272 1
46 326 1
47 3 1
47 85 1
47 129 1
47 141 1
47 195 1
47 224 1
47 273 1
47 327 1
48 4 1
48 86 1
48 130 1
48 142 1
48 196 1
48 223 1
48 224 1
48 274 1
48 328 1
49 5 1
49 87 1
49 131 1
49 143 1
49 197 1
49 226 1
49 275 1
49 329 1
50 6 1
50 88 1
50 132 1
50 144 1
50 198 1
50 225 1
50 226 1
50 276 1
50 330 1
51 7 1
51 45 1
51 89 1
51 145 1
51 199 1
51 228 1
51 277 1
51 331 1
52 8 1
52 46 1
52 90 1
52 146 1
52 200 1
52 227 1
52 228 1
52 278 1
52 332 1
53 9 1
53 47 1
53 91 1
53 147 1
53 201 1
53 230 1
53 279 1
53 333 1
54 10 1
54 48 1
54 92 1
54 148 1
54 202 1
54 229 1
54 230 1
54 280 1
54 334 1
55 11 1
55 49 1
55 93 1
55 149 1
55 203 1
55 232 1
55 281 1
55 335 1
56 12 1
56 50 1
56 94 1
56 150 1
56 204 1
56 231 1
56 232 1
56 282 1
56 336 1
57 13 1
57 51 1
57 95 1
57 151 1
57 205 1
57 234 1
57 283 1
57 337 1
58 14 1
58 52 1
58 96 1
58 152 1
58 206 1
58 233 1
58 234 1
58 284 1
58 338 1
59 15 1
59 53 1
59 97 1
59 153 1
59 207 1
59 236 1
59 285 1
59 339 1
60 16 1
60 54 1
60 98 1
60 154 1
60 208 1
60 235 1
60 236 1
60 286 1
60 340 1
61 17 1
61 55 1
61 99 1
61 155 1
61 209 1
61 238 1
61 287 1
61 341 1
62 18 1
62 56 1
62 100 1
62 156 1
62 210 1
62 237 1
62 238 1
62 288 1
62 342 1
63 19 1
63 57 1
63 101 1
63 157 1
63 211 1
63 240 1
63 289 1
63 343 1
64 20 1
64 58 1
64 102 1
64 158 1
64 212 1
64 239 1
64 240 1
64 290 1
64 344 1
65 21 1
65 59 1
65 103 1
65 159 1
65 213 1
65 242 1
65 291 1
65 345 1
66 22 1
66 60 1
66 104 1
66 160 1
66 214 1
66 241 1
66 242 1
66 292 1
66 346 1
67 23 1
67 61 1
67 105 1
67 161 1
67 215 1
67 244 1
67 293 1
67 347 1
68 24 1
68 62 1
68 106 1
68 162 1
68 216 1
68 243 1
68 244 1
68 294 1
68 348 1
69 25 1
69 63 1
69 107 1
69 163 1
69 217 1
69 246 1
69 295 1
69 349 1
70 26 1
70 64 1
70 108 1
70 164 1
70 218 1
70 245 1
70 246 1
70 296 1
70 350 1
71 27 1
71 65 1
71 109 1
71 165 1
71 219 1
71 248 1
71 297 1
71 351 1
72 28 1
72 66 1
72 110 1
72 166 1
72 220 1
72 247 1
72 248 1
72 298 1
72 352 1
73 29 1
73 67 1
73 111 1
73 167 1
73 177 1
73 250 1
73 299 1
73 309 1
74 30 1
74 68 1
74 112 1
74 168 1
74 178 1
74 249 1
74 250 1
74 300 1
74 310 1
75 31 1
75 69 1
75 113 1
75 169 1
75 179 1
75 252 1
75 301 1
75 311 1
76 32 1
76 70 1
76 114 1
76 170 1
76 180 1
76 251 1
76 252 1
76 302 1
76 312 1
77 33 1
77 71 1
77 115 1
77 171 1
77 181 1
77 254 1
77 303 1
77 313 1
78 34 1
78 72 1
78 116 1
78 172 1
78 182 1
78 253 1
78 254 1
78 304 1
78 314 1
79 35 1
79 73 1
79 117 1
79 173 1
79 183 1
79 256 1
79 305 1
79 315 1
80 36 1
80 74 1
80 118 1
80 174 1
80 184 1
80 255 1
80 256 1
80 306 1
80 316 1
81 37 1
81 75 1
81 119 1
81 175 1
81 185 1
81 258 1
81 307 1
81 317 1
82 38 1
82 76 1
82 120 1
82 176 1
82 186 1
82 257 1
82 258 1
82 308 1
82 318 1
83 39 1
83 77 1
83 121 1
83 133 1
83 187 1
83 260 1
83 265 1
83 319 1
84 40 1
84 78 1
84 122 1
84 134 1
84 188 1
84 259 1
84 260 1
84 266 1
84 320 1
85 41 1
85 79 1
85 123 1
85 135 1
85 189 1
85 262 1
85 267 1
85 321 1
86 42 1
86 80 1
86 124 1
86 136 1
86 190 1
86 261 1
86 262 1
86 268 1
86 322 1
87 43 1
87 81 1
87 125 1
87 137 1
87 191 1
87 264 1
87 269 1
87 323 1
88 44 1
88 82 1
88 126 1
88 138 1
88 192 1
88 263 1
88 264 1
88 270 1
88 324 1
89 1 1
89 81 1
89 123 1
89 165 1
89 211 1
89 257 1
89 266 1
89 341 1
90 2 1
90 82 1
90 124 1
90 166 1
90 212 1
90 258 1
90 265 1
90 266 1
90 342 1
91 3 1
91 83 1
91 125 1
91 167 1
91 213 1
91 259 1
91 268 1
91 343 1
92 4 1
92 84 1
92 126 1
92 168 1
92 214 1
92 260 1
92 267 1
92 268 1
92 344 1
93 5 1
93 85 1
93 127 1
93 169 1
93 215 1
93 261 1
93 270 1
93 345 1
94 6 1
94 86 1
94 128 1
94 170 1
94 216 1
94 262 1
94 269 1
94 270 1
94 346 1
95 7 1
95 87 1
95 129 1
95 171 1
95 217 1
95 263 1
95 272 1
95 347 1
96 8 1
96 88 1
96 130 1
96 172 1
96 218 1
96 264 1
96 271 1
96 272 1
96 348 1
97 9 1
97 45 1
97 131 1
97 173 1
97 219 1
97 221 1
97 274 1
97 349 1
98 10 1
98 46 1
98 132 1
98 174 1
98 220 1
98 222 1
98 273 1
98 274 1
98 350 1
99 11 1
99 47 1
99 89 1
99 175 1
99 177 1
99 223 1
99 276 1
99 351 1
100 12 1
100 48 1
100 90 1
100 176 1
100 178 1
100 224 1
100 275 1
100 276 1
100 352 1
101 13 1
101 49 1
101 91 1
101 133 1
101 179 1
101 225 1
101 278 1
101 309 1
102 14 1
102 50 1
102 92 1
102 134 1
102 180 1
102 226 1
102 277 1
102 278 1
102 310 1
103 15 1
103 51 1
103 93 1
103 135 1
103 181 1
103 227 1
103 280 1
103 311 1
104 16 1
104 52 1
104 94 1
104 136 1
104 182 1
104 228 1
104 279 1
104 280 1
104 312 1
105 17 1
105 53 1
105 95 1
105 137 1
105 183 1
105 229 1
105 282 1
105 313 1
106 18 1
106 54 1
106 96 1
106 138 1
106 184 1
106 230 1
106 281 1
106 282 1
106 314 1
107 19 1
107 55 1
107 97 1
107 139 1
107 185 1
107 231 1
107 284 1
107 315 1
108 20 1
108 56 1
108 98 1
108 140 1
108 186 1
108 232 1
108 283 1
108 284 1
108 316 1
109 21 1
109 57 1
109 99 1
109 141 1
109 187 1
109 233 1
109 286 1
109 317 1
110 22 1
110 58 1
110 100 1
110 142 1
110 188 1
110 234 1
110 285 1
110 286 1
110 318 1
111 23 1
111 59 1
111 101 1
111 143 1
111 189 1
111 235 1
111 288 1
111 319 1
112 24 1
112 60 1
112 102 1
112 144 1
112 190 1
112 236 1
112 287 1
112 288 1
112 320 1
113 25 1
113 61 1
113 103 1
113 145 1
113 191 1
113 237 1
113 290 1
113 321 1
114 26 1
114 62 1
114 104 1
114 146 1
114 192 1
114 238 1
114 289 1
114 290 1
114 322 1
115 27 1
115 63 1
115 105 1
115 147 1
115 193 1
115 239 1
115 292 1
115 323 1
116 28 1
116 64 1
116 106 1
116 148 1
116 194 1
116 240 1
116 291 1
116 292 1
116 324 1
117 29 1
117 65 1
117 107 1
117 149 1
117 195 1
117 241 1
117 294 1
117 325 1
118 30 1
118 66 1
118 108 1
118 150 1
118 196 1
118 242 1
118 293 1
118 294 1
118 326 1
119 31 1
119 67 1
119 109 1
119 151 1
119 197 1
119 243 1
119 296 1
119 327 1
120 32 1
120 68 1
120 110 1
120 152 1
120 198 1
120 244 1
120 295 1
120 296 1
120 328 1
121 33 1
121 69 1
121 111 1
121 153 1
121 199 1
121 245 1
121 298 1
121 329 1
122 34 1
122 70 1
122 112 1
122 154 1
122 200 1
122 246 1
122 297 1
122 298 1
122 330 1
123 35 1
123 71 1
123 113 1
123 155 1
123 201 1
123 247 1
123 300 1
123 331 1
124 36 1
124 72 1
124 114 1
124 156 1
124 202 1
124 248 1
124 299 1
124 300 1
124 332 1
125 37 1
125 73 1
125 115 1
125 157 1
125 203 1
125 249 1
125 302 1
125 333 1
126 38 1
126 74 1
126 116 1
126 158 1
126 204 1
126 250 1
126 301 1
126 302 1
126 334 1
127 39 1
127 75 1
127 117 1
127 159 1
127 205 1
127 251 1
127 304 1
127 335 1
128 40 1
128 76 1
128 118 1
128 160 1
128 206 1
128 252 1
128 303 1
128 304 1
128 336 1
129 41 1
129 77 1
129 119 1
129 161 1
129 207 1
129 253 1
129 306 1
129 337 1
130 42 1
130 78 1
130 120 1
130 162 1
130 208 1
130 254 1
130 305 1
130 306 1
130 338 1
131 43 1
131 79 1
131 121 1
131 163 1
131 209 1
131 255 1
131 308 1
131 339 1
132 44 1
132 80 1
132 122 1
132 164 1
132 210 1
132 256 1
132 307 1
132 308 1
132 340 1
