%%MatrixMarket matrix coordinate integer general
% GF(4) labels 0,1,2=omega,3=omega+1; arithmetic is NOT integer arithmetic.
% Coordinate indices are 1-based; omitted entries are zero.
66 176 528
1 1 1
1 43 1
1 61 1
1 69 1
1 89 2
1 113 1
1 149 1
1 175 1
2 2 1
2 44 1
2 62 1
2 70 1
2 90 2
2 114 1
2 150 1
2 176 1
3 3 1
3 23 1
3 63 1
3 71 1
3 91 2
3 115 1
3 151 1
3 155 1
4 4 1
4 24 1
4 64 1
4 72 1
4 92 2
4 116 1
4 152 1
4 156 1
5 5 1
5 25 1
5 65 1
5 73 1
5 93 2
5 117 1
5 153 1
5 157 1
6 6 1
6 26 1
6 66 1
6 74 1
6 94 2
6 118 1
6 154 1
6 158 1
7 7 1
7 27 1
7 45 1
7 75 1
7 95 2
7 119 1
7 133 1
7 159 1
8 8 1
8 28 1
8 46 1
8 76 1
8 96 2
8 120 1
8 134 1
8 160 1
9 9 1
9 29 1
9 47 1
9 77 1
9 97 2
9 121 1
9 135 1
9 161 1
10 10 1
10 30 1
10 48 1
10 78 1
10 98 2
10 122 1
10 136 1
10 162 1
11 11 1
11 31 1
11 49 1
11 79 1
11 99 2
11 123 1
11 137 1
11 163 1
12 12 1
12 32 1
12 50 1
12 80 1
12 100 2
12 124 1
12 138 1
12 164 1
13 13 1
13 33 1
13 51 1
13 81 1
13 101 2
13 125 1
13 139 1
13 165 1
14 14 1
14 34 1
14 52 1
14 82 1
14 102 2
14 126 1
14 140 1
14 166 1
15 15 1
15 35 1
15 53 1
15 83 1
15 103 2
15 127 1
15 141 1
15 167 1
16 16 1
16 36 1
16 54 1
16 84 1
16 104 2
16 128 1
16 142 1
16 168 1
17 17 1
17 37 1
17 55 1
17 85 1
17 105 2
17 129 1
17 143 1
17 169 1
18 18 1
18 38 1
18 56 1
18 86 1
18 106 2
18 130 1
18 144 1
18 170 1
19 19 1
19 39 1
19 57 1
19 87 1
19 107 2
19 131 1
19 145 1
19 171 1
20 20 1
20 40 1
20 58 1
20 88 1
20 108 2
20 132 1
20 146 1
20 172 1
21 21 1
21 41 1
21 59 1
21 67 1
21 109 2
21 111 1
21 147 1
21 173 1
22 22 1
22 42 1
22 60 1
22 68 1
22 110 2
22 112 1
22 148 1
22 174 1
23 1 1
23 42 1
23 64 1
23 70 1
23 97 1
23 111 2
23 136 1
23 163 1
24 2 1
24 43 1
24 65 1
24 71 1
24 98 1
24 112 2
24 137 1
24 164 1
25 3 1
25 44 1
25 66 1
25 72 1
25 99 1
25 113 2
25 138 1
25 165 1
26 4 1
26 23 1
26 45 1
26 73 1
26 100 1
26 114 2
26 139 1
26 166 1
27 5 1
27 24 1
27 46 1
27 74 1
27 101 1
27 115 2
27 140 1
27 167 1
28 6 1
28 25 1
28 47 1
28 75 1
28 102 1
28 116 2
28 141 1
28 168 1
29 7 1
29 26 1
29 48 1
29 76 1
29 103 1
29 117 2
29 142 1
29 169 1
30 8 1
30 27 1
30 49 1
30 77 1
30 104 1
30 118 2
30 143 1
30 170 1
31 9 1
31 28 1
31 50 1
31 78 1
31 105 1
31 119 2
31 144 1
31 171 1
32 10 1
32 29 1
32 51 1
32 79 1
32 106 1
32 120 2
32 145 1
32 172 1
33 11 1
33 30 1
33 52 1
33 80 1
33 107 1
33 121 2
33 146 1
33 173 1
34 12 1
34 31 1
34 53 1
34 81 1
34 108 1
34 122 2
34 147 1
34 174 1
35 13 1
35 32 1
35 54 1
35 82 1
35 109 1
35 123 2
35 148 1
35 175 1
36 14 1
36 33 1
36 55 1
36 83 1
36 110 1
36 124 2
36 149 1
36 176 1
37 15 1
37 34 1
37 56 1
37 84 1
37 89 1
37 125 2
37 150 1
37 155 1
38 16 1
38 35 1
38 57 1
38 85 1
38 90 1
38 126 2
38 151 1
38 156 1
39 17 1
39 36 1
39 58 1
39 86 1
39 91 1
39 127 2
39 152 1
39 157 1
40 18 1
40 37 1
40 59 1
40 87 1
40 92 1
40 128 2
40 153 1
40 158 1
41 19 1
41 38 1
41 60 1
41 88 1
41 93 1
41 129 2
41 154 1
41 159 1
42 20 1
42 39 1
42 61 1
42 67 1
42 94 1
42 130 2
42 133 1
42 160 1
43 21 1
43 40 1
43 62 1
43 68 1
43 95 1
43 131 2
43 134 1
43 161 1
44 22 1
44 41 1
44 63 1
44 69 1
44 96 1
44 132 2
44 135 1
44 162 1
45 1 1
45 41 1
45 62 1
45 83 1
45 106 1
45 129 1
45 133 2
45 171 1
46 2 1
46 42 1
46 63 1
46 84 1
46 107 1
46 130 1
46 134 2
46 172 1
47 3 1
47 43 1
47 64 1
47 85 1
47 108 1
47 131 1
47 135 2
47 173 1
48 4 1
48 44 1
48 65 1
48 86 1
48 109 1
48 132 1
48 136 2
48 174 1
49 5 1
49 23 1
49 66 1
49 87 1
49 110 1
49 111 1
49 137 2
49 175 1
50 6 1
50 24 1
50 45 1
50 88 1
50 89 1
50 112 1
50 138 2
50 176 1
51 7 1
51 25 1
51 46 1
51 67 1
51 90 1
51 113 1
51 139 2
51 155 1
52 8 1
52 26 1
52 47 1
52 68 1
52 91 1
52 114 1
52 140 2
52 156 1
53 9 1
53 27 1
53 48 1
53 69 1
53 92 1
53 115 1
53 141 2
53 157 1
54 10 1
54 28 1
54 49 1
54 70 1
54 93 1
54 116 1
54 142 2
54 158 1
55 11 1
55 29 1
55 50 1
55 71 1
55 94 1
55 117 1
55 143 2
55 159 1
56 12 1
56 30 1
56 51 1
56 72 1
56 95 1
56 118 1
56 144 2
56 160 1
57 13 1
57 31 1
57 52 1
57 73 1
57 96 1
57 119 1
57 145 2
57 161 1
58 14 1
58 32 1
58 53 1
58 74 1
58 97 1
58 120 1
58 146 2
58 162 1
59 15 1
59 33 1
59 54 1
59 75 1
59 98 1
59 121 1
59 147 2
59 163 1
60 16 1
60 34 1
60 55 1
60 76 1
60 99 1
60 122 1
60 148 2
60 164 1
61 17 1
61 35 1
61 56 1
61 77 1
61 100 1
61 123 1
61 149 2
61 165 1
62 18 1
62 36 1
62 57 1
62 78 1
62 101 1
62 124 1
62 150 2
62 166 1
63 19 1
63 37 1
63 58 1
63 79 1
63 102 1
63 125 1
63 151 2
63 167 1
64 20 1
64 38 1
64 59 1
64 80 1
64 103 1
64 126 1
64 152 2
64 168 1
65 21 1
65 39 1
65 60 1
65 81 1
65 104 1
65 127 1
65 153 2
65 169 1
66 22 1
66 40 1
66 61 1
66 82 1
66 105 1
66 128 1
66 154 2
66 170 1
