%%MatrixMarket matrix coordinate integer general
% Binary matrix over GF(2).
% Coordinate indices are 1-based; omitted entries are zero.
88 352 2002
1 51 1
1 52 1
1 73 1
1 74 1
1 78 1
1 181 1
1 183 1
1 187 1
1 188 1
1 207 1
1 210 1
1 265 1
1 284 1
1 285 1
1 302 1
1 305 1
1 307 1
1 312 1
1 313 1
1 315 1
1 316 1
1 317 1
1 337 1
1 342 1
2 53 1
2 54 1
2 75 1
2 76 1
2 80 1
2 183 1
2 185 1
2 189 1
2 190 1
2 209 1
2 212 1
2 265 1
2 267 1
2 286 1
2 287 1
2 304 1
2 307 1
2 314 1
2 315 1
2 317 1
2 318 1
2 319 1
2 339 1
2 344 1
3 55 1
3 56 1
3 77 1
3 78 1
3 82 1
3 185 1
3 187 1
3 191 1
3 192 1
3 211 1
3 214 1
3 265 1
3 267 1
3 269 1
3 288 1
3 289 1
3 306 1
3 316 1
3 317 1
3 319 1
3 320 1
3 321 1
3 341 1
3 346 1
4 57 1
4 58 1
4 79 1
4 80 1
4 84 1
4 187 1
4 189 1
4 193 1
4 194 1
4 213 1
4 216 1
4 267 1
4 269 1
4 271 1
4 290 1
4 291 1
4 308 1
4 318 1
4 319 1
4 321 1
4 322 1
4 323 1
4 343 1
4 348 1
5 59 1
5 60 1
5 81 1
5 82 1
5 86 1
5 189 1
5 191 1
5 195 1
5 196 1
5 215 1
5 218 1
5 266 1
5 269 1
5 271 1
5 273 1
5 292 1
5 293 1
5 320 1
5 321 1
5 323 1
5 324 1
5 325 1
5 345 1
5 350 1
6 61 1
6 62 1
6 83 1
6 84 1
6 88 1
6 191 1
6 193 1
6 197 1
6 198 1
6 217 1
6 220 1
6 268 1
6 271 1
6 273 1
6 275 1
6 294 1
6 295 1
6 322 1
6 323 1
6 325 1
6 326 1
6 327 1
6 347 1
6 352 1
7 46 1
7 63 1
7 64 1
7 85 1
7 86 1
7 178 1
7 193 1
7 195 1
7 199 1
7 200 1
7 219 1
7 270 1
7 273 1
7 275 1
7 277 1
7 296 1
7 297 1
7 310 1
7 324 1
7 325 1
7 327 1
7 328 1
7 329 1
7 349 1
8 48 1
8 65 1
8 66 1
8 87 1
8 88 1
8 177 1
8 180 1
8 195 1
8 197 1
8 201 1
8 202 1
8 272 1
8 275 1
8 277 1
8 279 1
8 298 1
8 299 1
8 312 1
8 326 1
8 327 1
8 329 1
8 330 1
8 331 1
8 351 1
9 45 1
9 46 1
9 50 1
9 67 1
9 68 1
9 179 1
9 182 1
9 197 1
9 199 1
9 203 1
9 204 1
9 274 1
9 277 1
9 279 1
9 281 1
9 300 1
9 301 1
9 309 1
9 314 1
9 328 1
9 329 1
9 331 1
9 332 1
9 333 1
10 47 1
10 48 1
10 52 1
10 69 1
10 70 1
10 181 1
10 184 1
10 199 1
10 201 1
10 205 1
10 206 1
10 276 1
10 279 1
10 281 1
10 283 1
10 302 1
10 303 1
10 311 1
10 316 1
10 330 1
10 331 1
10 333 1
10 334 1
10 335 1
11 49 1
11 50 1
11 54 1
11 71 1
11 72 1
11 183 1
11 186 1
11 201 1
11 203 1
11 207 1
11 208 1
11 278 1
11 281 1
11 283 1
11 285 1
11 304 1
11 305 1
11 313 1
11 318 1
11 332 1
11 333 1
11 335 1
11 336 1
11 337 1
12 51 1
12 52 1
12 56 1
12 73 1
12 74 1
12 185 1
12 188 1
12 203 1
12 205 1
12 209 1
12 210 1
12 280 1
12 283 1
12 285 1
12 287 1
12 306 1
12 307 1
12 315 1
12 320 1
12 334 1
12 335 1
12 337 1
12 338 1
12 339 1
13 53 1
13 54 1
13 58 1
13 75 1
13 76 1
13 187 1
13 190 1
13 205 1
13 207 1
13 211 1
13 212 1
13 265 1
13 282 1
13 285 1
13 287 1
13 289 1
13 308 1
13 317 1
13 322 1
13 336 1
13 337 1
13 339 1
13 340 1
13 341 1
14 55 1
14 56 1
14 60 1
14 77 1
14 78 1
14 189 1
14 192 1
14 207 1
14 209 1
14 213 1
14 214 1
14 266 1
14 267 1
14 284 1
14 287 1
14 289 1
14 291 1
14 319 1
14 324 1
14 338 1
14 339 1
14 341 1
14 342 1
14 343 1
15 57 1
15 58 1
15 62 1
15 79 1
15 80 1
15 191 1
15 194 1
15 209 1
15 211 1
15 215 1
15 216 1
15 268 1
15 269 1
15 286 1
15 289 1
15 291 1
15 293 1
15 321 1
15 326 1
15 340 1
15 341 1
15 343 1
15 344 1
15 345 1
16 59 1
16 60 1
16 64 1
16 81 1
16 82 1
16 193 1
16 196 1
16 211 1
16 213 1
16 217 1
16 218 1
16 270 1
16 271 1
16 288 1
16 291 1
16 293 1
16 295 1
16 323 1
16 328 1
16 342 1
16 343 1
16 345 1
16 346 1
16 347 1
17 61 1
17 62 1
17 66 1
17 83 1
17 84 1
17 195 1
17 198 1
17 213 1
17 215 1
17 219 1
17 220 1
17 272 1
17 273 1
17 290 1
17 293 1
17 295 1
17 297 1
17 325 1
17 330 1
17 344 1
17 345 1
17 347 1
17 348 1
17 349 1
18 63 1
18 64 1
18 68 1
18 85 1
18 86 1
18 177 1
18 178 1
18 197 1
18 200 1
18 215 1
18 217 1
18 274 1
18 275 1
18 292 1
18 295 1
18 297 1
18 299 1
18 327 1
18 332 1
18 346 1
18 347 1
18 349 1
18 350 1
18 351 1
19 65 1
19 66 1
19 70 1
19 87 1
19 88 1
19 179 1
19 180 1
19 199 1
19 202 1
19 217 1
19 219 1
19 276 1
19 277 1
19 294 1
19 297 1
19 299 1
19 301 1
19 309 1
19 329 1
19 334 1
19 348 1
19 349 1
19 351 1
19 352 1
20 45 1
20 46 1
20 67 1
20 68 1
20 72 1
20 177 1
20 181 1
20 182 1
20 201 1
20 204 1
20 219 1
20 278 1
20 279 1
20 296 1
20 299 1
20 301 1
20 303 1
20 309 1
20 310 1
20 311 1
20 331 1
20 336 1
20 350 1
20 351 1
21 47 1
21 48 1
21 69 1
21 70 1
21 74 1
21 177 1
21 179 1
21 183 1
21 184 1
21 203 1
21 206 1
21 280 1
21 281 1
21 298 1
21 301 1
21 303 1
21 305 1
21 309 1
21 311 1
21 312 1
21 313 1
21 333 1
21 338 1
21 352 1
22 49 1
22 50 1
22 71 1
22 72 1
22 76 1
22 179 1
22 181 1
22 185 1
22 186 1
22 205 1
22 208 1
22 282 1
22 283 1
22 300 1
22 303 1
22 305 1
22 307 1
22 310 1
22 311 1
22 313 1
22 314 1
22 315 1
22 335 1
22 340 1
23 51 1
23 73 1
23 77 1
23 78 1
23 182 1
23 184 1
23 187 1
23 208 1
23 209 1
23 210 1
23 266 1
23 283 1
23 284 1
23 286 1
23 301 1
23 302 1
23 306 1
23 308 1
23 311 1
23 312 1
23 314 1
23 315 1
23 318 1
23 338 1
23 341 1
23 342 1
24 53 1
24 75 1
24 79 1
24 80 1
24 184 1
24 186 1
24 189 1
24 210 1
24 211 1
24 212 1
24 266 1
24 268 1
24 285 1
24 286 1
24 288 1
24 303 1
24 304 1
24 308 1
24 313 1
24 314 1
24 316 1
24 317 1
24 320 1
24 340 1
24 343 1
24 344 1
25 55 1
25 77 1
25 81 1
25 82 1
25 186 1
25 188 1
25 191 1
25 212 1
25 213 1
25 214 1
25 266 1
25 268 1
25 270 1
25 287 1
25 288 1
25 290 1
25 305 1
25 306 1
25 315 1
25 316 1
25 318 1
25 319 1
25 322 1
25 342 1
25 345 1
25 346 1
26 57 1
26 79 1
26 83 1
26 84 1
26 188 1
26 190 1
26 193 1
26 214 1
26 215 1
26 216 1
26 268 1
26 270 1
26 272 1
26 289 1
26 290 1
26 292 1
26 307 1
26 308 1
26 317 1
26 318 1
26 320 1
26 321 1
26 324 1
26 344 1
26 347 1
26 348 1
27 59 1
27 81 1
27 85 1
27 86 1
27 190 1
27 192 1
27 195 1
27 216 1
27 217 1
27 218 1
27 265 1
27 266 1
27 270 1
27 272 1
27 274 1
27 291 1
27 292 1
27 294 1
27 319 1
27 320 1
27 322 1
27 323 1
27 326 1
27 346 1
27 349 1
27 350 1
28 61 1
28 83 1
28 87 1
28 88 1
28 192 1
28 194 1
28 197 1
28 218 1
28 219 1
28 220 1
28 267 1
28 268 1
28 272 1
28 274 1
28 276 1
28 293 1
28 294 1
28 296 1
28 321 1
28 322 1
28 324 1
28 325 1
28 328 1
28 348 1
28 351 1
28 352 1
29 45 1
29 46 1
29 63 1
29 85 1
29 177 1
29 178 1
29 194 1
29 196 1
29 199 1
29 220 1
29 269 1
29 270 1
29 274 1
29 276 1
29 278 1
29 295 1
29 296 1
29 298 1
29 309 1
29 310 1
29 323 1
29 324 1
29 326 1
29 327 1
29 330 1
29 350 1
30 47 1
30 48 1
30 65 1
30 87 1
30 178 1
30 179 1
30 180 1
30 196 1
30 198 1
30 201 1
30 271 1
30 272 1
30 276 1
30 278 1
30 280 1
30 297 1
30 298 1
30 300 1
30 311 1
30 312 1
30 325 1
30 326 1
30 328 1
30 329 1
30 332 1
30 352 1
31 45 1
31 49 1
31 50 1
31 67 1
31 180 1
31 181 1
31 182 1
31 198 1
31 200 1
31 203 1
31 273 1
31 274 1
31 278 1
31 280 1
31 282 1
31 299 1
31 300 1
31 302 1
31 310 1
31 313 1
31 314 1
31 327 1
31 328 1
31 330 1
31 331 1
31 334 1
32 47 1
32 51 1
32 52 1
32 69 1
32 182 1
32 183 1
32 184 1
32 200 1
32 202 1
32 205 1
32 275 1
32 276 1
32 280 1
32 282 1
32 284 1
32 301 1
32 302 1
32 304 1
32 312 1
32 315 1
32 316 1
32 329 1
32 330 1
32 332 1
32 333 1
32 336 1
33 49 1
33 53 1
33 54 1
33 71 1
33 184 1
33 185 1
33 186 1
33 202 1
33 204 1
33 207 1
33 277 1
33 278 1
33 282 1
33 284 1
33 286 1
33 303 1
33 304 1
33 306 1
33 314 1
33 317 1
33 318 1
33 331 1
33 332 1
33 334 1
33 335 1
33 338 1
34 51 1
34 55 1
34 56 1
34 73 1
34 186 1
34 187 1
34 188 1
34 204 1
34 206 1
34 209 1
34 279 1
34 280 1
34 284 1
34 286 1
34 288 1
34 305 1
34 306 1
34 308 1
34 316 1
34 319 1
34 320 1
34 333 1
34 334 1
34 336 1
34 337 1
34 340 1
35 53 1
35 57 1
35 58 1
35 75 1
35 188 1
35 189 1
35 190 1
35 206 1
35 208 1
35 211 1
35 266 1
35 281 1
35 282 1
35 286 1
35 288 1
35 290 1
35 307 1
35 308 1
35 318 1
35 321 1
35 322 1
35 335 1
35 336 1
35 338 1
35 339 1
35 342 1
36 55 1
36 59 1
36 60 1
36 77 1
36 190 1
36 191 1
36 192 1
36 208 1
36 210 1
36 213 1
36 265 1
36 266 1
36 268 1
36 283 1
36 284 1
36 288 1
36 290 1
36 292 1
36 320 1
36 323 1
36 324 1
36 337 1
36 338 1
36 340 1
36 341 1
36 344 1
37 57 1
37 61 1
37 62 1
37 79 1
37 192 1
37 193 1
37 194 1
37 210 1
37 212 1
37 215 1
37 267 1
37 268 1
37 270 1
37 285 1
37 286 1
37 290 1
37 292 1
37 294 1
37 322 1
37 325 1
37 326 1
37 339 1
37 340 1
37 342 1
37 343 1
37 346 1
38 59 1
38 63 1
38 64 1
38 81 1
38 194 1
38 195 1
38 196 1
38 212 1
38 214 1
38 217 1
38 269 1
38 270 1
38 272 1
38 287 1
38 288 1
38 292 1
38 294 1
38 296 1
38 324 1
38 327 1
38 328 1
38 341 1
38 342 1
38 344 1
38 345 1
38 348 1
39 61 1
39 65 1
39 66 1
39 83 1
39 196 1
39 197 1
39 198 1
39 214 1
39 216 1
39 219 1
39 271 1
39 272 1
39 274 1
39 289 1
39 290 1
39 294 1
39 296 1
39 298 1
39 326 1
39 329 1
39 330 1
39 343 1
39 344 1
39 346 1
39 347 1
39 350 1
40 63 1
40 67 1
40 68 1
40 85 1
40 177 1
40 198 1
40 199 1
40 200 1
40 216 1
40 218 1
40 273 1
40 274 1
40 276 1
40 291 1
40 292 1
40 296 1
40 298 1
40 300 1
40 328 1
40 331 1
40 332 1
40 345 1
40 346 1
40 348 1
40 349 1
40 352 1
41 65 1
41 69 1
41 70 1
41 87 1
41 179 1
41 200 1
41 201 1
41 202 1
41 218 1
41 220 1
41 275 1
41 276 1
41 278 1
41 293 1
41 294 1
41 298 1
41 300 1
41 302 1
41 310 1
41 330 1
41 333 1
41 334 1
41 347 1
41 348 1
41 350 1
41 351 1
42 45 1
42 67 1
42 71 1
42 72 1
42 178 1
42 181 1
42 202 1
42 203 1
42 204 1
42 220 1
42 277 1
42 278 1
42 280 1
42 295 1
42 296 1
42 300 1
42 302 1
42 304 1
42 309 1
42 312 1
42 332 1
42 335 1
42 336 1
42 349 1
42 350 1
42 352 1
43 47 1
43 69 1
43 73 1
43 74 1
43 178 1
43 180 1
43 183 1
43 204 1
43 205 1
43 206 1
43 279 1
43 280 1
43 282 1
43 297 1
43 298 1
43 302 1
43 304 1
43 306 1
43 310 1
43 311 1
43 314 1
43 334 1
43 337 1
43 338 1
43 351 1
43 352 1
44 49 1
44 71 1
44 75 1
44 76 1
44 180 1
44 182 1
44 185 1
44 206 1
44 207 1
44 208 1
44 281 1
44 282 1
44 284 1
44 299 1
44 300 1
44 304 1
44 306 1
44 308 1
44 309 1
44 310 1
44 312 1
44 313 1
44 316 1
44 336 1
44 339 1
44 340 1
45 180 1
45 181 1
45 182 1
45 184 1
45 227 1
45 249 1
45 253 1
45 254 1
45 277 1
45 279 1
45 280 1
45 300 1
45 301 1
45 306 1
45 311 1
45 312 1
45 314 1
45 331 1
45 332 1
45 333 1
45 334 1
46 182 1
46 183 1
46 184 1
46 186 1
46 229 1
46 251 1
46 255 1
46 256 1
46 279 1
46 281 1
46 282 1
46 302 1
46 303 1
46 308 1
46 313 1
46 314 1
46 316 1
46 333 1
46 334 1
46 335 1
46 336 1
47 184 1
47 185 1
47 186 1
47 188 1
47 231 1
47 253 1
47 257 1
47 258 1
47 266 1
47 281 1
47 283 1
47 284 1
47 304 1
47 305 1
47 315 1
47 316 1
47 318 1
47 335 1
47 336 1
47 337 1
47 338 1
48 186 1
48 187 1
48 188 1
48 190 1
48 233 1
48 255 1
48 259 1
48 260 1
48 268 1
48 283 1
48 285 1
48 286 1
48 306 1
48 307 1
48 317 1
48 318 1
48 320 1
48 337 1
48 338 1
48 339 1
48 340 1
49 188 1
49 189 1
49 190 1
49 192 1
49 235 1
49 257 1
49 261 1
49 262 1
49 265 1
49 270 1
49 285 1
49 287 1
49 288 1
49 308 1
49 319 1
49 320 1
49 322 1
49 339 1
49 340 1
49 341 1
49 342 1
50 190 1
50 191 1
50 192 1
50 194 1
50 237 1
50 259 1
50 263 1
50 264 1
50 266 1
50 267 1
50 272 1
50 287 1
50 289 1
50 290 1
50 321 1
50 322 1
50 324 1
50 341 1
50 342 1
50 343 1
50 344 1
51 192 1
51 193 1
51 194 1
51 196 1
51 221 1
51 222 1
51 239 1
51 261 1
51 268 1
51 269 1
51 274 1
51 289 1
51 291 1
51 292 1
51 323 1
51 324 1
51 326 1
51 343 1
51 344 1
51 345 1
51 346 1
52 194 1
52 195 1
52 196 1
52 198 1
52 223 1
52 224 1
52 241 1
52 263 1
52 270 1
52 271 1
52 276 1
52 291 1
52 293 1
52 294 1
52 325 1
52 326 1
52 328 1
52 345 1
52 346 1
52 347 1
52 348 1
53 196 1
53 197 1
53 198 1
53 200 1
53 221 1
53 225 1
53 226 1
53 243 1
53 272 1
53 273 1
53 278 1
53 293 1
53 295 1
53 296 1
53 327 1
53 328 1
53 330 1
53 347 1
53 348 1
53 349 1
53 350 1
54 198 1
54 199 1
54 200 1
54 202 1
54 223 1
54 227 1
54 228 1
54 245 1
54 274 1
54 275 1
54 280 1
54 295 1
54 297 1
54 298 1
54 329 1
54 330 1
54 332 1
54 349 1
54 350 1
54 351 1
54 352 1
55 200 1
55 201 1
55 202 1
55 204 1
55 225 1
55 229 1
55 230 1
55 247 1
55 276 1
55 277 1
55 282 1
55 297 1
55 299 1
55 300 1
55 309 1
55 310 1
55 331 1
55 332 1
55 334 1
55 351 1
55 352 1
56 202 1
56 203 1
56 204 1
56 206 1
56 227 1
56 231 1
56 232 1
56 249 1
56 278 1
56 279 1
56 284 1
56 299 1
56 301 1
56 302 1
56 309 1
56 310 1
56 311 1
56 312 1
56 333 1
56 334 1
56 336 1
57 204 1
57 205 1
57 206 1
57 208 1
57 229 1
57 233 1
57 234 1
57 251 1
57 280 1
57 281 1
57 286 1
57 301 1
57 303 1
57 304 1
57 311 1
57 312 1
57 313 1
57 314 1
57 335 1
57 336 1
57 338 1
58 206 1
58 207 1
58 208 1
58 210 1
58 231 1
58 235 1
58 236 1
58 253 1
58 282 1
58 283 1
58 288 1
58 303 1
58 305 1
58 306 1
58 313 1
58 314 1
58 315 1
58 316 1
58 337 1
58 338 1
58 340 1
59 208 1
59 209 1
59 210 1
59 212 1
59 233 1
59 237 1
59 238 1
59 255 1
59 284 1
59 285 1
59 290 1
59 305 1
59 307 1
59 308 1
59 315 1
59 316 1
59 317 1
59 318 1
59 339 1
59 340 1
59 342 1
60 210 1
60 211 1
60 212 1
60 214 1
60 235 1
60 239 1
60 240 1
60 257 1
60 265 1
60 266 1
60 286 1
60 287 1
60 292 1
60 307 1
60 317 1
60 318 1
60 319 1
60 320 1
60 341 1
60 342 1
60 344 1
61 212 1
61 213 1
61 214 1
61 216 1
61 237 1
61 241 1
61 242 1
61 259 1
61 265 1
61 267 1
61 268 1
61 288 1
61 289 1
61 294 1
61 319 1
61 320 1
61 321 1
61 322 1
61 343 1
61 344 1
61 346 1
62 214 1
62 215 1
62 216 1
62 218 1
62 239 1
62 243 1
62 244 1
62 261 1
62 267 1
62 269 1
62 270 1
62 290 1
62 291 1
62 296 1
62 321 1
62 322 1
62 323 1
62 324 1
62 345 1
62 346 1
62 348 1
63 216 1
63 217 1
63 218 1
63 220 1
63 241 1
63 245 1
63 246 1
63 263 1
63 269 1
63 271 1
63 272 1
63 292 1
63 293 1
63 298 1
63 323 1
63 324 1
63 325 1
63 326 1
63 347 1
63 348 1
63 350 1
64 178 1
64 218 1
64 219 1
64 220 1
64 221 1
64 243 1
64 247 1
64 248 1
64 271 1
64 273 1
64 274 1
64 294 1
64 295 1
64 300 1
64 325 1
64 326 1
64 327 1
64 328 1
64 349 1
64 350 1
64 352 1
65 177 1
65 178 1
65 180 1
65 220 1
65 223 1
65 245 1
65 249 1
65 250 1
65 273 1
65 275 1
65 276 1
65 296 1
65 297 1
65 302 1
65 310 1
65 327 1
65 328 1
65 329 1
65 330 1
65 351 1
65 352 1
66 178 1
66 179 1
66 180 1
66 182 1
66 225 1
66 247 1
66 251 1
66 252 1
66 275 1
66 277 1
66 278 1
66 298 1
66 299 1
66 304 1
66 309 1
66 310 1
66 312 1
66 329 1
66 330 1
66 331 1
66 332 1
67 179 1
67 180 1
67 181 1
67 183 1
67 184 1
67 228 1
67 250 1
67 253 1
67 278 1
67 279 1
67 299 1
67 300 1
67 302 1
67 305 1
67 306 1
67 311 1
67 313 1
67 314 1
67 331 1
67 333 1
68 181 1
68 182 1
68 183 1
68 185 1
68 186 1
68 230 1
68 252 1
68 255 1
68 280 1
68 281 1
68 301 1
68 302 1
68 304 1
68 307 1
68 308 1
68 313 1
68 315 1
68 316 1
68 333 1
68 335 1
69 183 1
69 184 1
69 185 1
69 187 1
69 188 1
69 232 1
69 254 1
69 257 1
69 265 1
69 266 1
69 282 1
69 283 1
69 303 1
69 304 1
69 306 1
69 315 1
69 317 1
69 318 1
69 335 1
69 337 1
70 185 1
70 186 1
70 187 1
70 189 1
70 190 1
70 234 1
70 256 1
70 259 1
70 267 1
70 268 1
70 284 1
70 285 1
70 305 1
70 306 1
70 308 1
70 317 1
70 319 1
70 320 1
70 337 1
70 339 1
71 187 1
71 188 1
71 189 1
71 191 1
71 192 1
71 236 1
71 258 1
71 261 1
71 266 1
71 269 1
71 270 1
71 286 1
71 287 1
71 307 1
71 308 1
71 319 1
71 321 1
71 322 1
71 339 1
71 341 1
72 189 1
72 190 1
72 191 1
72 193 1
72 194 1
72 238 1
72 260 1
72 263 1
72 265 1
72 266 1
72 268 1
72 271 1
72 272 1
72 288 1
72 289 1
72 321 1
72 323 1
72 324 1
72 341 1
72 343 1
73 191 1
73 192 1
73 193 1
73 195 1
73 196 1
73 221 1
73 240 1
73 262 1
73 267 1
73 268 1
73 270 1
73 273 1
73 274 1
73 290 1
73 291 1
73 323 1
73 325 1
73 326 1
73 343 1
73 345 1
74 193 1
74 194 1
74 195 1
74 197 1
74 198 1
74 223 1
74 242 1
74 264 1
74 269 1
74 270 1
74 272 1
74 275 1
74 276 1
74 292 1
74 293 1
74 325 1
74 327 1
74 328 1
74 345 1
74 347 1
75 195 1
75 196 1
75 197 1
75 199 1
75 200 1
75 222 1
75 225 1
75 244 1
75 271 1
75 272 1
75 274 1
75 277 1
75 278 1
75 294 1
75 295 1
75 327 1
75 329 1
75 330 1
75 347 1
75 349 1
76 197 1
76 198 1
76 199 1
76 201 1
76 202 1
76 224 1
76 227 1
76 246 1
76 273 1
76 274 1
76 276 1
76 279 1
76 280 1
76 296 1
76 297 1
76 329 1
76 331 1
76 332 1
76 349 1
76 351 1
77 199 1
77 200 1
77 201 1
77 203 1
77 204 1
77 226 1
77 229 1
77 248 1
77 275 1
77 276 1
77 278 1
77 281 1
77 282 1
77 298 1
77 299 1
77 309 1
77 331 1
77 333 1
77 334 1
77 351 1
78 201 1
78 202 1
78 203 1
78 205 1
78 206 1
78 228 1
78 231 1
78 250 1
78 277 1
78 278 1
78 280 1
78 283 1
78 284 1
78 300 1
78 301 1
78 309 1
78 311 1
78 333 1
78 335 1
78 336 1
79 203 1
79 204 1
79 205 1
79 207 1
79 208 1
79 230 1
79 233 1
79 252 1
79 279 1
79 280 1
79 282 1
79 285 1
79 286 1
79 302 1
79 303 1
79 311 1
79 313 1
79 335 1
79 337 1
79 338 1
80 205 1
80 206 1
80 207 1
80 209 1
80 210 1
80 232 1
80 235 1
80 254 1
80 281 1
80 282 1
80 284 1
80 287 1
80 288 1
80 304 1
80 305 1
80 313 1
80 315 1
80 337 1
80 339 1
80 340 1
81 207 1
81 208 1
81 209 1
81 211 1
81 212 1
81 234 1
81 237 1
81 256 1
81 283 1
81 284 1
81 286 1
81 289 1
81 290 1
81 306 1
81 307 1
81 315 1
81 317 1
81 339 1
81 341 1
81 342 1
82 209 1
82 210 1
82 211 1
82 213 1
82 214 1
82 236 1
82 239 1
82 258 1
82 265 1
82 285 1
82 286 1
82 288 1
82 291 1
82 292 1
82 308 1
82 317 1
82 319 1
82 341 1
82 343 1
82 344 1
83 211 1
83 212 1
83 213 1
83 215 1
83 216 1
83 238 1
83 241 1
83 260 1
83 266 1
83 267 1
83 287 1
83 288 1
83 290 1
83 293 1
83 294 1
83 319 1
83 321 1
83 343 1
83 345 1
83 346 1
84 213 1
84 214 1
84 215 1
84 217 1
84 218 1
84 240 1
84 243 1
84 262 1
84 268 1
84 269 1
84 289 1
84 290 1
84 292 1
84 295 1
84 296 1
84 321 1
84 323 1
84 345 1
84 347 1
84 348 1
85 215 1
85 216 1
85 217 1
85 219 1
85 220 1
85 242 1
85 245 1
85 264 1
85 270 1
85 271 1
85 291 1
85 292 1
85 294 1
85 297 1
85 298 1
85 323 1
85 325 1
85 347 1
85 349 1
85 350 1
86 177 1
86 178 1
86 217 1
86 218 1
86 219 1
86 222 1
86 244 1
86 247 1
86 272 1
86 273 1
86 293 1
86 294 1
86 296 1
86 299 1
86 300 1
86 325 1
86 327 1
86 349 1
86 351 1
86 352 1
87 177 1
87 179 1
87 180 1
87 219 1
87 220 1
87 224 1
87 246 1
87 249 1
87 274 1
87 275 1
87 295 1
87 296 1
87 298 1
87 301 1
87 302 1
87 309 1
87 310 1
87 327 1
87 329 1
87 351 1
88 177 1
88 178 1
88 179 1
88 181 1
88 182 1
88 226 1
88 248 1
88 251 1
88 276 1
88 277 1
88 297 1
88 298 1
88 300 1
88 303 1
88 304 1
88 309 1
88 311 1
88 312 1
88 329 1
88 331 1
