%%MatrixMarket matrix coordinate integer general
% GF(4) labels 0,1,2=omega,3=omega+1; arithmetic is NOT integer arithmetic.
% Coordinate indices are 1-based; omitted entries are zero.
44 176 770
1 26 3
1 37 3
1 39 2
1 91 1
1 92 1
1 94 3
1 104 1
1 105 2
1 133 1
1 142 2
1 143 1
1 151 2
1 153 1
1 154 1
1 156 2
1 157 1
1 158 3
1 159 1
1 169 1
1 171 2
2 27 3
2 38 3
2 40 2
2 92 1
2 93 1
2 95 3
2 105 1
2 106 2
2 133 1
2 134 1
2 143 2
2 144 1
2 152 2
2 154 1
2 157 2
2 158 1
2 159 3
2 160 1
2 170 1
2 172 2
3 28 3
3 39 3
3 41 2
3 93 1
3 94 1
3 96 3
3 106 1
3 107 2
3 133 1
3 134 1
3 135 1
3 144 2
3 145 1
3 153 2
3 158 2
3 159 1
3 160 3
3 161 1
3 171 1
3 173 2
4 29 3
4 40 3
4 42 2
4 94 1
4 95 1
4 97 3
4 107 1
4 108 2
4 134 1
4 135 1
4 136 1
4 145 2
4 146 1
4 154 2
4 159 2
4 160 1
4 161 3
4 162 1
4 172 1
4 174 2
5 30 3
5 41 3
5 43 2
5 95 1
5 96 1
5 98 3
5 108 1
5 109 2
5 133 2
5 135 1
5 136 1
5 137 1
5 146 2
5 147 1
5 160 2
5 161 1
5 162 3
5 163 1
5 173 1
5 175 2
6 31 3
6 42 3
6 44 2
6 96 1
6 97 1
6 99 3
6 109 1
6 110 2
6 134 2
6 136 1
6 137 1
6 138 1
6 147 2
6 148 1
6 161 2
6 162 1
6 163 3
6 164 1
6 174 1
6 176 2
7 23 2
7 32 3
7 43 3
7 89 2
7 97 1
7 98 1
7 100 3
7 110 1
7 135 2
7 137 1
7 138 1
7 139 1
7 148 2
7 149 1
7 155 2
7 162 2
7 163 1
7 164 3
7 165 1
7 175 1
8 24 2
8 33 3
8 44 3
8 89 1
8 90 2
8 98 1
8 99 1
8 101 3
8 136 2
8 138 1
8 139 1
8 140 1
8 149 2
8 150 1
8 156 2
8 163 2
8 164 1
8 165 3
8 166 1
8 176 1
9 23 3
9 25 2
9 34 3
9 90 1
9 91 2
9 99 1
9 100 1
9 102 3
9 137 2
9 139 1
9 140 1
9 141 1
9 150 2
9 151 1
9 155 1
9 157 2
9 164 2
9 165 1
9 166 3
9 167 1
10 24 3
10 26 2
10 35 3
10 91 1
10 92 2
10 100 1
10 101 1
10 103 3
10 138 2
10 140 1
10 141 1
10 142 1
10 151 2
10 152 1
10 156 1
10 158 2
10 165 2
10 166 1
10 167 3
10 168 1
11 25 3
11 27 2
11 36 3
11 92 1
11 93 2
11 101 1
11 102 1
11 104 3
11 139 2
11 141 1
11 142 1
11 143 1
11 152 2
11 153 1
11 157 1
11 159 2
11 166 2
11 167 1
11 168 3
11 169 1
12 26 3
12 28 2
12 37 3
12 93 1
12 94 2
12 102 1
12 103 1
12 105 3
12 140 2
12 142 1
12 143 1
12 144 1
12 153 2
12 154 1
12 158 1
12 160 2
12 167 2
12 168 1
12 169 3
12 170 1
13 27 3
13 29 2
13 38 3
13 94 1
13 95 2
13 103 1
13 104 1
13 106 3
13 133 1
13 141 2
13 143 1
13 144 1
13 145 1
13 154 2
13 159 1
13 161 2
13 168 2
13 169 1
13 170 3
13 171 1
14 28 3
14 30 2
14 39 3
14 95 1
14 96 2
14 104 1
14 105 1
14 107 3
14 133 2
14 134 1
14 142 2
14 144 1
14 145 1
14 146 1
14 160 1
14 162 2
14 169 2
14 170 1
14 171 3
14 172 1
15 29 3
15 31 2
15 40 3
15 96 1
15 97 2
15 105 1
15 106 1
15 108 3
15 134 2
15 135 1
15 143 2
15 145 1
15 146 1
15 147 1
15 161 1
15 163 2
15 170 2
15 171 1
15 172 3
15 173 1
16 30 3
16 32 2
16 41 3
16 97 1
16 98 2
16 106 1
16 107 1
16 109 3
16 135 2
16 136 1
16 144 2
16 146 1
16 147 1
16 148 1
16 162 1
16 164 2
16 171 2
16 172 1
16 173 3
16 174 1
17 31 3
17 33 2
17 42 3
17 98 1
17 99 2
17 107 1
17 108 1
17 110 3
17 136 2
17 137 1
17 145 2
17 147 1
17 148 1
17 149 1
17 163 1
17 165 2
17 172 2
17 173 1
17 174 3
17 175 1
18 32 3
18 34 2
18 43 3
18 89 3
18 99 1
18 100 2
18 108 1
18 109 1
18 137 2
18 138 1
18 146 2
18 148 1
18 149 1
18 150 1
18 164 1
18 166 2
18 173 2
18 174 1
18 175 3
18 176 1
19 33 3
19 35 2
19 44 3
19 90 3
19 100 1
19 101 2
19 109 1
19 110 1
19 138 2
19 139 1
19 147 2
19 149 1
19 150 1
19 151 1
19 155 1
19 165 1
19 167 2
19 174 2
19 175 1
19 176 3
20 23 3
20 34 3
20 36 2
20 89 1
20 91 3
20 101 1
20 102 2
20 110 1
20 139 2
20 140 1
20 148 2
20 150 1
20 151 1
20 152 1
20 155 3
20 156 1
20 166 1
20 168 2
20 175 2
20 176 1
21 24 3
21 35 3
21 37 2
21 89 1
21 90 1
21 92 3
21 102 1
21 103 2
21 140 2
21 141 1
21 149 2
21 151 1
21 152 1
21 153 1
21 155 1
21 156 3
21 157 1
21 167 1
21 169 2
21 176 2
22 25 3
22 36 3
22 38 2
22 90 1
22 91 1
22 93 3
22 103 1
22 104 2
22 141 2
22 142 1
22 150 2
22 152 1
22 153 1
22 154 1
22 155 2
22 156 1
22 157 3
22 158 1
22 168 1
22 170 2
23 90 2
23 91 3
23 92 2
23 114 1
23 125 1
23 127 3
23 139 1
23 140 3
23 150 2
23 151 1
23 153 2
23 156 3
23 157 2
23 166 3
23 167 3
24 91 2
24 92 3
24 93 2
24 115 1
24 126 1
24 128 3
24 140 1
24 141 3
24 151 2
24 152 1
24 154 2
24 157 3
24 158 2
24 167 3
24 168 3
25 92 2
25 93 3
25 94 2
25 116 1
25 127 1
25 129 3
25 133 2
25 141 1
25 142 3
25 152 2
25 153 1
25 158 3
25 159 2
25 168 3
25 169 3
26 93 2
26 94 3
26 95 2
26 117 1
26 128 1
26 130 3
26 134 2
26 142 1
26 143 3
26 153 2
26 154 1
26 159 3
26 160 2
26 169 3
26 170 3
27 94 2
27 95 3
27 96 2
27 118 1
27 129 1
27 131 3
27 133 1
27 135 2
27 143 1
27 144 3
27 154 2
27 160 3
27 161 2
27 170 3
27 171 3
28 95 2
28 96 3
28 97 2
28 119 1
28 130 1
28 132 3
28 133 2
28 134 1
28 136 2
28 144 1
28 145 3
28 161 3
28 162 2
28 171 3
28 172 3
29 96 2
29 97 3
29 98 2
29 111 3
29 120 1
29 131 1
29 134 2
29 135 1
29 137 2
29 145 1
29 146 3
29 162 3
29 163 2
29 172 3
29 173 3
30 97 2
30 98 3
30 99 2
30 112 3
30 121 1
30 132 1
30 135 2
30 136 1
30 138 2
30 146 1
30 147 3
30 163 3
30 164 2
30 173 3
30 174 3
31 98 2
31 99 3
31 100 2
31 111 1
31 113 3
31 122 1
31 136 2
31 137 1
31 139 2
31 147 1
31 148 3
31 164 3
31 165 2
31 174 3
31 175 3
32 99 2
32 100 3
32 101 2
32 112 1
32 114 3
32 123 1
32 137 2
32 138 1
32 140 2
32 148 1
32 149 3
32 165 3
32 166 2
32 175 3
32 176 3
33 100 2
33 101 3
33 102 2
33 113 1
33 115 3
33 124 1
33 138 2
33 139 1
33 141 2
33 149 1
33 150 3
33 155 3
33 166 3
33 167 2
33 176 3
34 101 2
34 102 3
34 103 2
34 114 1
34 116 3
34 125 1
34 139 2
34 140 1
34 142 2
34 150 1
34 151 3
34 155 3
34 156 3
34 167 3
34 168 2
35 102 2
35 103 3
35 104 2
35 115 1
35 117 3
35 126 1
35 140 2
35 141 1
35 143 2
35 151 1
35 152 3
35 156 3
35 157 3
35 168 3
35 169 2
36 103 2
36 104 3
36 105 2
36 116 1
36 118 3
36 127 1
36 141 2
36 142 1
36 144 2
36 152 1
36 153 3
36 157 3
36 158 3
36 169 3
36 170 2
37 104 2
37 105 3
37 106 2
37 117 1
37 119 3
37 128 1
37 142 2
37 143 1
37 145 2
37 153 1
37 154 3
37 158 3
37 159 3
37 170 3
37 171 2
38 105 2
38 106 3
38 107 2
38 118 1
38 120 3
38 129 1
38 133 3
38 143 2
38 144 1
38 146 2
38 154 1
38 159 3
38 160 3
38 171 3
38 172 2
39 106 2
39 107 3
39 108 2
39 119 1
39 121 3
39 130 1
39 133 1
39 134 3
39 144 2
39 145 1
39 147 2
39 160 3
39 161 3
39 172 3
39 173 2
40 107 2
40 108 3
40 109 2
40 120 1
40 122 3
40 131 1
40 134 1
40 135 3
40 145 2
40 146 1
40 148 2
40 161 3
40 162 3
40 173 3
40 174 2
41 108 2
41 109 3
41 110 2
41 121 1
41 123 3
41 132 1
41 135 1
41 136 3
41 146 2
41 147 1
41 149 2
41 162 3
41 163 3
41 174 3
41 175 2
42 89 2
42 109 2
42 110 3
42 111 1
42 122 1
42 124 3
42 136 1
42 137 3
42 147 2
42 148 1
42 150 2
42 163 3
42 164 3
42 175 3
42 176 2
43 89 3
43 90 2
43 110 2
43 112 1
43 123 1
43 125 3
43 137 1
43 138 3
43 148 2
43 149 1
43 151 2
43 155 2
43 164 3
43 165 3
43 176 3
44 89 2
44 90 3
44 91 2
44 113 1
44 124 1
44 126 3
44 138 1
44 139 3
44 149 2
44 150 1
44 152 2
44 155 3
44 156 2
44 165 3
44 166 3
