%%MatrixMarket matrix coordinate integer general
% Binary matrix over GF(2).
% Coordinate indices are 1-based; omitted entries are zero.
88 352 2002
1 15 1
1 16 1
1 17 1
1 34 1
1 37 1
1 40 1
1 59 1
1 77 1
1 78 1
1 81 1
1 102 1
1 103 1
1 104 1
1 106 1
1 146 1
1 147 1
1 148 1
1 169 1
1 170 1
1 171 1
1 172 1
2 17 1
2 18 1
2 19 1
2 36 1
2 39 1
2 42 1
2 61 1
2 79 1
2 80 1
2 83 1
2 104 1
2 105 1
2 106 1
2 108 1
2 148 1
2 149 1
2 150 1
2 171 1
2 172 1
2 173 1
2 174 1
3 19 1
3 20 1
3 21 1
3 38 1
3 41 1
3 44 1
3 63 1
3 81 1
3 82 1
3 85 1
3 106 1
3 107 1
3 108 1
3 110 1
3 150 1
3 151 1
3 152 1
3 173 1
3 174 1
3 175 1
3 176 1
4 2 1
4 21 1
4 22 1
4 23 1
4 40 1
4 43 1
4 65 1
4 83 1
4 84 1
4 87 1
4 108 1
4 109 1
4 110 1
4 112 1
4 133 1
4 134 1
4 152 1
4 153 1
4 154 1
4 175 1
4 176 1
5 1 1
5 4 1
5 23 1
5 24 1
5 25 1
5 42 1
5 45 1
5 67 1
5 85 1
5 86 1
5 110 1
5 111 1
5 112 1
5 114 1
5 133 1
5 134 1
5 135 1
5 136 1
5 154 1
5 155 1
5 156 1
6 3 1
6 6 1
6 25 1
6 26 1
6 27 1
6 44 1
6 47 1
6 69 1
6 87 1
6 88 1
6 112 1
6 113 1
6 114 1
6 116 1
6 135 1
6 136 1
6 137 1
6 138 1
6 156 1
6 157 1
6 158 1
7 2 1
7 5 1
7 8 1
7 27 1
7 28 1
7 29 1
7 45 1
7 46 1
7 49 1
7 71 1
7 114 1
7 115 1
7 116 1
7 118 1
7 137 1
7 138 1
7 139 1
7 140 1
7 158 1
7 159 1
7 160 1
8 4 1
8 7 1
8 10 1
8 29 1
8 30 1
8 31 1
8 47 1
8 48 1
8 51 1
8 73 1
8 116 1
8 117 1
8 118 1
8 120 1
8 139 1
8 140 1
8 141 1
8 142 1
8 160 1
8 161 1
8 162 1
9 6 1
9 9 1
9 12 1
9 31 1
9 32 1
9 33 1
9 49 1
9 50 1
9 53 1
9 75 1
9 118 1
9 119 1
9 120 1
9 122 1
9 141 1
9 142 1
9 143 1
9 144 1
9 162 1
9 163 1
9 164 1
10 8 1
10 11 1
10 14 1
10 33 1
10 34 1
10 35 1
10 51 1
10 52 1
10 55 1
10 77 1
10 120 1
10 121 1
10 122 1
10 124 1
10 143 1
10 144 1
10 145 1
10 146 1
10 164 1
10 165 1
10 166 1
11 10 1
11 13 1
11 16 1
11 35 1
11 36 1
11 37 1
11 53 1
11 54 1
11 57 1
11 79 1
11 122 1
11 123 1
11 124 1
11 126 1
11 145 1
11 146 1
11 147 1
11 148 1
11 166 1
11 167 1
11 168 1
12 12 1
12 15 1
12 18 1
12 37 1
12 38 1
12 39 1
12 55 1
12 56 1
12 59 1
12 81 1
12 124 1
12 125 1
12 126 1
12 128 1
12 147 1
12 148 1
12 149 1
12 150 1
12 168 1
12 169 1
12 170 1
13 14 1
13 17 1
13 20 1
13 39 1
13 40 1
13 41 1
13 57 1
13 58 1
13 61 1
13 83 1
13 126 1
13 127 1
13 128 1
13 130 1
13 149 1
13 150 1
13 151 1
13 152 1
13 170 1
13 171 1
13 172 1
14 16 1
14 19 1
14 22 1
14 41 1
14 42 1
14 43 1
14 59 1
14 60 1
14 63 1
14 85 1
14 128 1
14 129 1
14 130 1
14 132 1
14 151 1
14 152 1
14 153 1
14 154 1
14 172 1
14 173 1
14 174 1
15 1 1
15 18 1
15 21 1
15 24 1
15 43 1
15 44 1
15 61 1
15 62 1
15 65 1
15 87 1
15 90 1
15 130 1
15 131 1
15 132 1
15 153 1
15 154 1
15 155 1
15 156 1
15 174 1
15 175 1
15 176 1
16 1 1
16 2 1
16 3 1
16 20 1
16 23 1
16 26 1
16 45 1
16 63 1
16 64 1
16 67 1
16 89 1
16 90 1
16 92 1
16 132 1
16 133 1
16 134 1
16 155 1
16 156 1
16 157 1
16 158 1
16 176 1
17 3 1
17 4 1
17 5 1
17 22 1
17 25 1
17 28 1
17 47 1
17 65 1
17 66 1
17 69 1
17 90 1
17 91 1
17 92 1
17 94 1
17 134 1
17 135 1
17 136 1
17 157 1
17 158 1
17 159 1
17 160 1
18 5 1
18 6 1
18 7 1
18 24 1
18 27 1
18 30 1
18 49 1
18 67 1
18 68 1
18 71 1
18 92 1
18 93 1
18 94 1
18 96 1
18 136 1
18 137 1
18 138 1
18 159 1
18 160 1
18 161 1
18 162 1
19 7 1
19 8 1
19 9 1
19 26 1
19 29 1
19 32 1
19 51 1
19 69 1
19 70 1
19 73 1
19 94 1
19 95 1
19 96 1
19 98 1
19 138 1
19 139 1
19 140 1
19 161 1
19 162 1
19 163 1
19 164 1
20 9 1
20 10 1
20 11 1
20 28 1
20 31 1
20 34 1
20 53 1
20 71 1
20 72 1
20 75 1
20 96 1
20 97 1
20 98 1
20 100 1
20 140 1
20 141 1
20 142 1
20 163 1
20 164 1
20 165 1
20 166 1
21 11 1
21 12 1
21 13 1
21 30 1
21 33 1
21 36 1
21 55 1
21 73 1
21 74 1
21 77 1
21 98 1
21 99 1
21 100 1
21 102 1
21 142 1
21 143 1
21 144 1
21 165 1
21 166 1
21 167 1
21 168 1
22 13 1
22 14 1
22 15 1
22 32 1
22 35 1
22 38 1
22 57 1
22 75 1
22 76 1
22 79 1
22 100 1
22 101 1
22 102 1
22 104 1
22 144 1
22 145 1
22 146 1
22 167 1
22 168 1
22 169 1
22 170 1
23 15 1
23 18 1
23 33 1
23 34 1
23 38 1
23 39 1
23 40 1
23 60 1
23 77 1
23 82 1
23 101 1
23 102 1
23 103 1
23 105 1
23 106 1
23 145 1
23 146 1
23 147 1
23 169 1
23 171 1
24 17 1
24 20 1
24 35 1
24 36 1
24 40 1
24 41 1
24 42 1
24 62 1
24 79 1
24 84 1
24 103 1
24 104 1
24 105 1
24 107 1
24 108 1
24 147 1
24 148 1
24 149 1
24 171 1
24 173 1
25 19 1
25 22 1
25 37 1
25 38 1
25 42 1
25 43 1
25 44 1
25 64 1
25 81 1
25 86 1
25 105 1
25 106 1
25 107 1
25 109 1
25 110 1
25 149 1
25 150 1
25 151 1
25 173 1
25 175 1
26 1 1
26 2 1
26 21 1
26 24 1
26 39 1
26 40 1
26 44 1
26 66 1
26 83 1
26 88 1
26 107 1
26 108 1
26 109 1
26 111 1
26 112 1
26 133 1
26 151 1
26 152 1
26 153 1
26 175 1
27 2 1
27 3 1
27 4 1
27 23 1
27 26 1
27 41 1
27 42 1
27 46 1
27 68 1
27 85 1
27 109 1
27 110 1
27 111 1
27 113 1
27 114 1
27 133 1
27 135 1
27 153 1
27 154 1
27 155 1
28 4 1
28 5 1
28 6 1
28 25 1
28 28 1
28 43 1
28 44 1
28 48 1
28 70 1
28 87 1
28 111 1
28 112 1
28 113 1
28 115 1
28 116 1
28 135 1
28 137 1
28 155 1
28 156 1
28 157 1
29 1 1
29 2 1
29 6 1
29 7 1
29 8 1
29 27 1
29 30 1
29 45 1
29 50 1
29 72 1
29 113 1
29 114 1
29 115 1
29 117 1
29 118 1
29 137 1
29 139 1
29 157 1
29 158 1
29 159 1
30 3 1
30 4 1
30 8 1
30 9 1
30 10 1
30 29 1
30 32 1
30 47 1
30 52 1
30 74 1
30 115 1
30 116 1
30 117 1
30 119 1
30 120 1
30 139 1
30 141 1
30 159 1
30 160 1
30 161 1
31 5 1
31 6 1
31 10 1
31 11 1
31 12 1
31 31 1
31 34 1
31 49 1
31 54 1
31 76 1
31 117 1
31 118 1
31 119 1
31 121 1
31 122 1
31 141 1
31 143 1
31 161 1
31 162 1
31 163 1
32 7 1
32 8 1
32 12 1
32 13 1
32 14 1
32 33 1
32 36 1
32 51 1
32 56 1
32 78 1
32 119 1
32 120 1
32 121 1
32 123 1
32 124 1
32 143 1
32 145 1
32 163 1
32 164 1
32 165 1
33 9 1
33 10 1
33 14 1
33 15 1
33 16 1
33 35 1
33 38 1
33 53 1
33 58 1
33 80 1
33 121 1
33 122 1
33 123 1
33 125 1
33 126 1
33 145 1
33 147 1
33 165 1
33 166 1
33 167 1
34 11 1
34 12 1
34 16 1
34 17 1
34 18 1
34 37 1
34 40 1
34 55 1
34 60 1
34 82 1
34 123 1
34 124 1
34 125 1
34 127 1
34 128 1
34 147 1
34 149 1
34 167 1
34 168 1
34 169 1
35 13 1
35 14 1
35 18 1
35 19 1
35 20 1
35 39 1
35 42 1
35 57 1
35 62 1
35 84 1
35 125 1
35 126 1
35 127 1
35 129 1
35 130 1
35 149 1
35 151 1
35 169 1
35 170 1
35 171 1
36 15 1
36 16 1
36 20 1
36 21 1
36 22 1
36 41 1
36 44 1
36 59 1
36 64 1
36 86 1
36 127 1
36 128 1
36 129 1
36 131 1
36 132 1
36 151 1
36 153 1
36 171 1
36 172 1
36 173 1
37 2 1
37 17 1
37 18 1
37 22 1
37 23 1
37 24 1
37 43 1
37 61 1
37 66 1
37 88 1
37 89 1
37 90 1
37 129 1
37 130 1
37 131 1
37 153 1
37 155 1
37 173 1
37 174 1
37 175 1
38 1 1
38 4 1
38 19 1
38 20 1
38 24 1
38 25 1
38 26 1
38 46 1
38 63 1
38 68 1
38 89 1
38 91 1
38 92 1
38 131 1
38 132 1
38 133 1
38 155 1
38 157 1
38 175 1
38 176 1
39 3 1
39 6 1
39 21 1
39 22 1
39 26 1
39 27 1
39 28 1
39 48 1
39 65 1
39 70 1
39 89 1
39 90 1
39 91 1
39 93 1
39 94 1
39 133 1
39 134 1
39 135 1
39 157 1
39 159 1
40 5 1
40 8 1
40 23 1
40 24 1
40 28 1
40 29 1
40 30 1
40 50 1
40 67 1
40 72 1
40 91 1
40 92 1
40 93 1
40 95 1
40 96 1
40 135 1
40 136 1
40 137 1
40 159 1
40 161 1
41 7 1
41 10 1
41 25 1
41 26 1
41 30 1
41 31 1
41 32 1
41 52 1
41 69 1
41 74 1
41 93 1
41 94 1
41 95 1
41 97 1
41 98 1
41 137 1
41 138 1
41 139 1
41 161 1
41 163 1
42 9 1
42 12 1
42 27 1
42 28 1
42 32 1
42 33 1
42 34 1
42 54 1
42 71 1
42 76 1
42 95 1
42 96 1
42 97 1
42 99 1
42 100 1
42 139 1
42 140 1
42 141 1
42 163 1
42 165 1
43 11 1
43 14 1
43 29 1
43 30 1
43 34 1
43 35 1
43 36 1
43 56 1
43 73 1
43 78 1
43 97 1
43 98 1
43 99 1
43 101 1
43 102 1
43 141 1
43 142 1
43 143 1
43 165 1
43 167 1
44 13 1
44 16 1
44 31 1
44 32 1
44 36 1
44 37 1
44 38 1
44 58 1
44 75 1
44 80 1
44 99 1
44 100 1
44 101 1
44 103 1
44 104 1
44 143 1
44 144 1
44 145 1
44 167 1
44 169 1
45 9 1
45 12 1
45 29 1
45 31 1
45 33 1
45 38 1
45 97 1
45 98 1
45 101 1
45 103 1
45 120 1
45 121 1
45 141 1
45 143 1
45 144 1
45 145 1
45 148 1
45 162 1
45 165 1
45 235 1
45 236 1
45 254 1
45 257 1
45 258 1
46 11 1
46 14 1
46 31 1
46 33 1
46 35 1
46 40 1
46 99 1
46 100 1
46 103 1
46 105 1
46 122 1
46 123 1
46 143 1
46 145 1
46 146 1
46 147 1
46 150 1
46 164 1
46 167 1
46 237 1
46 238 1
46 256 1
46 259 1
46 260 1
47 13 1
47 16 1
47 33 1
47 35 1
47 37 1
47 42 1
47 101 1
47 102 1
47 105 1
47 107 1
47 124 1
47 125 1
47 145 1
47 147 1
47 148 1
47 149 1
47 152 1
47 166 1
47 169 1
47 239 1
47 240 1
47 258 1
47 261 1
47 262 1
48 15 1
48 18 1
48 35 1
48 37 1
48 39 1
48 44 1
48 103 1
48 104 1
48 107 1
48 109 1
48 126 1
48 127 1
48 147 1
48 149 1
48 150 1
48 151 1
48 154 1
48 168 1
48 171 1
48 241 1
48 242 1
48 260 1
48 263 1
48 264 1
49 2 1
49 17 1
49 20 1
49 37 1
49 39 1
49 41 1
49 105 1
49 106 1
49 109 1
49 111 1
49 128 1
49 129 1
49 149 1
49 151 1
49 152 1
49 153 1
49 156 1
49 170 1
49 173 1
49 221 1
49 222 1
49 243 1
49 244 1
49 262 1
50 4 1
50 19 1
50 22 1
50 39 1
50 41 1
50 43 1
50 107 1
50 108 1
50 111 1
50 113 1
50 130 1
50 131 1
50 151 1
50 153 1
50 154 1
50 155 1
50 158 1
50 172 1
50 175 1
50 223 1
50 224 1
50 245 1
50 246 1
50 264 1
51 1 1
51 6 1
51 21 1
51 24 1
51 41 1
51 43 1
51 89 1
51 109 1
51 110 1
51 113 1
51 115 1
51 132 1
51 133 1
51 153 1
51 155 1
51 156 1
51 157 1
51 160 1
51 174 1
51 222 1
51 225 1
51 226 1
51 247 1
51 248 1
52 1 1
52 3 1
52 8 1
52 23 1
52 26 1
52 43 1
52 90 1
52 91 1
52 111 1
52 112 1
52 115 1
52 117 1
52 135 1
52 155 1
52 157 1
52 158 1
52 159 1
52 162 1
52 176 1
52 224 1
52 227 1
52 228 1
52 249 1
52 250 1
53 1 1
53 3 1
53 5 1
53 10 1
53 25 1
53 28 1
53 92 1
53 93 1
53 113 1
53 114 1
53 117 1
53 119 1
53 134 1
53 137 1
53 157 1
53 159 1
53 160 1
53 161 1
53 164 1
53 226 1
53 229 1
53 230 1
53 251 1
53 252 1
54 3 1
54 5 1
54 7 1
54 12 1
54 27 1
54 30 1
54 94 1
54 95 1
54 115 1
54 116 1
54 119 1
54 121 1
54 136 1
54 139 1
54 159 1
54 161 1
54 162 1
54 163 1
54 166 1
54 228 1
54 231 1
54 232 1
54 253 1
54 254 1
55 5 1
55 7 1
55 9 1
55 14 1
55 29 1
55 32 1
55 96 1
55 97 1
55 117 1
55 118 1
55 121 1
55 123 1
55 138 1
55 141 1
55 161 1
55 163 1
55 164 1
55 165 1
55 168 1
55 230 1
55 233 1
55 234 1
55 255 1
55 256 1
56 7 1
56 9 1
56 11 1
56 16 1
56 31 1
56 34 1
56 98 1
56 99 1
56 119 1
56 120 1
56 123 1
56 125 1
56 140 1
56 143 1
56 163 1
56 165 1
56 166 1
56 167 1
56 170 1
56 232 1
56 235 1
56 236 1
56 257 1
56 258 1
57 9 1
57 11 1
57 13 1
57 18 1
57 33 1
57 36 1
57 100 1
57 101 1
57 121 1
57 122 1
57 125 1
57 127 1
57 142 1
57 145 1
57 165 1
57 167 1
57 168 1
57 169 1
57 172 1
57 234 1
57 237 1
57 238 1
57 259 1
57 260 1
58 11 1
58 13 1
58 15 1
58 20 1
58 35 1
58 38 1
58 102 1
58 103 1
58 123 1
58 124 1
58 127 1
58 129 1
58 144 1
58 147 1
58 167 1
58 169 1
58 170 1
58 171 1
58 174 1
58 236 1
58 239 1
58 240 1
58 261 1
58 262 1
59 13 1
59 15 1
59 17 1
59 22 1
59 37 1
59 40 1
59 104 1
59 105 1
59 125 1
59 126 1
59 129 1
59 131 1
59 146 1
59 149 1
59 169 1
59 171 1
59 172 1
59 173 1
59 176 1
59 238 1
59 241 1
59 242 1
59 263 1
59 264 1
60 15 1
60 17 1
60 19 1
60 24 1
60 39 1
60 42 1
60 89 1
60 106 1
60 107 1
60 127 1
60 128 1
60 131 1
60 134 1
60 148 1
60 151 1
60 171 1
60 173 1
60 174 1
60 175 1
60 221 1
60 222 1
60 240 1
60 243 1
60 244 1
61 17 1
61 19 1
61 21 1
61 26 1
61 41 1
61 44 1
61 89 1
61 91 1
61 108 1
61 109 1
61 129 1
61 130 1
61 133 1
61 136 1
61 150 1
61 153 1
61 173 1
61 175 1
61 176 1
61 223 1
61 224 1
61 242 1
61 245 1
61 246 1
62 2 1
62 19 1
62 21 1
62 23 1
62 28 1
62 43 1
62 91 1
62 93 1
62 110 1
62 111 1
62 131 1
62 132 1
62 133 1
62 134 1
62 135 1
62 138 1
62 152 1
62 155 1
62 175 1
62 225 1
62 226 1
62 244 1
62 247 1
62 248 1
63 1 1
63 4 1
63 21 1
63 23 1
63 25 1
63 30 1
63 89 1
63 90 1
63 93 1
63 95 1
63 112 1
63 113 1
63 133 1
63 135 1
63 136 1
63 137 1
63 140 1
63 154 1
63 157 1
63 227 1
63 228 1
63 246 1
63 249 1
63 250 1
64 3 1
64 6 1
64 23 1
64 25 1
64 27 1
64 32 1
64 91 1
64 92 1
64 95 1
64 97 1
64 114 1
64 115 1
64 135 1
64 137 1
64 138 1
64 139 1
64 142 1
64 156 1
64 159 1
64 229 1
64 230 1
64 248 1
64 251 1
64 252 1
65 5 1
65 8 1
65 25 1
65 27 1
65 29 1
65 34 1
65 93 1
65 94 1
65 97 1
65 99 1
65 116 1
65 117 1
65 137 1
65 139 1
65 140 1
65 141 1
65 144 1
65 158 1
65 161 1
65 231 1
65 232 1
65 250 1
65 253 1
65 254 1
66 7 1
66 10 1
66 27 1
66 29 1
66 31 1
66 36 1
66 95 1
66 96 1
66 99 1
66 101 1
66 118 1
66 119 1
66 139 1
66 141 1
66 142 1
66 143 1
66 146 1
66 160 1
66 163 1
66 233 1
66 234 1
66 252 1
66 255 1
66 256 1
67 10 1
67 11 1
67 12 1
67 30 1
67 32 1
67 34 1
67 37 1
67 38 1
67 97 1
67 102 1
67 104 1
67 119 1
67 120 1
67 122 1
67 142 1
67 143 1
67 146 1
67 147 1
67 148 1
67 161 1
67 162 1
67 166 1
67 235 1
67 253 1
67 254 1
67 257 1
68 12 1
68 13 1
68 14 1
68 32 1
68 34 1
68 36 1
68 39 1
68 40 1
68 99 1
68 104 1
68 106 1
68 121 1
68 122 1
68 124 1
68 144 1
68 145 1
68 148 1
68 149 1
68 150 1
68 163 1
68 164 1
68 168 1
68 237 1
68 255 1
68 256 1
68 259 1
69 14 1
69 15 1
69 16 1
69 34 1
69 36 1
69 38 1
69 41 1
69 42 1
69 101 1
69 106 1
69 108 1
69 123 1
69 124 1
69 126 1
69 146 1
69 147 1
69 150 1
69 151 1
69 152 1
69 165 1
69 166 1
69 170 1
69 239 1
69 257 1
69 258 1
69 261 1
70 16 1
70 17 1
70 18 1
70 36 1
70 38 1
70 40 1
70 43 1
70 44 1
70 103 1
70 108 1
70 110 1
70 125 1
70 126 1
70 128 1
70 148 1
70 149 1
70 152 1
70 153 1
70 154 1
70 167 1
70 168 1
70 172 1
70 241 1
70 259 1
70 260 1
70 263 1
71 1 1
71 2 1
71 18 1
71 19 1
71 20 1
71 38 1
71 40 1
71 42 1
71 105 1
71 110 1
71 112 1
71 127 1
71 128 1
71 130 1
71 150 1
71 151 1
71 154 1
71 155 1
71 156 1
71 169 1
71 170 1
71 174 1
71 221 1
71 243 1
71 261 1
71 262 1
72 3 1
72 4 1
72 20 1
72 21 1
72 22 1
72 40 1
72 42 1
72 44 1
72 107 1
72 112 1
72 114 1
72 129 1
72 130 1
72 132 1
72 152 1
72 153 1
72 156 1
72 157 1
72 158 1
72 171 1
72 172 1
72 176 1
72 223 1
72 245 1
72 263 1
72 264 1
73 2 1
73 5 1
73 6 1
73 22 1
73 23 1
73 24 1
73 42 1
73 44 1
73 90 1
73 109 1
73 114 1
73 116 1
73 131 1
73 132 1
73 134 1
73 154 1
73 155 1
73 158 1
73 159 1
73 160 1
73 173 1
73 174 1
73 221 1
73 222 1
73 225 1
73 247 1
74 2 1
74 4 1
74 7 1
74 8 1
74 24 1
74 25 1
74 26 1
74 44 1
74 89 1
74 90 1
74 92 1
74 111 1
74 116 1
74 118 1
74 136 1
74 156 1
74 157 1
74 160 1
74 161 1
74 162 1
74 175 1
74 176 1
74 223 1
74 224 1
74 227 1
74 249 1
75 2 1
75 4 1
75 6 1
75 9 1
75 10 1
75 26 1
75 27 1
75 28 1
75 91 1
75 92 1
75 94 1
75 113 1
75 118 1
75 120 1
75 133 1
75 134 1
75 138 1
75 158 1
75 159 1
75 162 1
75 163 1
75 164 1
75 225 1
75 226 1
75 229 1
75 251 1
76 4 1
76 6 1
76 8 1
76 11 1
76 12 1
76 28 1
76 29 1
76 30 1
76 93 1
76 94 1
76 96 1
76 115 1
76 120 1
76 122 1
76 135 1
76 136 1
76 140 1
76 160 1
76 161 1
76 164 1
76 165 1
76 166 1
76 227 1
76 228 1
76 231 1
76 253 1
77 6 1
77 8 1
77 10 1
77 13 1
77 14 1
77 30 1
77 31 1
77 32 1
77 95 1
77 96 1
77 98 1
77 117 1
77 122 1
77 124 1
77 137 1
77 138 1
77 142 1
77 162 1
77 163 1
77 166 1
77 167 1
77 168 1
77 229 1
77 230 1
77 233 1
77 255 1
78 8 1
78 10 1
78 12 1
78 15 1
78 16 1
78 32 1
78 33 1
78 34 1
78 97 1
78 98 1
78 100 1
78 119 1
78 124 1
78 126 1
78 139 1
78 140 1
78 144 1
78 164 1
78 165 1
78 168 1
78 169 1
78 170 1
78 231 1
78 232 1
78 235 1
78 257 1
79 10 1
79 12 1
79 14 1
79 17 1
79 18 1
79 34 1
79 35 1
79 36 1
79 99 1
79 100 1
79 102 1
79 121 1
79 126 1
79 128 1
79 141 1
79 142 1
79 146 1
79 166 1
79 167 1
79 170 1
79 171 1
79 172 1
79 233 1
79 234 1
79 237 1
79 259 1
80 12 1
80 14 1
80 16 1
80 19 1
80 20 1
80 36 1
80 37 1
80 38 1
80 101 1
80 102 1
80 104 1
80 123 1
80 128 1
80 130 1
80 143 1
80 144 1
80 148 1
80 168 1
80 169 1
80 172 1
80 173 1
80 174 1
80 235 1
80 236 1
80 239 1
80 261 1
81 14 1
81 16 1
81 18 1
81 21 1
81 22 1
81 38 1
81 39 1
81 40 1
81 103 1
81 104 1
81 106 1
81 125 1
81 130 1
81 132 1
81 145 1
81 146 1
81 150 1
81 170 1
81 171 1
81 174 1
81 175 1
81 176 1
81 237 1
81 238 1
81 241 1
81 263 1
82 16 1
82 18 1
82 20 1
82 23 1
82 24 1
82 40 1
82 41 1
82 42 1
82 90 1
82 105 1
82 106 1
82 108 1
82 127 1
82 132 1
82 133 1
82 134 1
82 147 1
82 148 1
82 152 1
82 172 1
82 173 1
82 176 1
82 221 1
82 239 1
82 240 1
82 243 1
83 18 1
83 20 1
83 22 1
83 25 1
83 26 1
83 42 1
83 43 1
83 44 1
83 90 1
83 92 1
83 107 1
83 108 1
83 110 1
83 129 1
83 134 1
83 135 1
83 136 1
83 149 1
83 150 1
83 154 1
83 174 1
83 175 1
83 223 1
83 241 1
83 242 1
83 245 1
84 1 1
84 2 1
84 20 1
84 22 1
84 24 1
84 27 1
84 28 1
84 44 1
84 92 1
84 94 1
84 109 1
84 110 1
84 112 1
84 131 1
84 133 1
84 136 1
84 137 1
84 138 1
84 151 1
84 152 1
84 156 1
84 176 1
84 225 1
84 243 1
84 244 1
84 247 1
85 2 1
85 3 1
85 4 1
85 22 1
85 24 1
85 26 1
85 29 1
85 30 1
85 89 1
85 94 1
85 96 1
85 111 1
85 112 1
85 114 1
85 134 1
85 135 1
85 138 1
85 139 1
85 140 1
85 153 1
85 154 1
85 158 1
85 227 1
85 245 1
85 246 1
85 249 1
86 4 1
86 5 1
86 6 1
86 24 1
86 26 1
86 28 1
86 31 1
86 32 1
86 91 1
86 96 1
86 98 1
86 113 1
86 114 1
86 116 1
86 136 1
86 137 1
86 140 1
86 141 1
86 142 1
86 155 1
86 156 1
86 160 1
86 229 1
86 247 1
86 248 1
86 251 1
87 6 1
87 7 1
87 8 1
87 26 1
87 28 1
87 30 1
87 33 1
87 34 1
87 93 1
87 98 1
87 100 1
87 115 1
87 116 1
87 118 1
87 138 1
87 139 1
87 142 1
87 143 1
87 144 1
87 157 1
87 158 1
87 162 1
87 231 1
87 249 1
87 250 1
87 253 1
88 8 1
88 9 1
88 10 1
88 28 1
88 30 1
88 32 1
88 35 1
88 36 1
88 95 1
88 100 1
88 102 1
88 117 1
88 118 1
88 120 1
88 140 1
88 141 1
88 144 1
88 145 1
88 146 1
88 159 1
88 160 1
88 164 1
88 233 1
88 251 1
88 252 1
88 255 1
