%%MatrixMarket matrix coordinate integer general
% GF(4) labels 0,1,2=omega,3=omega+1; arithmetic is NOT integer arithmetic.
% Coordinate indices are 1-based; omitted entries are zero.
44 176 770
1 8 3
1 9 1
1 17 2
1 19 1
1 20 2
1 30 1
1 39 3
1 41 1
1 51 2
1 52 3
1 53 2
1 73 2
1 74 3
1 85 3
1 86 3
2 9 3
2 10 1
2 18 2
2 20 1
2 21 2
2 31 1
2 40 3
2 42 1
2 52 2
2 53 3
2 54 2
2 74 2
2 75 3
2 86 3
2 87 3
3 10 3
3 11 1
3 19 2
3 21 1
3 22 2
3 32 1
3 41 3
3 43 1
3 53 2
3 54 3
3 55 2
3 75 2
3 76 3
3 87 3
3 88 3
4 1 2
4 11 3
4 12 1
4 20 2
4 22 1
4 33 1
4 42 3
4 44 1
4 54 2
4 55 3
4 56 2
4 67 3
4 76 2
4 77 3
4 88 3
5 1 1
5 2 2
5 12 3
5 13 1
5 21 2
5 23 1
5 34 1
5 43 3
5 55 2
5 56 3
5 57 2
5 67 3
5 68 3
5 77 2
5 78 3
6 2 1
6 3 2
6 13 3
6 14 1
6 22 2
6 24 1
6 35 1
6 44 3
6 56 2
6 57 3
6 58 2
6 68 3
6 69 3
6 78 2
6 79 3
7 1 2
7 3 1
7 4 2
7 14 3
7 15 1
7 23 3
7 25 1
7 36 1
7 57 2
7 58 3
7 59 2
7 69 3
7 70 3
7 79 2
7 80 3
8 2 2
8 4 1
8 5 2
8 15 3
8 16 1
8 24 3
8 26 1
8 37 1
8 58 2
8 59 3
8 60 2
8 70 3
8 71 3
8 80 2
8 81 3
9 3 2
9 5 1
9 6 2
9 16 3
9 17 1
9 25 3
9 27 1
9 38 1
9 59 2
9 60 3
9 61 2
9 71 3
9 72 3
9 81 2
9 82 3
10 4 2
10 6 1
10 7 2
10 17 3
10 18 1
10 26 3
10 28 1
10 39 1
10 60 2
10 61 3
10 62 2
10 72 3
10 73 3
10 82 2
10 83 3
11 5 2
11 7 1
11 8 2
11 18 3
11 19 1
11 27 3
11 29 1
11 40 1
11 61 2
11 62 3
11 63 2
11 73 3
11 74 3
11 83 2
11 84 3
12 6 2
12 8 1
12 9 2
12 19 3
12 20 1
12 28 3
12 30 1
12 41 1
12 62 2
12 63 3
12 64 2
12 74 3
12 75 3
12 84 2
12 85 3
13 7 2
13 9 1
13 10 2
13 20 3
13 21 1
13 29 3
13 31 1
13 42 1
13 63 2
13 64 3
13 65 2
13 75 3
13 76 3
13 85 2
13 86 3
14 8 2
14 10 1
14 11 2
14 21 3
14 22 1
14 30 3
14 32 1
14 43 1
14 64 2
14 65 3
14 66 2
14 76 3
14 77 3
14 86 2
14 87 3
15 1 1
15 9 2
15 11 1
15 12 2
15 22 3
15 31 3
15 33 1
15 44 1
15 45 2
15 65 2
15 66 3
15 77 3
15 78 3
15 87 2
15 88 3
16 1 3
16 2 1
16 10 2
16 12 1
16 13 2
16 23 1
16 32 3
16 34 1
16 45 3
16 46 2
16 66 2
16 67 3
16 78 3
16 79 3
16 88 2
17 2 3
17 3 1
17 11 2
17 13 1
17 14 2
17 24 1
17 33 3
17 35 1
17 45 2
17 46 3
17 47 2
17 67 2
17 68 3
17 79 3
17 80 3
18 3 3
18 4 1
18 12 2
18 14 1
18 15 2
18 25 1
18 34 3
18 36 1
18 46 2
18 47 3
18 48 2
18 68 2
18 69 3
18 80 3
18 81 3
19 4 3
19 5 1
19 13 2
19 15 1
19 16 2
19 26 1
19 35 3
19 37 1
19 47 2
19 48 3
19 49 2
19 69 2
19 70 3
19 81 3
19 82 3
20 5 3
20 6 1
20 14 2
20 16 1
20 17 2
20 27 1
20 36 3
20 38 1
20 48 2
20 49 3
20 50 2
20 70 2
20 71 3
20 82 3
20 83 3
21 6 3
21 7 1
21 15 2
21 17 1
21 18 2
21 28 1
21 37 3
21 39 1
21 49 2
21 50 3
21 51 2
21 71 2
21 72 3
21 83 3
21 84 3
22 7 3
22 8 1
22 16 2
22 18 1
22 19 2
22 29 1
22 38 3
22 40 1
22 50 2
22 51 3
22 52 2
22 72 2
22 73 3
22 84 3
22 85 3
23 5 1
23 6 2
23 15 1
23 16 1
23 17 1
23 19 2
23 49 3
23 51 1
23 52 1
23 60 2
23 61 1
23 71 1
23 72 3
23 73 1
23 74 2
23 81 2
23 83 1
23 118 3
23 127 2
23 129 3
24 6 1
24 7 2
24 16 1
24 17 1
24 18 1
24 20 2
24 50 3
24 52 1
24 53 1
24 61 2
24 62 1
24 72 1
24 73 3
24 74 1
24 75 2
24 82 2
24 84 1
24 119 3
24 128 2
24 130 3
25 7 1
25 8 2
25 17 1
25 18 1
25 19 1
25 21 2
25 51 3
25 53 1
25 54 1
25 62 2
25 63 1
25 73 1
25 74 3
25 75 1
25 76 2
25 83 2
25 85 1
25 120 3
25 129 2
25 131 3
26 8 1
26 9 2
26 18 1
26 19 1
26 20 1
26 22 2
26 52 3
26 54 1
26 55 1
26 63 2
26 64 1
26 74 1
26 75 3
26 76 1
26 77 2
26 84 2
26 86 1
26 121 3
26 130 2
26 132 3
27 1 2
27 9 1
27 10 2
27 19 1
27 20 1
27 21 1
27 53 3
27 55 1
27 56 1
27 64 2
27 65 1
27 75 1
27 76 3
27 77 1
27 78 2
27 85 2
27 87 1
27 111 3
27 122 3
27 131 2
28 2 2
28 10 1
28 11 2
28 20 1
28 21 1
28 22 1
28 54 3
28 56 1
28 57 1
28 65 2
28 66 1
28 76 1
28 77 3
28 78 1
28 79 2
28 86 2
28 88 1
28 112 3
28 123 3
28 132 2
29 1 1
29 3 2
29 11 1
29 12 2
29 21 1
29 22 1
29 45 1
29 55 3
29 57 1
29 58 1
29 66 2
29 67 1
29 77 1
29 78 3
29 79 1
29 80 2
29 87 2
29 111 2
29 113 3
29 124 3
30 1 1
30 2 1
30 4 2
30 12 1
30 13 2
30 22 1
30 45 2
30 46 1
30 56 3
30 58 1
30 59 1
30 68 1
30 78 1
30 79 3
30 80 1
30 81 2
30 88 2
30 112 2
30 114 3
30 125 3
31 1 1
31 2 1
31 3 1
31 5 2
31 13 1
31 14 2
31 46 2
31 47 1
31 57 3
31 59 1
31 60 1
31 67 2
31 69 1
31 79 1
31 80 3
31 81 1
31 82 2
31 113 2
31 115 3
31 126 3
32 2 1
32 3 1
32 4 1
32 6 2
32 14 1
32 15 2
32 47 2
32 48 1
32 58 3
32 60 1
32 61 1
32 68 2
32 70 1
32 80 1
32 81 3
32 82 1
32 83 2
32 114 2
32 116 3
32 127 3
33 3 1
33 4 1
33 5 1
33 7 2
33 15 1
33 16 2
33 48 2
33 49 1
33 59 3
33 61 1
33 62 1
33 69 2
33 71 1
33 81 1
33 82 3
33 83 1
33 84 2
33 115 2
33 117 3
33 128 3
34 4 1
34 5 1
34 6 1
34 8 2
34 16 1
34 17 2
34 49 2
34 50 1
34 60 3
34 62 1
34 63 1
34 70 2
34 72 1
34 82 1
34 83 3
34 84 1
34 85 2
34 116 2
34 118 3
34 129 3
35 5 1
35 6 1
35 7 1
35 9 2
35 17 1
35 18 2
35 50 2
35 51 1
35 61 3
35 63 1
35 64 1
35 71 2
35 73 1
35 83 1
35 84 3
35 85 1
35 86 2
35 117 2
35 119 3
35 130 3
36 6 1
36 7 1
36 8 1
36 10 2
36 18 1
36 19 2
36 51 2
36 52 1
36 62 3
36 64 1
36 65 1
36 72 2
36 74 1
36 84 1
36 85 3
36 86 1
36 87 2
36 118 2
36 120 3
36 131 3
37 7 1
37 8 1
37 9 1
37 11 2
37 19 1
37 20 2
37 52 2
37 53 1
37 63 3
37 65 1
37 66 1
37 73 2
37 75 1
37 85 1
37 86 3
37 87 1
37 88 2
37 119 2
37 121 3
37 132 3
38 8 1
38 9 1
38 10 1
38 12 2
38 20 1
38 21 2
38 45 1
38 53 2
38 54 1
38 64 3
38 66 1
38 67 2
38 74 2
38 76 1
38 86 1
38 87 3
38 88 1
38 111 3
38 120 2
38 122 3
39 9 1
39 10 1
39 11 1
39 13 2
39 21 1
39 22 2
39 45 1
39 46 1
39 54 2
39 55 1
39 65 3
39 67 1
39 68 2
39 75 2
39 77 1
39 87 1
39 88 3
39 112 3
39 121 2
39 123 3
40 1 2
40 10 1
40 11 1
40 12 1
40 14 2
40 22 1
40 46 1
40 47 1
40 55 2
40 56 1
40 66 3
40 67 3
40 68 1
40 69 2
40 76 2
40 78 1
40 88 1
40 113 3
40 122 2
40 124 3
41 1 1
41 2 2
41 11 1
41 12 1
41 13 1
41 15 2
41 45 3
41 47 1
41 48 1
41 56 2
41 57 1
41 67 1
41 68 3
41 69 1
41 70 2
41 77 2
41 79 1
41 114 3
41 123 2
41 125 3
42 2 1
42 3 2
42 12 1
42 13 1
42 14 1
42 16 2
42 46 3
42 48 1
42 49 1
42 57 2
42 58 1
42 68 1
42 69 3
42 70 1
42 71 2
42 78 2
42 80 1
42 115 3
42 124 2
42 126 3
43 3 1
43 4 2
43 13 1
43 14 1
43 15 1
43 17 2
43 47 3
43 49 1
43 50 1
43 58 2
43 59 1
43 69 1
43 70 3
43 71 1
43 72 2
43 79 2
43 81 1
43 116 3
43 125 2
43 127 3
44 4 1
44 5 2
44 14 1
44 15 1
44 16 1
44 18 2
44 48 3
44 50 1
44 51 1
44 59 2
44 60 1
44 70 1
44 71 3
44 72 1
44 73 2
44 80 2
44 82 1
44 117 3
44 126 2
44 128 3
