%%MatrixMarket matrix coordinate integer general
% Binary matrix over GF(2).
% Coordinate indices are 1-based; omitted entries are zero.
288 768 2448
1 2 1
1 97 1
1 193 1
1 289 1
1 385 1
1 481 1
1 577 1
1 673 1
2 1 1
2 2 1
2 98 1
2 194 1
2 290 1
2 386 1
2 482 1
2 578 1
2 674 1
3 4 1
3 99 1
3 195 1
3 291 1
3 387 1
3 483 1
3 579 1
3 675 1
4 3 1
4 4 1
4 100 1
4 196 1
4 292 1
4 388 1
4 484 1
4 580 1
4 676 1
5 6 1
5 101 1
5 197 1
5 293 1
5 389 1
5 485 1
5 581 1
5 677 1
6 5 1
6 6 1
6 102 1
6 198 1
6 294 1
6 390 1
6 486 1
6 582 1
6 678 1
7 8 1
7 103 1
7 199 1
7 295 1
7 391 1
7 487 1
7 583 1
7 679 1
8 7 1
8 8 1
8 104 1
8 200 1
8 296 1
8 392 1
8 488 1
8 584 1
8 680 1
9 10 1
9 105 1
9 201 1
9 297 1
9 393 1
9 489 1
9 585 1
9 681 1
10 9 1
10 10 1
10 106 1
10 202 1
10 298 1
10 394 1
10 490 1
10 586 1
10 682 1
11 12 1
11 107 1
11 203 1
11 299 1
11 395 1
11 491 1
11 587 1
11 683 1
12 11 1
12 12 1
12 108 1
12 204 1
12 300 1
12 396 1
12 492 1
12 588 1
12 684 1
13 14 1
13 109 1
13 205 1
13 301 1
13 397 1
13 493 1
13 589 1
13 685 1
14 13 1
14 14 1
14 110 1
14 206 1
14 302 1
14 398 1
14 494 1
14 590 1
14 686 1
15 16 1
15 111 1
15 207 1
15 303 1
15 399 1
15 495 1
15 591 1
15 687 1
16 15 1
16 16 1
16 112 1
16 208 1
16 304 1
16 400 1
16 496 1
16 592 1
16 688 1
17 18 1
17 113 1
17 209 1
17 305 1
17 401 1
17 497 1
17 593 1
17 689 1
18 17 1
18 18 1
18 114 1
18 210 1
18 306 1
18 402 1
18 498 1
18 594 1
18 690 1
19 20 1
19 115 1
19 211 1
19 307 1
19 403 1
19 499 1
19 595 1
19 691 1
20 19 1
20 20 1
20 116 1
20 212 1
20 308 1
20 404 1
20 500 1
20 596 1
20 692 1
21 22 1
21 117 1
21 213 1
21 309 1
21 405 1
21 501 1
21 597 1
21 693 1
22 21 1
22 22 1
22 118 1
22 214 1
22 310 1
22 406 1
22 502 1
22 598 1
22 694 1
23 24 1
23 119 1
23 215 1
23 311 1
23 407 1
23 503 1
23 599 1
23 695 1
24 23 1
24 24 1
24 120 1
24 216 1
24 312 1
24 408 1
24 504 1
24 600 1
24 696 1
25 26 1
25 121 1
25 217 1
25 313 1
25 409 1
25 505 1
25 601 1
25 697 1
26 25 1
26 26 1
26 122 1
26 218 1
26 314 1
26 410 1
26 506 1
26 602 1
26 698 1
27 28 1
27 123 1
27 219 1
27 315 1
27 411 1
27 507 1
27 603 1
27 699 1
28 27 1
28 28 1
28 124 1
28 220 1
28 316 1
28 412 1
28 508 1
28 604 1
28 700 1
29 30 1
29 125 1
29 221 1
29 317 1
29 413 1
29 509 1
29 605 1
29 701 1
30 29 1
30 30 1
30 126 1
30 222 1
30 318 1
30 414 1
30 510 1
30 606 1
30 702 1
31 32 1
31 127 1
31 223 1
31 319 1
31 415 1
31 511 1
31 607 1
31 703 1
32 31 1
32 32 1
32 128 1
32 224 1
32 320 1
32 416 1
32 512 1
32 608 1
32 704 1
33 34 1
33 129 1
33 225 1
33 321 1
33 417 1
33 513 1
33 609 1
33 705 1
34 33 1
34 34 1
34 130 1
34 226 1
34 322 1
34 418 1
34 514 1
34 610 1
34 706 1
35 36 1
35 131 1
35 227 1
35 323 1
35 419 1
35 515 1
35 611 1
35 707 1
36 35 1
36 36 1
36 132 1
36 228 1
36 324 1
36 420 1
36 516 1
36 612 1
36 708 1
37 38 1
37 133 1
37 229 1
37 325 1
37 421 1
37 517 1
37 613 1
37 709 1
38 37 1
38 38 1
38 134 1
38 230 1
38 326 1
38 422 1
38 518 1
38 614 1
38 710 1
39 40 1
39 135 1
39 231 1
39 327 1
39 423 1
39 519 1
39 615 1
39 711 1
40 39 1
40 40 1
40 136 1
40 232 1
40 328 1
40 424 1
40 520 1
40 616 1
40 712 1
41 42 1
41 137 1
41 233 1
41 329 1
41 425 1
41 521 1
41 617 1
41 713 1
42 41 1
42 42 1
42 138 1
42 234 1
42 330 1
42 426 1
42 522 1
42 618 1
42 714 1
43 44 1
43 139 1
43 235 1
43 331 1
43 427 1
43 523 1
43 619 1
43 715 1
44 43 1
44 44 1
44 140 1
44 236 1
44 332 1
44 428 1
44 524 1
44 620 1
44 716 1
45 46 1
45 141 1
45 237 1
45 333 1
45 429 1
45 525 1
45 621 1
45 717 1
46 45 1
46 46 1
46 142 1
46 238 1
46 334 1
46 430 1
46 526 1
46 622 1
46 718 1
47 48 1
47 143 1
47 239 1
47 335 1
47 431 1
47 527 1
47 623 1
47 719 1
48 47 1
48 48 1
48 144 1
48 240 1
48 336 1
48 432 1
48 528 1
48 624 1
48 720 1
49 50 1
49 145 1
49 241 1
49 337 1
49 433 1
49 529 1
49 625 1
49 721 1
50 49 1
50 50 1
50 146 1
50 242 1
50 338 1
50 434 1
50 530 1
50 626 1
50 722 1
51 52 1
51 147 1
51 243 1
51 339 1
51 435 1
51 531 1
51 627 1
51 723 1
52 51 1
52 52 1
52 148 1
52 244 1
52 340 1
52 436 1
52 532 1
52 628 1
52 724 1
53 54 1
53 149 1
53 245 1
53 341 1
53 437 1
53 533 1
53 629 1
53 725 1
54 53 1
54 54 1
54 150 1
54 246 1
54 342 1
54 438 1
54 534 1
54 630 1
54 726 1
55 56 1
55 151 1
55 247 1
55 343 1
55 439 1
55 535 1
55 631 1
55 727 1
56 55 1
56 56 1
56 152 1
56 248 1
56 344 1
56 440 1
56 536 1
56 632 1
56 728 1
57 58 1
57 153 1
57 249 1
57 345 1
57 441 1
57 537 1
57 633 1
57 729 1
58 57 1
58 58 1
58 154 1
58 250 1
58 346 1
58 442 1
58 538 1
58 634 1
58 730 1
59 60 1
59 155 1
59 251 1
59 347 1
59 443 1
59 539 1
59 635 1
59 731 1
60 59 1
60 60 1
60 156 1
60 252 1
60 348 1
60 444 1
60 540 1
60 636 1
60 732 1
61 62 1
61 157 1
61 253 1
61 349 1
61 445 1
61 541 1
61 637 1
61 733 1
62 61 1
62 62 1
62 158 1
62 254 1
62 350 1
62 446 1
62 542 1
62 638 1
62 734 1
63 64 1
63 159 1
63 255 1
63 351 1
63 447 1
63 543 1
63 639 1
63 735 1
64 63 1
64 64 1
64 160 1
64 256 1
64 352 1
64 448 1
64 544 1
64 640 1
64 736 1
65 66 1
65 161 1
65 257 1
65 353 1
65 449 1
65 545 1
65 641 1
65 737 1
66 65 1
66 66 1
66 162 1
66 258 1
66 354 1
66 450 1
66 546 1
66 642 1
66 738 1
67 68 1
67 163 1
67 259 1
67 355 1
67 451 1
67 547 1
67 643 1
67 739 1
68 67 1
68 68 1
68 164 1
68 260 1
68 356 1
68 452 1
68 548 1
68 644 1
68 740 1
69 70 1
69 165 1
69 261 1
69 357 1
69 453 1
69 549 1
69 645 1
69 741 1
70 69 1
70 70 1
70 166 1
70 262 1
70 358 1
70 454 1
70 550 1
70 646 1
70 742 1
71 72 1
71 167 1
71 263 1
71 359 1
71 455 1
71 551 1
71 647 1
71 743 1
72 71 1
72 72 1
72 168 1
72 264 1
72 360 1
72 456 1
72 552 1
72 648 1
72 744 1
73 74 1
73 169 1
73 265 1
73 361 1
73 457 1
73 553 1
73 649 1
73 745 1
74 73 1
74 74 1
74 170 1
74 266 1
74 362 1
74 458 1
74 554 1
74 650 1
74 746 1
75 76 1
75 171 1
75 267 1
75 363 1
75 459 1
75 555 1
75 651 1
75 747 1
76 75 1
76 76 1
76 172 1
76 268 1
76 364 1
76 460 1
76 556 1
76 652 1
76 748 1
77 78 1
77 173 1
77 269 1
77 365 1
77 461 1
77 557 1
77 653 1
77 749 1
78 77 1
78 78 1
78 174 1
78 270 1
78 366 1
78 462 1
78 558 1
78 654 1
78 750 1
79 80 1
79 175 1
79 271 1
79 367 1
79 463 1
79 559 1
79 655 1
79 751 1
80 79 1
80 80 1
80 176 1
80 272 1
80 368 1
80 464 1
80 560 1
80 656 1
80 752 1
81 82 1
81 177 1
81 273 1
81 369 1
81 465 1
81 561 1
81 657 1
81 753 1
82 81 1
82 82 1
82 178 1
82 274 1
82 370 1
82 466 1
82 562 1
82 658 1
82 754 1
83 84 1
83 179 1
83 275 1
83 371 1
83 467 1
83 563 1
83 659 1
83 755 1
84 83 1
84 84 1
84 180 1
84 276 1
84 372 1
84 468 1
84 564 1
84 660 1
84 756 1
85 86 1
85 181 1
85 277 1
85 373 1
85 469 1
85 565 1
85 661 1
85 757 1
86 85 1
86 86 1
86 182 1
86 278 1
86 374 1
86 470 1
86 566 1
86 662 1
86 758 1
87 88 1
87 183 1
87 279 1
87 375 1
87 471 1
87 567 1
87 663 1
87 759 1
88 87 1
88 88 1
88 184 1
88 280 1
88 376 1
88 472 1
88 568 1
88 664 1
88 760 1
89 90 1
89 185 1
89 281 1
89 377 1
89 473 1
89 569 1
89 665 1
89 761 1
90 89 1
90 90 1
90 186 1
90 282 1
90 378 1
90 474 1
90 570 1
90 666 1
90 762 1
91 92 1
91 187 1
91 283 1
91 379 1
91 475 1
91 571 1
91 667 1
91 763 1
92 91 1
92 92 1
92 188 1
92 284 1
92 380 1
92 476 1
92 572 1
92 668 1
92 764 1
93 94 1
93 189 1
93 285 1
93 381 1
93 477 1
93 573 1
93 669 1
93 765 1
94 93 1
94 94 1
94 190 1
94 286 1
94 382 1
94 478 1
94 574 1
94 670 1
94 766 1
95 96 1
95 191 1
95 287 1
95 383 1
95 479 1
95 575 1
95 671 1
95 767 1
96 95 1
96 96 1
96 192 1
96 288 1
96 384 1
96 480 1
96 576 1
96 672 1
96 768 1
97 1 1
97 192 1
97 265 1
97 315 1
97 449 1
97 505 1
97 631 1
97 675 1
98 2 1
98 191 1
98 192 1
98 266 1
98 316 1
98 450 1
98 506 1
98 632 1
98 676 1
99 3 1
99 98 1
99 267 1
99 317 1
99 451 1
99 507 1
99 633 1
99 677 1
100 4 1
100 97 1
100 98 1
100 268 1
100 318 1
100 452 1
100 508 1
100 634 1
100 678 1
101 5 1
101 100 1
101 269 1
101 319 1
101 453 1
101 509 1
101 635 1
101 679 1
102 6 1
102 99 1
102 100 1
102 270 1
102 320 1
102 454 1
102 510 1
102 636 1
102 680 1
103 7 1
103 102 1
103 271 1
103 321 1
103 455 1
103 511 1
103 637 1
103 681 1
104 8 1
104 101 1
104 102 1
104 272 1
104 322 1
104 456 1
104 512 1
104 638 1
104 682 1
105 9 1
105 104 1
105 273 1
105 323 1
105 457 1
105 513 1
105 639 1
105 683 1
106 10 1
106 103 1
106 104 1
106 274 1
106 324 1
106 458 1
106 514 1
106 640 1
106 684 1
107 11 1
107 106 1
107 275 1
107 325 1
107 459 1
107 515 1
107 641 1
107 685 1
108 12 1
108 105 1
108 106 1
108 276 1
108 326 1
108 460 1
108 516 1
108 642 1
108 686 1
109 13 1
109 108 1
109 277 1
109 327 1
109 461 1
109 517 1
109 643 1
109 687 1
110 14 1
110 107 1
110 108 1
110 278 1
110 328 1
110 462 1
110 518 1
110 644 1
110 688 1
111 15 1
111 110 1
111 279 1
111 329 1
111 463 1
111 519 1
111 645 1
111 689 1
112 16 1
112 109 1
112 110 1
112 280 1
112 330 1
112 464 1
112 520 1
112 646 1
112 690 1
113 17 1
113 112 1
113 281 1
113 331 1
113 465 1
113 521 1
113 647 1
113 691 1
114 18 1
114 111 1
114 112 1
114 282 1
114 332 1
114 466 1
114 522 1
114 648 1
114 692 1
115 19 1
115 114 1
115 283 1
115 333 1
115 467 1
115 523 1
115 649 1
115 693 1
116 20 1
116 113 1
116 114 1
116 284 1
116 334 1
116 468 1
116 524 1
116 650 1
116 694 1
117 21 1
117 116 1
117 285 1
117 335 1
117 469 1
117 525 1
117 651 1
117 695 1
118 22 1
118 115 1
118 116 1
118 286 1
118 336 1
118 470 1
118 526 1
118 652 1
118 696 1
119 23 1
119 118 1
119 287 1
119 337 1
119 471 1
119 527 1
119 653 1
119 697 1
120 24 1
120 117 1
120 118 1
120 288 1
120 338 1
120 472 1
120 528 1
120 654 1
120 698 1
121 25 1
121 120 1
121 193 1
121 339 1
121 473 1
121 529 1
121 655 1
121 699 1
122 26 1
122 119 1
122 120 1
122 194 1
122 340 1
122 474 1
122 530 1
122 656 1
122 700 1
123 27 1
123 122 1
123 195 1
123 341 1
123 475 1
123 531 1
123 657 1
123 701 1
124 28 1
124 121 1
124 122 1
124 196 1
124 342 1
124 476 1
124 532 1
124 658 1
124 702 1
125 29 1
125 124 1
125 197 1
125 343 1
125 477 1
125 533 1
125 659 1
125 703 1
126 30 1
126 123 1
126 124 1
126 198 1
126 344 1
126 478 1
126 534 1
126 660 1
126 704 1
127 31 1
127 126 1
127 199 1
127 345 1
127 479 1
127 535 1
127 661 1
127 705 1
128 32 1
128 125 1
128 126 1
128 200 1
128 346 1
128 480 1
128 536 1
128 662 1
128 706 1
129 33 1
129 128 1
129 201 1
129 347 1
129 385 1
129 537 1
129 663 1
129 707 1
130 34 1
130 127 1
130 128 1
130 202 1
130 348 1
130 386 1
130 538 1
130 664 1
130 708 1
131 35 1
131 130 1
131 203 1
131 349 1
131 387 1
131 539 1
131 665 1
131 709 1
132 36 1
132 129 1
132 130 1
132 204 1
132 350 1
132 388 1
132 540 1
132 666 1
132 710 1
133 37 1
133 132 1
133 205 1
133 351 1
133 389 1
133 541 1
133 667 1
133 711 1
134 38 1
134 131 1
134 132 1
134 206 1
134 352 1
134 390 1
134 542 1
134 668 1
134 712 1
135 39 1
135 134 1
135 207 1
135 353 1
135 391 1
135 543 1
135 669 1
135 713 1
136 40 1
136 133 1
136 134 1
136 208 1
136 354 1
136 392 1
136 544 1
136 670 1
136 714 1
137 41 1
137 136 1
137 209 1
137 355 1
137 393 1
137 545 1
137 671 1
137 715 1
138 42 1
138 135 1
138 136 1
138 210 1
138 356 1
138 394 1
138 546 1
138 672 1
138 716 1
139 43 1
139 138 1
139 211 1
139 357 1
139 395 1
139 547 1
139 577 1
139 717 1
140 44 1
140 137 1
140 138 1
140 212 1
140 358 1
140 396 1
140 548 1
140 578 1
140 718 1
141 45 1
141 140 1
141 213 1
141 359 1
141 397 1
141 549 1
141 579 1
141 719 1
142 46 1
142 139 1
142 140 1
142 214 1
142 360 1
142 398 1
142 550 1
142 580 1
142 720 1
143 47 1
143 142 1
143 215 1
143 361 1
143 399 1
143 551 1
143 581 1
143 721 1
144 48 1
144 141 1
144 142 1
144 216 1
144 362 1
144 400 1
144 552 1
144 582 1
144 722 1
145 49 1
145 144 1
145 217 1
145 363 1
145 401 1
145 553 1
145 583 1
145 723 1
146 50 1
146 143 1
146 144 1
146 218 1
146 364 1
146 402 1
146 554 1
146 584 1
146 724 1
147 51 1
147 146 1
147 219 1
147 365 1
147 403 1
147 555 1
147 585 1
147 725 1
148 52 1
148 145 1
148 146 1
148 220 1
148 366 1
148 404 1
148 556 1
148 586 1
148 726 1
149 53 1
149 148 1
149 221 1
149 367 1
149 405 1
149 557 1
149 587 1
149 727 1
150 54 1
150 147 1
150 148 1
150 222 1
150 368 1
150 406 1
150 558 1
150 588 1
150 728 1
151 55 1
151 150 1
151 223 1
151 369 1
151 407 1
151 559 1
151 589 1
151 729 1
152 56 1
152 149 1
152 150 1
152 224 1
152 370 1
152 408 1
152 560 1
152 590 1
152 730 1
153 57 1
153 152 1
153 225 1
153 371 1
153 409 1
153 561 1
153 591 1
153 731 1
154 58 1
154 151 1
154 152 1
154 226 1
154 372 1
154 410 1
154 562 1
154 592 1
154 732 1
155 59 1
155 154 1
155 227 1
155 373 1
155 411 1
155 563 1
155 593 1
155 733 1
156 60 1
156 153 1
156 154 1
156 228 1
156 374 1
156 412 1
156 564 1
156 594 1
156 734 1
157 61 1
157 156 1
157 229 1
157 375 1
157 413 1
157 565 1
157 595 1
157 735 1
158 62 1
158 155 1
158 156 1
158 230 1
158 376 1
158 414 1
158 566 1
158 596 1
158 736 1
159 63 1
159 158 1
159 231 1
159 377 1
159 415 1
159 567 1
159 597 1
159 737 1
160 64 1
160 157 1
160 158 1
160 232 1
160 378 1
160 416 1
160 568 1
160 598 1
160 738 1
161 65 1
161 160 1
161 233 1
161 379 1
161 417 1
161 569 1
161 599 1
161 739 1
162 66 1
162 159 1
162 160 1
162 234 1
162 380 1
162 418 1
162 570 1
162 600 1
162 740 1
163 67 1
163 162 1
163 235 1
163 381 1
163 419 1
163 571 1
163 601 1
163 741 1
164 68 1
164 161 1
164 162 1
164 236 1
164 382 1
164 420 1
164 572 1
164 602 1
164 742 1
165 69 1
165 164 1
165 237 1
165 383 1
165 421 1
165 573 1
165 603 1
165 743 1
166 70 1
166 163 1
166 164 1
166 238 1
166 384 1
166 422 1
166 574 1
166 604 1
166 744 1
167 71 1
167 166 1
167 239 1
167 289 1
167 423 1
167 575 1
167 605 1
167 745 1
168 72 1
168 165 1
168 166 1
168 240 1
168 290 1
168 424 1
168 576 1
168 606 1
168 746 1
169 73 1
169 168 1
169 241 1
169 291 1
169 425 1
169 481 1
169 607 1
169 747 1
170 74 1
170 167 1
170 168 1
170 242 1
170 292 1
170 426 1
170 482 1
170 608 1
170 748 1
171 75 1
171 170 1
171 243 1
171 293 1
171 427 1
171 483 1
171 609 1
171 749 1
172 76 1
172 169 1
172 170 1
172 244 1
172 294 1
172 428 1
172 484 1
172 610 1
172 750 1
173 77 1
173 172 1
173 245 1
173 295 1
173 429 1
173 485 1
173 611 1
173 751 1
174 78 1
174 171 1
174 172 1
174 246 1
174 296 1
174 430 1
174 486 1
174 612 1
174 752 1
175 79 1
175 174 1
175 247 1
175 297 1
175 431 1
175 487 1
175 613 1
175 753 1
176 80 1
176 173 1
176 174 1
176 248 1
176 298 1
176 432 1
176 488 1
176 614 1
176 754 1
177 81 1
177 176 1
177 249 1
177 299 1
177 433 1
177 489 1
177 615 1
177 755 1
178 82 1
178 175 1
178 176 1
178 250 1
178 300 1
178 434 1
178 490 1
178 616 1
178 756 1
179 83 1
179 178 1
179 251 1
179 301 1
179 435 1
179 491 1
179 617 1
179 757 1
180 84 1
180 177 1
180 178 1
180 252 1
180 302 1
180 436 1
180 492 1
180 618 1
180 758 1
181 85 1
181 180 1
181 253 1
181 303 1
181 437 1
181 493 1
181 619 1
181 759 1
182 86 1
182 179 1
182 180 1
182 254 1
182 304 1
182 438 1
182 494 1
182 620 1
182 760 1
183 87 1
183 182 1
183 255 1
183 305 1
183 439 1
183 495 1
183 621 1
183 761 1
184 88 1
184 181 1
184 182 1
184 256 1
184 306 1
184 440 1
184 496 1
184 622 1
184 762 1
185 89 1
185 184 1
185 257 1
185 307 1
185 441 1
185 497 1
185 623 1
185 763 1
186 90 1
186 183 1
186 184 1
186 258 1
186 308 1
186 442 1
186 498 1
186 624 1
186 764 1
187 91 1
187 186 1
187 259 1
187 309 1
187 443 1
187 499 1
187 625 1
187 765 1
188 92 1
188 185 1
188 186 1
188 260 1
188 310 1
188 444 1
188 500 1
188 626 1
188 766 1
189 93 1
189 188 1
189 261 1
189 311 1
189 445 1
189 501 1
189 627 1
189 767 1
190 94 1
190 187 1
190 188 1
190 262 1
190 312 1
190 446 1
190 502 1
190 628 1
190 768 1
191 95 1
191 190 1
191 263 1
191 313 1
191 447 1
191 503 1
191 629 1
191 673 1
192 96 1
192 189 1
192 190 1
192 264 1
192 314 1
192 448 1
192 504 1
192 630 1
192 674 1
193 1 1
193 167 1
193 218 1
193 307 1
193 475 1
193 547 1
193 633 1
193 721 1
194 2 1
194 168 1
194 217 1
194 218 1
194 308 1
194 476 1
194 548 1
194 634 1
194 722 1
195 3 1
195 169 1
195 220 1
195 309 1
195 477 1
195 549 1
195 635 1
195 723 1
196 4 1
196 170 1
196 219 1
196 220 1
196 310 1
196 478 1
196 550 1
196 636 1
196 724 1
197 5 1
197 171 1
197 222 1
197 311 1
197 479 1
197 551 1
197 637 1
197 725 1
198 6 1
198 172 1
198 221 1
198 222 1
198 312 1
198 480 1
198 552 1
198 638 1
198 726 1
199 7 1
199 173 1
199 224 1
199 313 1
199 385 1
199 553 1
199 639 1
199 727 1
200 8 1
200 174 1
200 223 1
200 224 1
200 314 1
200 386 1
200 554 1
200 640 1
200 728 1
201 9 1
201 175 1
201 226 1
201 315 1
201 387 1
201 555 1
201 641 1
201 729 1
202 10 1
202 176 1
202 225 1
202 226 1
202 316 1
202 388 1
202 556 1
202 642 1
202 730 1
203 11 1
203 177 1
203 228 1
203 317 1
203 389 1
203 557 1
203 643 1
203 731 1
204 12 1
204 178 1
204 227 1
204 228 1
204 318 1
204 390 1
204 558 1
204 644 1
204 732 1
205 13 1
205 179 1
205 230 1
205 319 1
205 391 1
205 559 1
205 645 1
205 733 1
206 14 1
206 180 1
206 229 1
206 230 1
206 320 1
206 392 1
206 560 1
206 646 1
206 734 1
207 15 1
207 181 1
207 232 1
207 321 1
207 393 1
207 561 1
207 647 1
207 735 1
208 16 1
208 182 1
208 231 1
208 232 1
208 322 1
208 394 1
208 562 1
208 648 1
208 736 1
209 17 1
209 183 1
209 234 1
209 323 1
209 395 1
209 563 1
209 649 1
209 737 1
210 18 1
210 184 1
210 233 1
210 234 1
210 324 1
210 396 1
210 564 1
210 650 1
210 738 1
211 19 1
211 185 1
211 236 1
211 325 1
211 397 1
211 565 1
211 651 1
211 739 1
212 20 1
212 186 1
212 235 1
212 236 1
212 326 1
212 398 1
212 566 1
212 652 1
212 740 1
213 21 1
213 187 1
213 238 1
213 327 1
213 399 1
213 567 1
213 653 1
213 741 1
214 22 1
214 188 1
214 237 1
214 238 1
214 328 1
214 400 1
214 568 1
214 654 1
214 742 1
215 23 1
215 189 1
215 240 1
215 329 1
215 401 1
215 569 1
215 655 1
215 743 1
216 24 1
216 190 1
216 239 1
216 240 1
216 330 1
216 402 1
216 570 1
216 656 1
216 744 1
217 25 1
217 191 1
217 242 1
217 331 1
217 403 1
217 571 1
217 657 1
217 745 1
218 26 1
218 192 1
218 241 1
218 242 1
218 332 1
218 404 1
218 572 1
218 658 1
218 746 1
219 27 1
219 97 1
219 244 1
219 333 1
219 405 1
219 573 1
219 659 1
219 747 1
220 28 1
220 98 1
220 243 1
220 244 1
220 334 1
220 406 1
220 574 1
220 660 1
220 748 1
221 29 1
221 99 1
221 246 1
221 335 1
221 407 1
221 575 1
221 661 1
221 749 1
222 30 1
222 100 1
222 245 1
222 246 1
222 336 1
222 408 1
222 576 1
222 662 1
222 750 1
223 31 1
223 101 1
223 248 1
223 337 1
223 409 1
223 481 1
223 663 1
223 751 1
224 32 1
224 102 1
224 247 1
224 248 1
224 338 1
224 410 1
224 482 1
224 664 1
224 752 1
225 33 1
225 103 1
225 250 1
225 339 1
225 411 1
225 483 1
225 665 1
225 753 1
226 34 1
226 104 1
226 249 1
226 250 1
226 340 1
226 412 1
226 484 1
226 666 1
226 754 1
227 35 1
227 105 1
227 252 1
227 341 1
227 413 1
227 485 1
227 667 1
227 755 1
228 36 1
228 106 1
228 251 1
228 252 1
228 342 1
228 414 1
228 486 1
228 668 1
228 756 1
229 37 1
229 107 1
229 254 1
229 343 1
229 415 1
229 487 1
229 669 1
229 757 1
230 38 1
230 108 1
230 253 1
230 254 1
230 344 1
230 416 1
230 488 1
230 670 1
230 758 1
231 39 1
231 109 1
231 256 1
231 345 1
231 417 1
231 489 1
231 671 1
231 759 1
232 40 1
232 110 1
232 255 1
232 256 1
232 346 1
232 418 1
232 490 1
232 672 1
232 760 1
233 41 1
233 111 1
233 258 1
233 347 1
233 419 1
233 491 1
233 577 1
233 761 1
234 42 1
234 112 1
234 257 1
234 258 1
234 348 1
234 420 1
234 492 1
234 578 1
234 762 1
235 43 1
235 113 1
235 260 1
235 349 1
235 421 1
235 493 1
235 579 1
235 763 1
236 44 1
236 114 1
236 259 1
236 260 1
236 350 1
236 422 1
236 494 1
236 580 1
236 764 1
237 45 1
237 115 1
237 262 1
237 351 1
237 423 1
237 495 1
237 581 1
237 765 1
238 46 1
238 116 1
238 261 1
238 262 1
238 352 1
238 424 1
238 496 1
238 582 1
238 766 1
239 47 1
239 117 1
239 264 1
239 353 1
239 425 1
239 497 1
239 583 1
239 767 1
240 48 1
240 118 1
240 263 1
240 264 1
240 354 1
240 426 1
240 498 1
240 584 1
240 768 1
241 49 1
241 119 1
241 266 1
241 355 1
241 427 1
241 499 1
241 585 1
241 673 1
242 50 1
242 120 1
242 265 1
242 266 1
242 356 1
242 428 1
242 500 1
242 586 1
242 674 1
243 51 1
243 121 1
243 268 1
243 357 1
243 429 1
243 501 1
243 587 1
243 675 1
244 52 1
244 122 1
244 267 1
244 268 1
244 358 1
244 430 1
244 502 1
244 588 1
244 676 1
245 53 1
245 123 1
245 270 1
245 359 1
245 431 1
245 503 1
245 589 1
245 677 1
246 54 1
246 124 1
246 269 1
246 270 1
246 360 1
246 432 1
246 504 1
246 590 1
246 678 1
247 55 1
247 125 1
247 272 1
247 361 1
247 433 1
247 505 1
247 591 1
247 679 1
248 56 1
248 126 1
248 271 1
248 272 1
248 362 1
248 434 1
248 506 1
248 592 1
248 680 1
249 57 1
249 127 1
249 274 1
249 363 1
249 435 1
249 507 1
249 593 1
249 681 1
250 58 1
250 128 1
250 273 1
250 274 1
250 364 1
250 436 1
250 508 1
250 594 1
250 682 1
251 59 1
251 129 1
251 276 1
251 365 1
251 437 1
251 509 1
251 595 1
251 683 1
252 60 1
252 130 1
252 275 1
252 276 1
252 366 1
252 438 1
252 510 1
252 596 1
252 684 1
253 61 1
253 131 1
253 278 1
253 367 1
253 439 1
253 511 1
253 597 1
253 685 1
254 62 1
254 132 1
254 277 1
254 278 1
254 368 1
254 440 1
254 512 1
254 598 1
254 686 1
255 63 1
255 133 1
255 280 1
255 369 1
255 441 1
255 513 1
255 599 1
255 687 1
256 64 1
256 134 1
256 279 1
256 280 1
256 370 1
256 442 1
256 514 1
256 600 1
256 688 1
257 65 1
257 135 1
257 282 1
257 371 1
257 443 1
257 515 1
257 601 1
257 689 1
258 66 1
258 136 1
258 281 1
258 282 1
258 372 1
258 444 1
258 516 1
258 602 1
258 690 1
259 67 1
259 137 1
259 284 1
259 373 1
259 445 1
259 517 1
259 603 1
259 691 1
260 68 1
260 138 1
260 283 1
260 284 1
260 374 1
260 446 1
260 518 1
260 604 1
260 692 1
261 69 1
261 139 1
261 286 1
261 375 1
261 447 1
261 519 1
261 605 1
261 693 1
262 70 1
262 140 1
262 285 1
262 286 1
262 376 1
262 448 1
262 520 1
262 606 1
262 694 1
263 71 1
263 141 1
263 288 1
263 377 1
263 449 1
263 521 1
263 607 1
263 695 1
264 72 1
264 142 1
264 287 1
264 288 1
264 378 1
264 450 1
264 522 1
264 608 1
264 696 1
265 73 1
265 143 1
265 194 1
265 379 1
265 451 1
265 523 1
265 609 1
265 697 1
266 74 1
266 144 1
266 193 1
266 194 1
266 380 1
266 452 1
266 524 1
266 610 1
266 698 1
267 75 1
267 145 1
267 196 1
267 381 1
267 453 1
267 525 1
267 611 1
267 699 1
268 76 1
268 146 1
268 195 1
268 196 1
268 382 1
268 454 1
268 526 1
268 612 1
268 700 1
269 77 1
269 147 1
269 198 1
269 383 1
269 455 1
269 527 1
269 613 1
269 701 1
270 78 1
270 148 1
270 197 1
270 198 1
270 384 1
270 456 1
270 528 1
270 614 1
270 702 1
271 79 1
271 149 1
271 200 1
271 289 1
271 457 1
271 529 1
271 615 1
271 703 1
272 80 1
272 150 1
272 199 1
272 200 1
272 290 1
272 458 1
272 530 1
272 616 1
272 704 1
273 81 1
273 151 1
273 202 1
273 291 1
273 459 1
273 531 1
273 617 1
273 705 1
274 82 1
274 152 1
274 201 1
274 202 1
274 292 1
274 460 1
274 532 1
274 618 1
274 706 1
275 83 1
275 153 1
275 204 1
275 293 1
275 461 1
275 533 1
275 619 1
275 707 1
276 84 1
276 154 1
276 203 1
276 204 1
276 294 1
276 462 1
276 534 1
276 620 1
276 708 1
277 85 1
277 155 1
277 206 1
277 295 1
277 463 1
277 535 1
277 621 1
277 709 1
278 86 1
278 156 1
278 205 1
278 206 1
278 296 1
278 464 1
278 536 1
278 622 1
278 710 1
279 87 1
279 157 1
279 208 1
279 297 1
279 465 1
279 537 1
279 623 1
279 711 1
280 88 1
280 158 1
280 207 1
280 208 1
280 298 1
280 466 1
280 538 1
280 624 1
280 712 1
281 89 1
281 159 1
281 210 1
281 299 1
281 467 1
281 539 1
281 625 1
281 713 1
282 90 1
282 160 1
282 209 1
282 210 1
282 300 1
282 468 1
282 540 1
282 626 1
282 714 1
283 91 1
283 161 1
283 212 1
283 301 1
283 469 1
283 541 1
283 627 1
283 715 1
284 92 1
284 162 1
284 211 1
284 212 1
284 302 1
284 470 1
284 542 1
284 628 1
284 716 1
285 93 1
285 163 1
285 214 1
285 303 1
285 471 1
285 543 1
285 629 1
285 717 1
286 94 1
286 164 1
286 213 1
286 214 1
286 304 1
286 472 1
286 544 1
286 630 1
286 718 1
287 95 1
287 165 1
287 216 1
287 305 1
287 473 1
287 545 1
287 631 1
287 719 1
288 96 1
288 166 1
288 215 1
288 216 1
288 306 1
288 474 1
288 546 1
288 632 1
288 720 1
