%%MatrixMarket matrix coordinate integer general
% GF(4) labels 0,1,2=omega,3=omega+1; arithmetic is NOT integer arithmetic.
% Coordinate indices are 1-based; omitted entries are zero.
144 384 1152
1 1 2
1 49 1
1 97 1
1 145 1
1 193 1
1 241 1
1 289 1
1 337 1
2 2 2
2 50 1
2 98 1
2 146 1
2 194 1
2 242 1
2 290 1
2 338 1
3 3 2
3 51 1
3 99 1
3 147 1
3 195 1
3 243 1
3 291 1
3 339 1
4 4 2
4 52 1
4 100 1
4 148 1
4 196 1
4 244 1
4 292 1
4 340 1
5 5 2
5 53 1
5 101 1
5 149 1
5 197 1
5 245 1
5 293 1
5 341 1
6 6 2
6 54 1
6 102 1
6 150 1
6 198 1
6 246 1
6 294 1
6 342 1
7 7 2
7 55 1
7 103 1
7 151 1
7 199 1
7 247 1
7 295 1
7 343 1
8 8 2
8 56 1
8 104 1
8 152 1
8 200 1
8 248 1
8 296 1
8 344 1
9 9 2
9 57 1
9 105 1
9 153 1
9 201 1
9 249 1
9 297 1
9 345 1
10 10 2
10 58 1
10 106 1
10 154 1
10 202 1
10 250 1
10 298 1
10 346 1
11 11 2
11 59 1
11 107 1
11 155 1
11 203 1
11 251 1
11 299 1
11 347 1
12 12 2
12 60 1
12 108 1
12 156 1
12 204 1
12 252 1
12 300 1
12 348 1
13 13 2
13 61 1
13 109 1
13 157 1
13 205 1
13 253 1
13 301 1
13 349 1
14 14 2
14 62 1
14 110 1
14 158 1
14 206 1
14 254 1
14 302 1
14 350 1
15 15 2
15 63 1
15 111 1
15 159 1
15 207 1
15 255 1
15 303 1
15 351 1
16 16 2
16 64 1
16 112 1
16 160 1
16 208 1
16 256 1
16 304 1
16 352 1
17 17 2
17 65 1
17 113 1
17 161 1
17 209 1
17 257 1
17 305 1
17 353 1
18 18 2
18 66 1
18 114 1
18 162 1
18 210 1
18 258 1
18 306 1
18 354 1
19 19 2
19 67 1
19 115 1
19 163 1
19 211 1
19 259 1
19 307 1
19 355 1
20 20 2
20 68 1
20 116 1
20 164 1
20 212 1
20 260 1
20 308 1
20 356 1
21 21 2
21 69 1
21 117 1
21 165 1
21 213 1
21 261 1
21 309 1
21 357 1
22 22 2
22 70 1
22 118 1
22 166 1
22 214 1
22 262 1
22 310 1
22 358 1
23 23 2
23 71 1
23 119 1
23 167 1
23 215 1
23 263 1
23 311 1
23 359 1
24 24 2
24 72 1
24 120 1
24 168 1
24 216 1
24 264 1
24 312 1
24 360 1
25 25 2
25 73 1
25 121 1
25 169 1
25 217 1
25 265 1
25 313 1
25 361 1
26 26 2
26 74 1
26 122 1
26 170 1
26 218 1
26 266 1
26 314 1
26 362 1
27 27 2
27 75 1
27 123 1
27 171 1
27 219 1
27 267 1
27 315 1
27 363 1
28 28 2
28 76 1
28 124 1
28 172 1
28 220 1
28 268 1
28 316 1
28 364 1
29 29 2
29 77 1
29 125 1
29 173 1
29 221 1
29 269 1
29 317 1
29 365 1
30 30 2
30 78 1
30 126 1
30 174 1
30 222 1
30 270 1
30 318 1
30 366 1
31 31 2
31 79 1
31 127 1
31 175 1
31 223 1
31 271 1
31 319 1
31 367 1
32 32 2
32 80 1
32 128 1
32 176 1
32 224 1
32 272 1
32 320 1
32 368 1
33 33 2
33 81 1
33 129 1
33 177 1
33 225 1
33 273 1
33 321 1
33 369 1
34 34 2
34 82 1
34 130 1
34 178 1
34 226 1
34 274 1
34 322 1
34 370 1
35 35 2
35 83 1
35 131 1
35 179 1
35 227 1
35 275 1
35 323 1
35 371 1
36 36 2
36 84 1
36 132 1
36 180 1
36 228 1
36 276 1
36 324 1
36 372 1
37 37 2
37 85 1
37 133 1
37 181 1
37 229 1
37 277 1
37 325 1
37 373 1
38 38 2
38 86 1
38 134 1
38 182 1
38 230 1
38 278 1
38 326 1
38 374 1
39 39 2
39 87 1
39 135 1
39 183 1
39 231 1
39 279 1
39 327 1
39 375 1
40 40 2
40 88 1
40 136 1
40 184 1
40 232 1
40 280 1
40 328 1
40 376 1
41 41 2
41 89 1
41 137 1
41 185 1
41 233 1
41 281 1
41 329 1
41 377 1
42 42 2
42 90 1
42 138 1
42 186 1
42 234 1
42 282 1
42 330 1
42 378 1
43 43 2
43 91 1
43 139 1
43 187 1
43 235 1
43 283 1
43 331 1
43 379 1
44 44 2
44 92 1
44 140 1
44 188 1
44 236 1
44 284 1
44 332 1
44 380 1
45 45 2
45 93 1
45 141 1
45 189 1
45 237 1
45 285 1
45 333 1
45 381 1
46 46 2
46 94 1
46 142 1
46 190 1
46 238 1
46 286 1
46 334 1
46 382 1
47 47 2
47 95 1
47 143 1
47 191 1
47 239 1
47 287 1
47 335 1
47 383 1
48 48 2
48 96 1
48 144 1
48 192 1
48 240 1
48 288 1
48 336 1
48 384 1
49 1 1
49 96 2
49 133 1
49 158 1
49 225 1
49 253 1
49 316 1
49 338 1
50 2 1
50 49 2
50 134 1
50 159 1
50 226 1
50 254 1
50 317 1
50 339 1
51 3 1
51 50 2
51 135 1
51 160 1
51 227 1
51 255 1
51 318 1
51 340 1
52 4 1
52 51 2
52 136 1
52 161 1
52 228 1
52 256 1
52 319 1
52 341 1
53 5 1
53 52 2
53 137 1
53 162 1
53 229 1
53 257 1
53 320 1
53 342 1
54 6 1
54 53 2
54 138 1
54 163 1
54 230 1
54 258 1
54 321 1
54 343 1
55 7 1
55 54 2
55 139 1
55 164 1
55 231 1
55 259 1
55 322 1
55 344 1
56 8 1
56 55 2
56 140 1
56 165 1
56 232 1
56 260 1
56 323 1
56 345 1
57 9 1
57 56 2
57 141 1
57 166 1
57 233 1
57 261 1
57 324 1
57 346 1
58 10 1
58 57 2
58 142 1
58 167 1
58 234 1
58 262 1
58 325 1
58 347 1
59 11 1
59 58 2
59 143 1
59 168 1
59 235 1
59 263 1
59 326 1
59 348 1
60 12 1
60 59 2
60 144 1
60 169 1
60 236 1
60 264 1
60 327 1
60 349 1
61 13 1
61 60 2
61 97 1
61 170 1
61 237 1
61 265 1
61 328 1
61 350 1
62 14 1
62 61 2
62 98 1
62 171 1
62 238 1
62 266 1
62 329 1
62 351 1
63 15 1
63 62 2
63 99 1
63 172 1
63 239 1
63 267 1
63 330 1
63 352 1
64 16 1
64 63 2
64 100 1
64 173 1
64 240 1
64 268 1
64 331 1
64 353 1
65 17 1
65 64 2
65 101 1
65 174 1
65 193 1
65 269 1
65 332 1
65 354 1
66 18 1
66 65 2
66 102 1
66 175 1
66 194 1
66 270 1
66 333 1
66 355 1
67 19 1
67 66 2
67 103 1
67 176 1
67 195 1
67 271 1
67 334 1
67 356 1
68 20 1
68 67 2
68 104 1
68 177 1
68 196 1
68 272 1
68 335 1
68 357 1
69 21 1
69 68 2
69 105 1
69 178 1
69 197 1
69 273 1
69 336 1
69 358 1
70 22 1
70 69 2
70 106 1
70 179 1
70 198 1
70 274 1
70 289 1
70 359 1
71 23 1
71 70 2
71 107 1
71 180 1
71 199 1
71 275 1
71 290 1
71 360 1
72 24 1
72 71 2
72 108 1
72 181 1
72 200 1
72 276 1
72 291 1
72 361 1
73 25 1
73 72 2
73 109 1
73 182 1
73 201 1
73 277 1
73 292 1
73 362 1
74 26 1
74 73 2
74 110 1
74 183 1
74 202 1
74 278 1
74 293 1
74 363 1
75 27 1
75 74 2
75 111 1
75 184 1
75 203 1
75 279 1
75 294 1
75 364 1
76 28 1
76 75 2
76 112 1
76 185 1
76 204 1
76 280 1
76 295 1
76 365 1
77 29 1
77 76 2
77 113 1
77 186 1
77 205 1
77 281 1
77 296 1
77 366 1
78 30 1
78 77 2
78 114 1
78 187 1
78 206 1
78 282 1
78 297 1
78 367 1
79 31 1
79 78 2
79 115 1
79 188 1
79 207 1
79 283 1
79 298 1
79 368 1
80 32 1
80 79 2
80 116 1
80 189 1
80 208 1
80 284 1
80 299 1
80 369 1
81 33 1
81 80 2
81 117 1
81 190 1
81 209 1
81 285 1
81 300 1
81 370 1
82 34 1
82 81 2
82 118 1
82 191 1
82 210 1
82 286 1
82 301 1
82 371 1
83 35 1
83 82 2
83 119 1
83 192 1
83 211 1
83 287 1
83 302 1
83 372 1
84 36 1
84 83 2
84 120 1
84 145 1
84 212 1
84 288 1
84 303 1
84 373 1
85 37 1
85 84 2
85 121 1
85 146 1
85 213 1
85 241 1
85 304 1
85 374 1
86 38 1
86 85 2
86 122 1
86 147 1
86 214 1
86 242 1
86 305 1
86 375 1
87 39 1
87 86 2
87 123 1
87 148 1
87 215 1
87 243 1
87 306 1
87 376 1
88 40 1
88 87 2
88 124 1
88 149 1
88 216 1
88 244 1
88 307 1
88 377 1
89 41 1
89 88 2
89 125 1
89 150 1
89 217 1
89 245 1
89 308 1
89 378 1
90 42 1
90 89 2
90 126 1
90 151 1
90 218 1
90 246 1
90 309 1
90 379 1
91 43 1
91 90 2
91 127 1
91 152 1
91 219 1
91 247 1
91 310 1
91 380 1
92 44 1
92 91 2
92 128 1
92 153 1
92 220 1
92 248 1
92 311 1
92 381 1
93 45 1
93 92 2
93 129 1
93 154 1
93 221 1
93 249 1
93 312 1
93 382 1
94 46 1
94 93 2
94 130 1
94 155 1
94 222 1
94 250 1
94 313 1
94 383 1
95 47 1
95 94 2
95 131 1
95 156 1
95 223 1
95 251 1
95 314 1
95 384 1
96 48 1
96 95 2
96 132 1
96 157 1
96 224 1
96 252 1
96 315 1
96 337 1
97 1 1
97 84 1
97 109 2
97 154 1
97 238 1
97 274 1
97 317 1
97 361 1
98 2 1
98 85 1
98 110 2
98 155 1
98 239 1
98 275 1
98 318 1
98 362 1
99 3 1
99 86 1
99 111 2
99 156 1
99 240 1
99 276 1
99 319 1
99 363 1
100 4 1
100 87 1
100 112 2
100 157 1
100 193 1
100 277 1
100 320 1
100 364 1
101 5 1
101 88 1
101 113 2
101 158 1
101 194 1
101 278 1
101 321 1
101 365 1
102 6 1
102 89 1
102 114 2
102 159 1
102 195 1
102 279 1
102 322 1
102 366 1
103 7 1
103 90 1
103 115 2
103 160 1
103 196 1
103 280 1
103 323 1
103 367 1
104 8 1
104 91 1
104 116 2
104 161 1
104 197 1
104 281 1
104 324 1
104 368 1
105 9 1
105 92 1
105 117 2
105 162 1
105 198 1
105 282 1
105 325 1
105 369 1
106 10 1
106 93 1
106 118 2
106 163 1
106 199 1
106 283 1
106 326 1
106 370 1
107 11 1
107 94 1
107 119 2
107 164 1
107 200 1
107 284 1
107 327 1
107 371 1
108 12 1
108 95 1
108 120 2
108 165 1
108 201 1
108 285 1
108 328 1
108 372 1
109 13 1
109 96 1
109 121 2
109 166 1
109 202 1
109 286 1
109 329 1
109 373 1
110 14 1
110 49 1
110 122 2
110 167 1
110 203 1
110 287 1
110 330 1
110 374 1
111 15 1
111 50 1
111 123 2
111 168 1
111 204 1
111 288 1
111 331 1
111 375 1
112 16 1
112 51 1
112 124 2
112 169 1
112 205 1
112 241 1
112 332 1
112 376 1
113 17 1
113 52 1
113 125 2
113 170 1
113 206 1
113 242 1
113 333 1
113 377 1
114 18 1
114 53 1
114 126 2
114 171 1
114 207 1
114 243 1
114 334 1
114 378 1
115 19 1
115 54 1
115 127 2
115 172 1
115 208 1
115 244 1
115 335 1
115 379 1
116 20 1
116 55 1
116 128 2
116 173 1
116 209 1
116 245 1
116 336 1
116 380 1
117 21 1
117 56 1
117 129 2
117 174 1
117 210 1
117 246 1
117 289 1
117 381 1
118 22 1
118 57 1
118 130 2
118 175 1
118 211 1
118 247 1
118 290 1
118 382 1
119 23 1
119 58 1
119 131 2
119 176 1
119 212 1
119 248 1
119 291 1
119 383 1
120 24 1
120 59 1
120 132 2
120 177 1
120 213 1
120 249 1
120 292 1
120 384 1
121 25 1
121 60 1
121 133 2
121 178 1
121 214 1
121 250 1
121 293 1
121 337 1
122 26 1
122 61 1
122 134 2
122 179 1
122 215 1
122 251 1
122 294 1
122 338 1
123 27 1
123 62 1
123 135 2
123 180 1
123 216 1
123 252 1
123 295 1
123 339 1
124 28 1
124 63 1
124 136 2
124 181 1
124 217 1
124 253 1
124 296 1
124 340 1
125 29 1
125 64 1
125 137 2
125 182 1
125 218 1
125 254 1
125 297 1
125 341 1
126 30 1
126 65 1
126 138 2
126 183 1
126 219 1
126 255 1
126 298 1
126 342 1
127 31 1
127 66 1
127 139 2
127 184 1
127 220 1
127 256 1
127 299 1
127 343 1
128 32 1
128 67 1
128 140 2
128 185 1
128 221 1
128 257 1
128 300 1
128 344 1
129 33 1
129 68 1
129 141 2
129 186 1
129 222 1
129 258 1
129 301 1
129 345 1
130 34 1
130 69 1
130 142 2
130 187 1
130 223 1
130 259 1
130 302 1
130 346 1
131 35 1
131 70 1
131 143 2
131 188 1
131 224 1
131 260 1
131 303 1
131 347 1
132 36 1
132 71 1
132 144 2
132 189 1
132 225 1
132 261 1
132 304 1
132 348 1
133 37 1
133 72 1
133 97 2
133 190 1
133 226 1
133 262 1
133 305 1
133 349 1
134 38 1
134 73 1
134 98 2
134 191 1
134 227 1
134 263 1
134 306 1
134 350 1
135 39 1
135 74 1
135 99 2
135 192 1
135 228 1
135 264 1
135 307 1
135 351 1
136 40 1
136 75 1
136 100 2
136 145 1
136 229 1
136 265 1
136 308 1
136 352 1
137 41 1
137 76 1
137 101 2
137 146 1
137 230 1
137 266 1
137 309 1
137 353 1
138 42 1
138 77 1
138 102 2
138 147 1
138 231 1
138 267 1
138 310 1
138 354 1
139 43 1
139 78 1
139 103 2
139 148 1
139 232 1
139 268 1
139 311 1
139 355 1
140 44 1
140 79 1
140 104 2
140 149 1
140 233 1
140 269 1
140 312 1
140 356 1
141 45 1
141 80 1
141 105 2
141 150 1
141 234 1
141 270 1
141 313 1
141 357 1
142 46 1
142 81 1
142 106 2
142 151 1
142 235 1
142 271 1
142 314 1
142 358 1
143 47 1
143 82 1
143 107 2
143 152 1
143 236 1
143 272 1
143 315 1
143 359 1
144 48 1
144 83 1
144 108 2
144 153 1
144 237 1
144 273 1
144 316 1
144 360 1
