%%MatrixMarket matrix coordinate integer general
% Binary matrix over GF(2).
% Coordinate indices are 1-based; omitted entries are zero.
288 768 2448
1 1 1
1 127 1
1 223 1
1 315 1
1 386 1
1 507 1
1 633 1
1 729 1
2 2 1
2 128 1
2 224 1
2 316 1
2 385 1
2 386 1
2 508 1
2 634 1
2 730 1
3 3 1
3 129 1
3 225 1
3 317 1
3 388 1
3 509 1
3 635 1
3 731 1
4 4 1
4 130 1
4 226 1
4 318 1
4 387 1
4 388 1
4 510 1
4 636 1
4 732 1
5 5 1
5 131 1
5 227 1
5 319 1
5 390 1
5 511 1
5 637 1
5 733 1
6 6 1
6 132 1
6 228 1
6 320 1
6 389 1
6 390 1
6 512 1
6 638 1
6 734 1
7 7 1
7 133 1
7 229 1
7 321 1
7 392 1
7 513 1
7 639 1
7 735 1
8 8 1
8 134 1
8 230 1
8 322 1
8 391 1
8 392 1
8 514 1
8 640 1
8 736 1
9 9 1
9 135 1
9 231 1
9 323 1
9 394 1
9 515 1
9 641 1
9 737 1
10 10 1
10 136 1
10 232 1
10 324 1
10 393 1
10 394 1
10 516 1
10 642 1
10 738 1
11 11 1
11 137 1
11 233 1
11 325 1
11 396 1
11 517 1
11 643 1
11 739 1
12 12 1
12 138 1
12 234 1
12 326 1
12 395 1
12 396 1
12 518 1
12 644 1
12 740 1
13 13 1
13 139 1
13 235 1
13 327 1
13 398 1
13 519 1
13 645 1
13 741 1
14 14 1
14 140 1
14 236 1
14 328 1
14 397 1
14 398 1
14 520 1
14 646 1
14 742 1
15 15 1
15 141 1
15 237 1
15 329 1
15 400 1
15 521 1
15 647 1
15 743 1
16 16 1
16 142 1
16 238 1
16 330 1
16 399 1
16 400 1
16 522 1
16 648 1
16 744 1
17 17 1
17 143 1
17 239 1
17 331 1
17 402 1
17 523 1
17 649 1
17 745 1
18 18 1
18 144 1
18 240 1
18 332 1
18 401 1
18 402 1
18 524 1
18 650 1
18 746 1
19 19 1
19 145 1
19 241 1
19 333 1
19 404 1
19 525 1
19 651 1
19 747 1
20 20 1
20 146 1
20 242 1
20 334 1
20 403 1
20 404 1
20 526 1
20 652 1
20 748 1
21 21 1
21 147 1
21 243 1
21 335 1
21 406 1
21 527 1
21 653 1
21 749 1
22 22 1
22 148 1
22 244 1
22 336 1
22 405 1
22 406 1
22 528 1
22 654 1
22 750 1
23 23 1
23 149 1
23 245 1
23 337 1
23 408 1
23 529 1
23 655 1
23 751 1
24 24 1
24 150 1
24 246 1
24 338 1
24 407 1
24 408 1
24 530 1
24 656 1
24 752 1
25 25 1
25 151 1
25 247 1
25 339 1
25 410 1
25 531 1
25 657 1
25 753 1
26 26 1
26 152 1
26 248 1
26 340 1
26 409 1
26 410 1
26 532 1
26 658 1
26 754 1
27 27 1
27 153 1
27 249 1
27 341 1
27 412 1
27 533 1
27 659 1
27 755 1
28 28 1
28 154 1
28 250 1
28 342 1
28 411 1
28 412 1
28 534 1
28 660 1
28 756 1
29 29 1
29 155 1
29 251 1
29 343 1
29 414 1
29 535 1
29 661 1
29 757 1
30 30 1
30 156 1
30 252 1
30 344 1
30 413 1
30 414 1
30 536 1
30 662 1
30 758 1
31 31 1
31 157 1
31 253 1
31 345 1
31 416 1
31 537 1
31 663 1
31 759 1
32 32 1
32 158 1
32 254 1
32 346 1
32 415 1
32 416 1
32 538 1
32 664 1
32 760 1
33 33 1
33 159 1
33 255 1
33 347 1
33 418 1
33 539 1
33 665 1
33 761 1
34 34 1
34 160 1
34 256 1
34 348 1
34 417 1
34 418 1
34 540 1
34 666 1
34 762 1
35 35 1
35 161 1
35 257 1
35 349 1
35 420 1
35 541 1
35 667 1
35 763 1
36 36 1
36 162 1
36 258 1
36 350 1
36 419 1
36 420 1
36 542 1
36 668 1
36 764 1
37 37 1
37 163 1
37 259 1
37 351 1
37 422 1
37 543 1
37 669 1
37 765 1
38 38 1
38 164 1
38 260 1
38 352 1
38 421 1
38 422 1
38 544 1
38 670 1
38 766 1
39 39 1
39 165 1
39 261 1
39 353 1
39 424 1
39 545 1
39 671 1
39 767 1
40 40 1
40 166 1
40 262 1
40 354 1
40 423 1
40 424 1
40 546 1
40 672 1
40 768 1
41 41 1
41 167 1
41 263 1
41 355 1
41 426 1
41 547 1
41 577 1
41 673 1
42 42 1
42 168 1
42 264 1
42 356 1
42 425 1
42 426 1
42 548 1
42 578 1
42 674 1
43 43 1
43 169 1
43 265 1
43 357 1
43 428 1
43 549 1
43 579 1
43 675 1
44 44 1
44 170 1
44 266 1
44 358 1
44 427 1
44 428 1
44 550 1
44 580 1
44 676 1
45 45 1
45 171 1
45 267 1
45 359 1
45 430 1
45 551 1
45 581 1
45 677 1
46 46 1
46 172 1
46 268 1
46 360 1
46 429 1
46 430 1
46 552 1
46 582 1
46 678 1
47 47 1
47 173 1
47 269 1
47 361 1
47 432 1
47 553 1
47 583 1
47 679 1
48 48 1
48 174 1
48 270 1
48 362 1
48 431 1
48 432 1
48 554 1
48 584 1
48 680 1
49 49 1
49 175 1
49 271 1
49 363 1
49 434 1
49 555 1
49 585 1
49 681 1
50 50 1
50 176 1
50 272 1
50 364 1
50 433 1
50 434 1
50 556 1
50 586 1
50 682 1
51 51 1
51 177 1
51 273 1
51 365 1
51 436 1
51 557 1
51 587 1
51 683 1
52 52 1
52 178 1
52 274 1
52 366 1
52 435 1
52 436 1
52 558 1
52 588 1
52 684 1
53 53 1
53 179 1
53 275 1
53 367 1
53 438 1
53 559 1
53 589 1
53 685 1
54 54 1
54 180 1
54 276 1
54 368 1
54 437 1
54 438 1
54 560 1
54 590 1
54 686 1
55 55 1
55 181 1
55 277 1
55 369 1
55 440 1
55 561 1
55 591 1
55 687 1
56 56 1
56 182 1
56 278 1
56 370 1
56 439 1
56 440 1
56 562 1
56 592 1
56 688 1
57 57 1
57 183 1
57 279 1
57 371 1
57 442 1
57 563 1
57 593 1
57 689 1
58 58 1
58 184 1
58 280 1
58 372 1
58 441 1
58 442 1
58 564 1
58 594 1
58 690 1
59 59 1
59 185 1
59 281 1
59 373 1
59 444 1
59 565 1
59 595 1
59 691 1
60 60 1
60 186 1
60 282 1
60 374 1
60 443 1
60 444 1
60 566 1
60 596 1
60 692 1
61 61 1
61 187 1
61 283 1
61 375 1
61 446 1
61 567 1
61 597 1
61 693 1
62 62 1
62 188 1
62 284 1
62 376 1
62 445 1
62 446 1
62 568 1
62 598 1
62 694 1
63 63 1
63 189 1
63 285 1
63 377 1
63 448 1
63 569 1
63 599 1
63 695 1
64 64 1
64 190 1
64 286 1
64 378 1
64 447 1
64 448 1
64 570 1
64 600 1
64 696 1
65 65 1
65 191 1
65 287 1
65 379 1
65 450 1
65 571 1
65 601 1
65 697 1
66 66 1
66 192 1
66 288 1
66 380 1
66 449 1
66 450 1
66 572 1
66 602 1
66 698 1
67 67 1
67 97 1
67 193 1
67 381 1
67 452 1
67 573 1
67 603 1
67 699 1
68 68 1
68 98 1
68 194 1
68 382 1
68 451 1
68 452 1
68 574 1
68 604 1
68 700 1
69 69 1
69 99 1
69 195 1
69 383 1
69 454 1
69 575 1
69 605 1
69 701 1
70 70 1
70 100 1
70 196 1
70 384 1
70 453 1
70 454 1
70 576 1
70 606 1
70 702 1
71 71 1
71 101 1
71 197 1
71 289 1
71 456 1
71 481 1
71 607 1
71 703 1
72 72 1
72 102 1
72 198 1
72 290 1
72 455 1
72 456 1
72 482 1
72 608 1
72 704 1
73 73 1
73 103 1
73 199 1
73 291 1
73 458 1
73 483 1
73 609 1
73 705 1
74 74 1
74 104 1
74 200 1
74 292 1
74 457 1
74 458 1
74 484 1
74 610 1
74 706 1
75 75 1
75 105 1
75 201 1
75 293 1
75 460 1
75 485 1
75 611 1
75 707 1
76 76 1
76 106 1
76 202 1
76 294 1
76 459 1
76 460 1
76 486 1
76 612 1
76 708 1
77 77 1
77 107 1
77 203 1
77 295 1
77 462 1
77 487 1
77 613 1
77 709 1
78 78 1
78 108 1
78 204 1
78 296 1
78 461 1
78 462 1
78 488 1
78 614 1
78 710 1
79 79 1
79 109 1
79 205 1
79 297 1
79 464 1
79 489 1
79 615 1
79 711 1
80 80 1
80 110 1
80 206 1
80 298 1
80 463 1
80 464 1
80 490 1
80 616 1
80 712 1
81 81 1
81 111 1
81 207 1
81 299 1
81 466 1
81 491 1
81 617 1
81 713 1
82 82 1
82 112 1
82 208 1
82 300 1
82 465 1
82 466 1
82 492 1
82 618 1
82 714 1
83 83 1
83 113 1
83 209 1
83 301 1
83 468 1
83 493 1
83 619 1
83 715 1
84 84 1
84 114 1
84 210 1
84 302 1
84 467 1
84 468 1
84 494 1
84 620 1
84 716 1
85 85 1
85 115 1
85 211 1
85 303 1
85 470 1
85 495 1
85 621 1
85 717 1
86 86 1
86 116 1
86 212 1
86 304 1
86 469 1
86 470 1
86 496 1
86 622 1
86 718 1
87 87 1
87 117 1
87 213 1
87 305 1
87 472 1
87 497 1
87 623 1
87 719 1
88 88 1
88 118 1
88 214 1
88 306 1
88 471 1
88 472 1
88 498 1
88 624 1
88 720 1
89 89 1
89 119 1
89 215 1
89 307 1
89 474 1
89 499 1
89 625 1
89 721 1
90 90 1
90 120 1
90 216 1
90 308 1
90 473 1
90 474 1
90 500 1
90 626 1
90 722 1
91 91 1
91 121 1
91 217 1
91 309 1
91 476 1
91 501 1
91 627 1
91 723 1
92 92 1
92 122 1
92 218 1
92 310 1
92 475 1
92 476 1
92 502 1
92 628 1
92 724 1
93 93 1
93 123 1
93 219 1
93 311 1
93 478 1
93 503 1
93 629 1
93 725 1
94 94 1
94 124 1
94 220 1
94 312 1
94 477 1
94 478 1
94 504 1
94 630 1
94 726 1
95 95 1
95 125 1
95 221 1
95 313 1
95 480 1
95 505 1
95 631 1
95 727 1
96 96 1
96 126 1
96 222 1
96 314 1
96 479 1
96 480 1
96 506 1
96 632 1
96 728 1
97 1 1
97 167 1
97 247 1
97 359 1
97 431 1
97 482 1
97 631 1
97 719 1
98 2 1
98 168 1
98 248 1
98 360 1
98 432 1
98 481 1
98 482 1
98 632 1
98 720 1
99 3 1
99 169 1
99 249 1
99 361 1
99 433 1
99 484 1
99 633 1
99 721 1
100 4 1
100 170 1
100 250 1
100 362 1
100 434 1
100 483 1
100 484 1
100 634 1
100 722 1
101 5 1
101 171 1
101 251 1
101 363 1
101 435 1
101 486 1
101 635 1
101 723 1
102 6 1
102 172 1
102 252 1
102 364 1
102 436 1
102 485 1
102 486 1
102 636 1
102 724 1
103 7 1
103 173 1
103 253 1
103 365 1
103 437 1
103 488 1
103 637 1
103 725 1
104 8 1
104 174 1
104 254 1
104 366 1
104 438 1
104 487 1
104 488 1
104 638 1
104 726 1
105 9 1
105 175 1
105 255 1
105 367 1
105 439 1
105 490 1
105 639 1
105 727 1
106 10 1
106 176 1
106 256 1
106 368 1
106 440 1
106 489 1
106 490 1
106 640 1
106 728 1
107 11 1
107 177 1
107 257 1
107 369 1
107 441 1
107 492 1
107 641 1
107 729 1
108 12 1
108 178 1
108 258 1
108 370 1
108 442 1
108 491 1
108 492 1
108 642 1
108 730 1
109 13 1
109 179 1
109 259 1
109 371 1
109 443 1
109 494 1
109 643 1
109 731 1
110 14 1
110 180 1
110 260 1
110 372 1
110 444 1
110 493 1
110 494 1
110 644 1
110 732 1
111 15 1
111 181 1
111 261 1
111 373 1
111 445 1
111 496 1
111 645 1
111 733 1
112 16 1
112 182 1
112 262 1
112 374 1
112 446 1
112 495 1
112 496 1
112 646 1
112 734 1
113 17 1
113 183 1
113 263 1
113 375 1
113 447 1
113 498 1
113 647 1
113 735 1
114 18 1
114 184 1
114 264 1
114 376 1
114 448 1
114 497 1
114 498 1
114 648 1
114 736 1
115 19 1
115 185 1
115 265 1
115 377 1
115 449 1
115 500 1
115 649 1
115 737 1
116 20 1
116 186 1
116 266 1
116 378 1
116 450 1
116 499 1
116 500 1
116 650 1
116 738 1
117 21 1
117 187 1
117 267 1
117 379 1
117 451 1
117 502 1
117 651 1
117 739 1
118 22 1
118 188 1
118 268 1
118 380 1
118 452 1
118 501 1
118 502 1
118 652 1
118 740 1
119 23 1
119 189 1
119 269 1
119 381 1
119 453 1
119 504 1
119 653 1
119 741 1
120 24 1
120 190 1
120 270 1
120 382 1
120 454 1
120 503 1
120 504 1
120 654 1
120 742 1
121 25 1
121 191 1
121 271 1
121 383 1
121 455 1
121 506 1
121 655 1
121 743 1
122 26 1
122 192 1
122 272 1
122 384 1
122 456 1
122 505 1
122 506 1
122 656 1
122 744 1
123 27 1
123 97 1
123 273 1
123 289 1
123 457 1
123 508 1
123 657 1
123 745 1
124 28 1
124 98 1
124 274 1
124 290 1
124 458 1
124 507 1
124 508 1
124 658 1
124 746 1
125 29 1
125 99 1
125 275 1
125 291 1
125 459 1
125 510 1
125 659 1
125 747 1
126 30 1
126 100 1
126 276 1
126 292 1
126 460 1
126 509 1
126 510 1
126 660 1
126 748 1
127 31 1
127 101 1
127 277 1
127 293 1
127 461 1
127 512 1
127 661 1
127 749 1
128 32 1
128 102 1
128 278 1
128 294 1
128 462 1
128 511 1
128 512 1
128 662 1
128 750 1
129 33 1
129 103 1
129 279 1
129 295 1
129 463 1
129 514 1
129 663 1
129 751 1
130 34 1
130 104 1
130 280 1
130 296 1
130 464 1
130 513 1
130 514 1
130 664 1
130 752 1
131 35 1
131 105 1
131 281 1
131 297 1
131 465 1
131 516 1
131 665 1
131 753 1
132 36 1
132 106 1
132 282 1
132 298 1
132 466 1
132 515 1
132 516 1
132 666 1
132 754 1
133 37 1
133 107 1
133 283 1
133 299 1
133 467 1
133 518 1
133 667 1
133 755 1
134 38 1
134 108 1
134 284 1
134 300 1
134 468 1
134 517 1
134 518 1
134 668 1
134 756 1
135 39 1
135 109 1
135 285 1
135 301 1
135 469 1
135 520 1
135 669 1
135 757 1
136 40 1
136 110 1
136 286 1
136 302 1
136 470 1
136 519 1
136 520 1
136 670 1
136 758 1
137 41 1
137 111 1
137 287 1
137 303 1
137 471 1
137 522 1
137 671 1
137 759 1
138 42 1
138 112 1
138 288 1
138 304 1
138 472 1
138 521 1
138 522 1
138 672 1
138 760 1
139 43 1
139 113 1
139 193 1
139 305 1
139 473 1
139 524 1
139 577 1
139 761 1
140 44 1
140 114 1
140 194 1
140 306 1
140 474 1
140 523 1
140 524 1
140 578 1
140 762 1
141 45 1
141 115 1
141 195 1
141 307 1
141 475 1
141 526 1
141 579 1
141 763 1
142 46 1
142 116 1
142 196 1
142 308 1
142 476 1
142 525 1
142 526 1
142 580 1
142 764 1
143 47 1
143 117 1
143 197 1
143 309 1
143 477 1
143 528 1
143 581 1
143 765 1
144 48 1
144 118 1
144 198 1
144 310 1
144 478 1
144 527 1
144 528 1
144 582 1
144 766 1
145 49 1
145 119 1
145 199 1
145 311 1
145 479 1
145 530 1
145 583 1
145 767 1
146 50 1
146 120 1
146 200 1
146 312 1
146 480 1
146 529 1
146 530 1
146 584 1
146 768 1
147 51 1
147 121 1
147 201 1
147 313 1
147 385 1
147 532 1
147 585 1
147 673 1
148 52 1
148 122 1
148 202 1
148 314 1
148 386 1
148 531 1
148 532 1
148 586 1
148 674 1
149 53 1
149 123 1
149 203 1
149 315 1
149 387 1
149 534 1
149 587 1
149 675 1
150 54 1
150 124 1
150 204 1
150 316 1
150 388 1
150 533 1
150 534 1
150 588 1
150 676 1
151 55 1
151 125 1
151 205 1
151 317 1
151 389 1
151 536 1
151 589 1
151 677 1
152 56 1
152 126 1
152 206 1
152 318 1
152 390 1
152 535 1
152 536 1
152 590 1
152 678 1
153 57 1
153 127 1
153 207 1
153 319 1
153 391 1
153 538 1
153 591 1
153 679 1
154 58 1
154 128 1
154 208 1
154 320 1
154 392 1
154 537 1
154 538 1
154 592 1
154 680 1
155 59 1
155 129 1
155 209 1
155 321 1
155 393 1
155 540 1
155 593 1
155 681 1
156 60 1
156 130 1
156 210 1
156 322 1
156 394 1
156 539 1
156 540 1
156 594 1
156 682 1
157 61 1
157 131 1
157 211 1
157 323 1
157 395 1
157 542 1
157 595 1
157 683 1
158 62 1
158 132 1
158 212 1
158 324 1
158 396 1
158 541 1
158 542 1
158 596 1
158 684 1
159 63 1
159 133 1
159 213 1
159 325 1
159 397 1
159 544 1
159 597 1
159 685 1
160 64 1
160 134 1
160 214 1
160 326 1
160 398 1
160 543 1
160 544 1
160 598 1
160 686 1
161 65 1
161 135 1
161 215 1
161 327 1
161 399 1
161 546 1
161 599 1
161 687 1
162 66 1
162 136 1
162 216 1
162 328 1
162 400 1
162 545 1
162 546 1
162 600 1
162 688 1
163 67 1
163 137 1
163 217 1
163 329 1
163 401 1
163 548 1
163 601 1
163 689 1
164 68 1
164 138 1
164 218 1
164 330 1
164 402 1
164 547 1
164 548 1
164 602 1
164 690 1
165 69 1
165 139 1
165 219 1
165 331 1
165 403 1
165 550 1
165 603 1
165 691 1
166 70 1
166 140 1
166 220 1
166 332 1
166 404 1
166 549 1
166 550 1
166 604 1
166 692 1
167 71 1
167 141 1
167 221 1
167 333 1
167 405 1
167 552 1
167 605 1
167 693 1
168 72 1
168 142 1
168 222 1
168 334 1
168 406 1
168 551 1
168 552 1
168 606 1
168 694 1
169 73 1
169 143 1
169 223 1
169 335 1
169 407 1
169 554 1
169 607 1
169 695 1
170 74 1
170 144 1
170 224 1
170 336 1
170 408 1
170 553 1
170 554 1
170 608 1
170 696 1
171 75 1
171 145 1
171 225 1
171 337 1
171 409 1
171 556 1
171 609 1
171 697 1
172 76 1
172 146 1
172 226 1
172 338 1
172 410 1
172 555 1
172 556 1
172 610 1
172 698 1
173 77 1
173 147 1
173 227 1
173 339 1
173 411 1
173 558 1
173 611 1
173 699 1
174 78 1
174 148 1
174 228 1
174 340 1
174 412 1
174 557 1
174 558 1
174 612 1
174 700 1
175 79 1
175 149 1
175 229 1
175 341 1
175 413 1
175 560 1
175 613 1
175 701 1
176 80 1
176 150 1
176 230 1
176 342 1
176 414 1
176 559 1
176 560 1
176 614 1
176 702 1
177 81 1
177 151 1
177 231 1
177 343 1
177 415 1
177 562 1
177 615 1
177 703 1
178 82 1
178 152 1
178 232 1
178 344 1
178 416 1
178 561 1
178 562 1
178 616 1
178 704 1
179 83 1
179 153 1
179 233 1
179 345 1
179 417 1
179 564 1
179 617 1
179 705 1
180 84 1
180 154 1
180 234 1
180 346 1
180 418 1
180 563 1
180 564 1
180 618 1
180 706 1
181 85 1
181 155 1
181 235 1
181 347 1
181 419 1
181 566 1
181 619 1
181 707 1
182 86 1
182 156 1
182 236 1
182 348 1
182 420 1
182 565 1
182 566 1
182 620 1
182 708 1
183 87 1
183 157 1
183 237 1
183 349 1
183 421 1
183 568 1
183 621 1
183 709 1
184 88 1
184 158 1
184 238 1
184 350 1
184 422 1
184 567 1
184 568 1
184 622 1
184 710 1
185 89 1
185 159 1
185 239 1
185 351 1
185 423 1
185 570 1
185 623 1
185 711 1
186 90 1
186 160 1
186 240 1
186 352 1
186 424 1
186 569 1
186 570 1
186 624 1
186 712 1
187 91 1
187 161 1
187 241 1
187 353 1
187 425 1
187 572 1
187 625 1
187 713 1
188 92 1
188 162 1
188 242 1
188 354 1
188 426 1
188 571 1
188 572 1
188 626 1
188 714 1
189 93 1
189 163 1
189 243 1
189 355 1
189 427 1
189 574 1
189 627 1
189 715 1
190 94 1
190 164 1
190 244 1
190 356 1
190 428 1
190 573 1
190 574 1
190 628 1
190 716 1
191 95 1
191 165 1
191 245 1
191 357 1
191 429 1
191 576 1
191 629 1
191 717 1
192 96 1
192 166 1
192 246 1
192 358 1
192 430 1
192 575 1
192 576 1
192 630 1
192 718 1
193 1 1
193 137 1
193 257 1
193 307 1
193 449 1
193 521 1
193 578 1
193 691 1
194 2 1
194 138 1
194 258 1
194 308 1
194 450 1
194 522 1
194 577 1
194 578 1
194 692 1
195 3 1
195 139 1
195 259 1
195 309 1
195 451 1
195 523 1
195 580 1
195 693 1
196 4 1
196 140 1
196 260 1
196 310 1
196 452 1
196 524 1
196 579 1
196 580 1
196 694 1
197 5 1
197 141 1
197 261 1
197 311 1
197 453 1
197 525 1
197 582 1
197 695 1
198 6 1
198 142 1
198 262 1
198 312 1
198 454 1
198 526 1
198 581 1
198 582 1
198 696 1
199 7 1
199 143 1
199 263 1
199 313 1
199 455 1
199 527 1
199 584 1
199 697 1
200 8 1
200 144 1
200 264 1
200 314 1
200 456 1
200 528 1
200 583 1
200 584 1
200 698 1
201 9 1
201 145 1
201 265 1
201 315 1
201 457 1
201 529 1
201 586 1
201 699 1
202 10 1
202 146 1
202 266 1
202 316 1
202 458 1
202 530 1
202 585 1
202 586 1
202 700 1
203 11 1
203 147 1
203 267 1
203 317 1
203 459 1
203 531 1
203 588 1
203 701 1
204 12 1
204 148 1
204 268 1
204 318 1
204 460 1
204 532 1
204 587 1
204 588 1
204 702 1
205 13 1
205 149 1
205 269 1
205 319 1
205 461 1
205 533 1
205 590 1
205 703 1
206 14 1
206 150 1
206 270 1
206 320 1
206 462 1
206 534 1
206 589 1
206 590 1
206 704 1
207 15 1
207 151 1
207 271 1
207 321 1
207 463 1
207 535 1
207 592 1
207 705 1
208 16 1
208 152 1
208 272 1
208 322 1
208 464 1
208 536 1
208 591 1
208 592 1
208 706 1
209 17 1
209 153 1
209 273 1
209 323 1
209 465 1
209 537 1
209 594 1
209 707 1
210 18 1
210 154 1
210 274 1
210 324 1
210 466 1
210 538 1
210 593 1
210 594 1
210 708 1
211 19 1
211 155 1
211 275 1
211 325 1
211 467 1
211 539 1
211 596 1
211 709 1
212 20 1
212 156 1
212 276 1
212 326 1
212 468 1
212 540 1
212 595 1
212 596 1
212 710 1
213 21 1
213 157 1
213 277 1
213 327 1
213 469 1
213 541 1
213 598 1
213 711 1
214 22 1
214 158 1
214 278 1
214 328 1
214 470 1
214 542 1
214 597 1
214 598 1
214 712 1
215 23 1
215 159 1
215 279 1
215 329 1
215 471 1
215 543 1
215 600 1
215 713 1
216 24 1
216 160 1
216 280 1
216 330 1
216 472 1
216 544 1
216 599 1
216 600 1
216 714 1
217 25 1
217 161 1
217 281 1
217 331 1
217 473 1
217 545 1
217 602 1
217 715 1
218 26 1
218 162 1
218 282 1
218 332 1
218 474 1
218 546 1
218 601 1
218 602 1
218 716 1
219 27 1
219 163 1
219 283 1
219 333 1
219 475 1
219 547 1
219 604 1
219 717 1
220 28 1
220 164 1
220 284 1
220 334 1
220 476 1
220 548 1
220 603 1
220 604 1
220 718 1
221 29 1
221 165 1
221 285 1
221 335 1
221 477 1
221 549 1
221 606 1
221 719 1
222 30 1
222 166 1
222 286 1
222 336 1
222 478 1
222 550 1
222 605 1
222 606 1
222 720 1
223 31 1
223 167 1
223 287 1
223 337 1
223 479 1
223 551 1
223 608 1
223 721 1
224 32 1
224 168 1
224 288 1
224 338 1
224 480 1
224 552 1
224 607 1
224 608 1
224 722 1
225 33 1
225 169 1
225 193 1
225 339 1
225 385 1
225 553 1
225 610 1
225 723 1
226 34 1
226 170 1
226 194 1
226 340 1
226 386 1
226 554 1
226 609 1
226 610 1
226 724 1
227 35 1
227 171 1
227 195 1
227 341 1
227 387 1
227 555 1
227 612 1
227 725 1
228 36 1
228 172 1
228 196 1
228 342 1
228 388 1
228 556 1
228 611 1
228 612 1
228 726 1
229 37 1
229 173 1
229 197 1
229 343 1
229 389 1
229 557 1
229 614 1
229 727 1
230 38 1
230 174 1
230 198 1
230 344 1
230 390 1
230 558 1
230 613 1
230 614 1
230 728 1
231 39 1
231 175 1
231 199 1
231 345 1
231 391 1
231 559 1
231 616 1
231 729 1
232 40 1
232 176 1
232 200 1
232 346 1
232 392 1
232 560 1
232 615 1
232 616 1
232 730 1
233 41 1
233 177 1
233 201 1
233 347 1
233 393 1
233 561 1
233 618 1
233 731 1
234 42 1
234 178 1
234 202 1
234 348 1
234 394 1
234 562 1
234 617 1
234 618 1
234 732 1
235 43 1
235 179 1
235 203 1
235 349 1
235 395 1
235 563 1
235 620 1
235 733 1
236 44 1
236 180 1
236 204 1
236 350 1
236 396 1
236 564 1
236 619 1
236 620 1
236 734 1
237 45 1
237 181 1
237 205 1
237 351 1
237 397 1
237 565 1
237 622 1
237 735 1
238 46 1
238 182 1
238 206 1
238 352 1
238 398 1
238 566 1
238 621 1
238 622 1
238 736 1
239 47 1
239 183 1
239 207 1
239 353 1
239 399 1
239 567 1
239 624 1
239 737 1
240 48 1
240 184 1
240 208 1
240 354 1
240 400 1
240 568 1
240 623 1
240 624 1
240 738 1
241 49 1
241 185 1
241 209 1
241 355 1
241 401 1
241 569 1
241 626 1
241 739 1
242 50 1
242 186 1
242 210 1
242 356 1
242 402 1
242 570 1
242 625 1
242 626 1
242 740 1
243 51 1
243 187 1
243 211 1
243 357 1
243 403 1
243 571 1
243 628 1
243 741 1
244 52 1
244 188 1
244 212 1
244 358 1
244 404 1
244 572 1
244 627 1
244 628 1
244 742 1
245 53 1
245 189 1
245 213 1
245 359 1
245 405 1
245 573 1
245 630 1
245 743 1
246 54 1
246 190 1
246 214 1
246 360 1
246 406 1
246 574 1
246 629 1
246 630 1
246 744 1
247 55 1
247 191 1
247 215 1
247 361 1
247 407 1
247 575 1
247 632 1
247 745 1
248 56 1
248 192 1
248 216 1
248 362 1
248 408 1
248 576 1
248 631 1
248 632 1
248 746 1
249 57 1
249 97 1
249 217 1
249 363 1
249 409 1
249 481 1
249 634 1
249 747 1
250 58 1
250 98 1
250 218 1
250 364 1
250 410 1
250 482 1
250 633 1
250 634 1
250 748 1
251 59 1
251 99 1
251 219 1
251 365 1
251 411 1
251 483 1
251 636 1
251 749 1
252 60 1
252 100 1
252 220 1
252 366 1
252 412 1
252 484 1
252 635 1
252 636 1
252 750 1
253 61 1
253 101 1
253 221 1
253 367 1
253 413 1
253 485 1
253 638 1
253 751 1
254 62 1
254 102 1
254 222 1
254 368 1
254 414 1
254 486 1
254 637 1
254 638 1
254 752 1
255 63 1
255 103 1
255 223 1
255 369 1
255 415 1
255 487 1
255 640 1
255 753 1
256 64 1
256 104 1
256 224 1
256 370 1
256 416 1
256 488 1
256 639 1
256 640 1
256 754 1
257 65 1
257 105 1
257 225 1
257 371 1
257 417 1
257 489 1
257 642 1
257 755 1
258 66 1
258 106 1
258 226 1
258 372 1
258 418 1
258 490 1
258 641 1
258 642 1
258 756 1
259 67 1
259 107 1
259 227 1
259 373 1
259 419 1
259 491 1
259 644 1
259 757 1
260 68 1
260 108 1
260 228 1
260 374 1
260 420 1
260 492 1
260 643 1
260 644 1
260 758 1
261 69 1
261 109 1
261 229 1
261 375 1
261 421 1
261 493 1
261 646 1
261 759 1
262 70 1
262 110 1
262 230 1
262 376 1
262 422 1
262 494 1
262 645 1
262 646 1
262 760 1
263 71 1
263 111 1
263 231 1
263 377 1
263 423 1
263 495 1
263 648 1
263 761 1
264 72 1
264 112 1
264 232 1
264 378 1
264 424 1
264 496 1
264 647 1
264 648 1
264 762 1
265 73 1
265 113 1
265 233 1
265 379 1
265 425 1
265 497 1
265 650 1
265 763 1
266 74 1
266 114 1
266 234 1
266 380 1
266 426 1
266 498 1
266 649 1
266 650 1
266 764 1
267 75 1
267 115 1
267 235 1
267 381 1
267 427 1
267 499 1
267 652 1
267 765 1
268 76 1
268 116 1
268 236 1
268 382 1
268 428 1
268 500 1
268 651 1
268 652 1
268 766 1
269 77 1
269 117 1
269 237 1
269 383 1
269 429 1
269 501 1
269 654 1
269 767 1
270 78 1
270 118 1
270 238 1
270 384 1
270 430 1
270 502 1
270 653 1
270 654 1
270 768 1
271 79 1
271 119 1
271 239 1
271 289 1
271 431 1
271 503 1
271 656 1
271 673 1
272 80 1
272 120 1
272 240 1
272 290 1
272 432 1
272 504 1
272 655 1
272 656 1
272 674 1
273 81 1
273 121 1
273 241 1
273 291 1
273 433 1
273 505 1
273 658 1
273 675 1
274 82 1
274 122 1
274 242 1
274 292 1
274 434 1
274 506 1
274 657 1
274 658 1
274 676 1
275 83 1
275 123 1
275 243 1
275 293 1
275 435 1
275 507 1
275 660 1
275 677 1
276 84 1
276 124 1
276 244 1
276 294 1
276 436 1
276 508 1
276 659 1
276 660 1
276 678 1
277 85 1
277 125 1
277 245 1
277 295 1
277 437 1
277 509 1
277 662 1
277 679 1
278 86 1
278 126 1
278 246 1
278 296 1
278 438 1
278 510 1
278 661 1
278 662 1
278 680 1
279 87 1
279 127 1
279 247 1
279 297 1
279 439 1
279 511 1
279 664 1
279 681 1
280 88 1
280 128 1
280 248 1
280 298 1
280 440 1
280 512 1
280 663 1
280 664 1
280 682 1
281 89 1
281 129 1
281 249 1
281 299 1
281 441 1
281 513 1
281 666 1
281 683 1
282 90 1
282 130 1
282 250 1
282 300 1
282 442 1
282 514 1
282 665 1
282 666 1
282 684 1
283 91 1
283 131 1
283 251 1
283 301 1
283 443 1
283 515 1
283 668 1
283 685 1
284 92 1
284 132 1
284 252 1
284 302 1
284 444 1
284 516 1
284 667 1
284 668 1
284 686 1
285 93 1
285 133 1
285 253 1
285 303 1
285 445 1
285 517 1
285 670 1
285 687 1
286 94 1
286 134 1
286 254 1
286 304 1
286 446 1
286 518 1
286 669 1
286 670 1
286 688 1
287 95 1
287 135 1
287 255 1
287 305 1
287 447 1
287 519 1
287 672 1
287 689 1
288 96 1
288 136 1
288 256 1
288 306 1
288 448 1
288 520 1
288 671 1
288 672 1
288 690 1
