%%MatrixMarket matrix coordinate integer general
% GF(4) labels 0,1,2=omega,3=omega+1; arithmetic is NOT integer arithmetic.
% Coordinate indices are 1-based; omitted entries are zero.
144 384 1152
1 1 1
1 64 1
1 112 1
1 158 1
1 193 2
1 254 1
1 317 1
1 365 1
2 2 1
2 65 1
2 113 1
2 159 1
2 194 2
2 255 1
2 318 1
2 366 1
3 3 1
3 66 1
3 114 1
3 160 1
3 195 2
3 256 1
3 319 1
3 367 1
4 4 1
4 67 1
4 115 1
4 161 1
4 196 2
4 257 1
4 320 1
4 368 1
5 5 1
5 68 1
5 116 1
5 162 1
5 197 2
5 258 1
5 321 1
5 369 1
6 6 1
6 69 1
6 117 1
6 163 1
6 198 2
6 259 1
6 322 1
6 370 1
7 7 1
7 70 1
7 118 1
7 164 1
7 199 2
7 260 1
7 323 1
7 371 1
8 8 1
8 71 1
8 119 1
8 165 1
8 200 2
8 261 1
8 324 1
8 372 1
9 9 1
9 72 1
9 120 1
9 166 1
9 201 2
9 262 1
9 325 1
9 373 1
10 10 1
10 73 1
10 121 1
10 167 1
10 202 2
10 263 1
10 326 1
10 374 1
11 11 1
11 74 1
11 122 1
11 168 1
11 203 2
11 264 1
11 327 1
11 375 1
12 12 1
12 75 1
12 123 1
12 169 1
12 204 2
12 265 1
12 328 1
12 376 1
13 13 1
13 76 1
13 124 1
13 170 1
13 205 2
13 266 1
13 329 1
13 377 1
14 14 1
14 77 1
14 125 1
14 171 1
14 206 2
14 267 1
14 330 1
14 378 1
15 15 1
15 78 1
15 126 1
15 172 1
15 207 2
15 268 1
15 331 1
15 379 1
16 16 1
16 79 1
16 127 1
16 173 1
16 208 2
16 269 1
16 332 1
16 380 1
17 17 1
17 80 1
17 128 1
17 174 1
17 209 2
17 270 1
17 333 1
17 381 1
18 18 1
18 81 1
18 129 1
18 175 1
18 210 2
18 271 1
18 334 1
18 382 1
19 19 1
19 82 1
19 130 1
19 176 1
19 211 2
19 272 1
19 335 1
19 383 1
20 20 1
20 83 1
20 131 1
20 177 1
20 212 2
20 273 1
20 336 1
20 384 1
21 21 1
21 84 1
21 132 1
21 178 1
21 213 2
21 274 1
21 289 1
21 337 1
22 22 1
22 85 1
22 133 1
22 179 1
22 214 2
22 275 1
22 290 1
22 338 1
23 23 1
23 86 1
23 134 1
23 180 1
23 215 2
23 276 1
23 291 1
23 339 1
24 24 1
24 87 1
24 135 1
24 181 1
24 216 2
24 277 1
24 292 1
24 340 1
25 25 1
25 88 1
25 136 1
25 182 1
25 217 2
25 278 1
25 293 1
25 341 1
26 26 1
26 89 1
26 137 1
26 183 1
26 218 2
26 279 1
26 294 1
26 342 1
27 27 1
27 90 1
27 138 1
27 184 1
27 219 2
27 280 1
27 295 1
27 343 1
28 28 1
28 91 1
28 139 1
28 185 1
28 220 2
28 281 1
28 296 1
28 344 1
29 29 1
29 92 1
29 140 1
29 186 1
29 221 2
29 282 1
29 297 1
29 345 1
30 30 1
30 93 1
30 141 1
30 187 1
30 222 2
30 283 1
30 298 1
30 346 1
31 31 1
31 94 1
31 142 1
31 188 1
31 223 2
31 284 1
31 299 1
31 347 1
32 32 1
32 95 1
32 143 1
32 189 1
32 224 2
32 285 1
32 300 1
32 348 1
33 33 1
33 96 1
33 144 1
33 190 1
33 225 2
33 286 1
33 301 1
33 349 1
34 34 1
34 49 1
34 97 1
34 191 1
34 226 2
34 287 1
34 302 1
34 350 1
35 35 1
35 50 1
35 98 1
35 192 1
35 227 2
35 288 1
35 303 1
35 351 1
36 36 1
36 51 1
36 99 1
36 145 1
36 228 2
36 241 1
36 304 1
36 352 1
37 37 1
37 52 1
37 100 1
37 146 1
37 229 2
37 242 1
37 305 1
37 353 1
38 38 1
38 53 1
38 101 1
38 147 1
38 230 2
38 243 1
38 306 1
38 354 1
39 39 1
39 54 1
39 102 1
39 148 1
39 231 2
39 244 1
39 307 1
39 355 1
40 40 1
40 55 1
40 103 1
40 149 1
40 232 2
40 245 1
40 308 1
40 356 1
41 41 1
41 56 1
41 104 1
41 150 1
41 233 2
41 246 1
41 309 1
41 357 1
42 42 1
42 57 1
42 105 1
42 151 1
42 234 2
42 247 1
42 310 1
42 358 1
43 43 1
43 58 1
43 106 1
43 152 1
43 235 2
43 248 1
43 311 1
43 359 1
44 44 1
44 59 1
44 107 1
44 153 1
44 236 2
44 249 1
44 312 1
44 360 1
45 45 1
45 60 1
45 108 1
45 154 1
45 237 2
45 250 1
45 313 1
45 361 1
46 46 1
46 61 1
46 109 1
46 155 1
46 238 2
46 251 1
46 314 1
46 362 1
47 47 1
47 62 1
47 110 1
47 156 1
47 239 2
47 252 1
47 315 1
47 363 1
48 48 1
48 63 1
48 111 1
48 157 1
48 240 2
48 253 1
48 316 1
48 364 1
49 1 1
49 84 1
49 124 1
49 180 1
49 216 1
49 241 2
49 316 1
49 360 1
50 2 1
50 85 1
50 125 1
50 181 1
50 217 1
50 242 2
50 317 1
50 361 1
51 3 1
51 86 1
51 126 1
51 182 1
51 218 1
51 243 2
51 318 1
51 362 1
52 4 1
52 87 1
52 127 1
52 183 1
52 219 1
52 244 2
52 319 1
52 363 1
53 5 1
53 88 1
53 128 1
53 184 1
53 220 1
53 245 2
53 320 1
53 364 1
54 6 1
54 89 1
54 129 1
54 185 1
54 221 1
54 246 2
54 321 1
54 365 1
55 7 1
55 90 1
55 130 1
55 186 1
55 222 1
55 247 2
55 322 1
55 366 1
56 8 1
56 91 1
56 131 1
56 187 1
56 223 1
56 248 2
56 323 1
56 367 1
57 9 1
57 92 1
57 132 1
57 188 1
57 224 1
57 249 2
57 324 1
57 368 1
58 10 1
58 93 1
58 133 1
58 189 1
58 225 1
58 250 2
58 325 1
58 369 1
59 11 1
59 94 1
59 134 1
59 190 1
59 226 1
59 251 2
59 326 1
59 370 1
60 12 1
60 95 1
60 135 1
60 191 1
60 227 1
60 252 2
60 327 1
60 371 1
61 13 1
61 96 1
61 136 1
61 192 1
61 228 1
61 253 2
61 328 1
61 372 1
62 14 1
62 49 1
62 137 1
62 145 1
62 229 1
62 254 2
62 329 1
62 373 1
63 15 1
63 50 1
63 138 1
63 146 1
63 230 1
63 255 2
63 330 1
63 374 1
64 16 1
64 51 1
64 139 1
64 147 1
64 231 1
64 256 2
64 331 1
64 375 1
65 17 1
65 52 1
65 140 1
65 148 1
65 232 1
65 257 2
65 332 1
65 376 1
66 18 1
66 53 1
66 141 1
66 149 1
66 233 1
66 258 2
66 333 1
66 377 1
67 19 1
67 54 1
67 142 1
67 150 1
67 234 1
67 259 2
67 334 1
67 378 1
68 20 1
68 55 1
68 143 1
68 151 1
68 235 1
68 260 2
68 335 1
68 379 1
69 21 1
69 56 1
69 144 1
69 152 1
69 236 1
69 261 2
69 336 1
69 380 1
70 22 1
70 57 1
70 97 1
70 153 1
70 237 1
70 262 2
70 289 1
70 381 1
71 23 1
71 58 1
71 98 1
71 154 1
71 238 1
71 263 2
71 290 1
71 382 1
72 24 1
72 59 1
72 99 1
72 155 1
72 239 1
72 264 2
72 291 1
72 383 1
73 25 1
73 60 1
73 100 1
73 156 1
73 240 1
73 265 2
73 292 1
73 384 1
74 26 1
74 61 1
74 101 1
74 157 1
74 193 1
74 266 2
74 293 1
74 337 1
75 27 1
75 62 1
75 102 1
75 158 1
75 194 1
75 267 2
75 294 1
75 338 1
76 28 1
76 63 1
76 103 1
76 159 1
76 195 1
76 268 2
76 295 1
76 339 1
77 29 1
77 64 1
77 104 1
77 160 1
77 196 1
77 269 2
77 296 1
77 340 1
78 30 1
78 65 1
78 105 1
78 161 1
78 197 1
78 270 2
78 297 1
78 341 1
79 31 1
79 66 1
79 106 1
79 162 1
79 198 1
79 271 2
79 298 1
79 342 1
80 32 1
80 67 1
80 107 1
80 163 1
80 199 1
80 272 2
80 299 1
80 343 1
81 33 1
81 68 1
81 108 1
81 164 1
81 200 1
81 273 2
81 300 1
81 344 1
82 34 1
82 69 1
82 109 1
82 165 1
82 201 1
82 274 2
82 301 1
82 345 1
83 35 1
83 70 1
83 110 1
83 166 1
83 202 1
83 275 2
83 302 1
83 346 1
84 36 1
84 71 1
84 111 1
84 167 1
84 203 1
84 276 2
84 303 1
84 347 1
85 37 1
85 72 1
85 112 1
85 168 1
85 204 1
85 277 2
85 304 1
85 348 1
86 38 1
86 73 1
86 113 1
86 169 1
86 205 1
86 278 2
86 305 1
86 349 1
87 39 1
87 74 1
87 114 1
87 170 1
87 206 1
87 279 2
87 306 1
87 350 1
88 40 1
88 75 1
88 115 1
88 171 1
88 207 1
88 280 2
88 307 1
88 351 1
89 41 1
89 76 1
89 116 1
89 172 1
89 208 1
89 281 2
89 308 1
89 352 1
90 42 1
90 77 1
90 117 1
90 173 1
90 209 1
90 282 2
90 309 1
90 353 1
91 43 1
91 78 1
91 118 1
91 174 1
91 210 1
91 283 2
91 310 1
91 354 1
92 44 1
92 79 1
92 119 1
92 175 1
92 211 1
92 284 2
92 311 1
92 355 1
93 45 1
93 80 1
93 120 1
93 176 1
93 212 1
93 285 2
93 312 1
93 356 1
94 46 1
94 81 1
94 121 1
94 177 1
94 213 1
94 286 2
94 313 1
94 357 1
95 47 1
95 82 1
95 122 1
95 178 1
95 214 1
95 287 2
95 314 1
95 358 1
96 48 1
96 83 1
96 123 1
96 179 1
96 215 1
96 288 2
96 315 1
96 359 1
97 1 1
97 69 1
97 129 1
97 154 1
97 225 1
97 261 1
97 289 2
97 346 1
98 2 1
98 70 1
98 130 1
98 155 1
98 226 1
98 262 1
98 290 2
98 347 1
99 3 1
99 71 1
99 131 1
99 156 1
99 227 1
99 263 1
99 291 2
99 348 1
100 4 1
100 72 1
100 132 1
100 157 1
100 228 1
100 264 1
100 292 2
100 349 1
101 5 1
101 73 1
101 133 1
101 158 1
101 229 1
101 265 1
101 293 2
101 350 1
102 6 1
102 74 1
102 134 1
102 159 1
102 230 1
102 266 1
102 294 2
102 351 1
103 7 1
103 75 1
103 135 1
103 160 1
103 231 1
103 267 1
103 295 2
103 352 1
104 8 1
104 76 1
104 136 1
104 161 1
104 232 1
104 268 1
104 296 2
104 353 1
105 9 1
105 77 1
105 137 1
105 162 1
105 233 1
105 269 1
105 297 2
105 354 1
106 10 1
106 78 1
106 138 1
106 163 1
106 234 1
106 270 1
106 298 2
106 355 1
107 11 1
107 79 1
107 139 1
107 164 1
107 235 1
107 271 1
107 299 2
107 356 1
108 12 1
108 80 1
108 140 1
108 165 1
108 236 1
108 272 1
108 300 2
108 357 1
109 13 1
109 81 1
109 141 1
109 166 1
109 237 1
109 273 1
109 301 2
109 358 1
110 14 1
110 82 1
110 142 1
110 167 1
110 238 1
110 274 1
110 302 2
110 359 1
111 15 1
111 83 1
111 143 1
111 168 1
111 239 1
111 275 1
111 303 2
111 360 1
112 16 1
112 84 1
112 144 1
112 169 1
112 240 1
112 276 1
112 304 2
112 361 1
113 17 1
113 85 1
113 97 1
113 170 1
113 193 1
113 277 1
113 305 2
113 362 1
114 18 1
114 86 1
114 98 1
114 171 1
114 194 1
114 278 1
114 306 2
114 363 1
115 19 1
115 87 1
115 99 1
115 172 1
115 195 1
115 279 1
115 307 2
115 364 1
116 20 1
116 88 1
116 100 1
116 173 1
116 196 1
116 280 1
116 308 2
116 365 1
117 21 1
117 89 1
117 101 1
117 174 1
117 197 1
117 281 1
117 309 2
117 366 1
118 22 1
118 90 1
118 102 1
118 175 1
118 198 1
118 282 1
118 310 2
118 367 1
119 23 1
119 91 1
119 103 1
119 176 1
119 199 1
119 283 1
119 311 2
119 368 1
120 24 1
120 92 1
120 104 1
120 177 1
120 200 1
120 284 1
120 312 2
120 369 1
121 25 1
121 93 1
121 105 1
121 178 1
121 201 1
121 285 1
121 313 2
121 370 1
122 26 1
122 94 1
122 106 1
122 179 1
122 202 1
122 286 1
122 314 2
122 371 1
123 27 1
123 95 1
123 107 1
123 180 1
123 203 1
123 287 1
123 315 2
123 372 1
124 28 1
124 96 1
124 108 1
124 181 1
124 204 1
124 288 1
124 316 2
124 373 1
125 29 1
125 49 1
125 109 1
125 182 1
125 205 1
125 241 1
125 317 2
125 374 1
126 30 1
126 50 1
126 110 1
126 183 1
126 206 1
126 242 1
126 318 2
126 375 1
127 31 1
127 51 1
127 111 1
127 184 1
127 207 1
127 243 1
127 319 2
127 376 1
128 32 1
128 52 1
128 112 1
128 185 1
128 208 1
128 244 1
128 320 2
128 377 1
129 33 1
129 53 1
129 113 1
129 186 1
129 209 1
129 245 1
129 321 2
129 378 1
130 34 1
130 54 1
130 114 1
130 187 1
130 210 1
130 246 1
130 322 2
130 379 1
131 35 1
131 55 1
131 115 1
131 188 1
131 211 1
131 247 1
131 323 2
131 380 1
132 36 1
132 56 1
132 116 1
132 189 1
132 212 1
132 248 1
132 324 2
132 381 1
133 37 1
133 57 1
133 117 1
133 190 1
133 213 1
133 249 1
133 325 2
133 382 1
134 38 1
134 58 1
134 118 1
134 191 1
134 214 1
134 250 1
134 326 2
134 383 1
135 39 1
135 59 1
135 119 1
135 192 1
135 215 1
135 251 1
135 327 2
135 384 1
136 40 1
136 60 1
136 120 1
136 145 1
136 216 1
136 252 1
136 328 2
136 337 1
137 41 1
137 61 1
137 121 1
137 146 1
137 217 1
137 253 1
137 329 2
137 338 1
138 42 1
138 62 1
138 122 1
138 147 1
138 218 1
138 254 1
138 330 2
138 339 1
139 43 1
139 63 1
139 123 1
139 148 1
139 219 1
139 255 1
139 331 2
139 340 1
140 44 1
140 64 1
140 124 1
140 149 1
140 220 1
140 256 1
140 332 2
140 341 1
141 45 1
141 65 1
141 125 1
141 150 1
141 221 1
141 257 1
141 333 2
141 342 1
142 46 1
142 66 1
142 126 1
142 151 1
142 222 1
142 258 1
142 334 2
142 343 1
143 47 1
143 67 1
143 127 1
143 152 1
143 223 1
143 259 1
143 335 2
143 344 1
144 48 1
144 68 1
144 128 1
144 153 1
144 224 1
144 260 1
144 336 2
144 345 1
