%%MatrixMarket matrix coordinate integer general
% Binary matrix over GF(2).
% Coordinate indices are 1-based; omitted entries are zero.
192 768 5616
1 289 1
1 290 1
1 291 1
1 313 1
1 337 1
1 338 1
1 339 1
1 340 1
1 361 1
1 385 1
1 407 1
1 411 1
1 412 1
1 456 1
1 457 1
1 458 1
1 479 1
1 480 1
1 483 1
1 484 1
1 508 1
1 529 1
1 530 1
1 553 1
1 554 1
1 584 1
1 609 1
1 610 1
1 656 1
1 657 1
1 658 1
1 659 1
2 291 1
2 292 1
2 293 1
2 315 1
2 339 1
2 340 1
2 341 1
2 342 1
2 363 1
2 385 1
2 386 1
2 387 1
2 409 1
2 413 1
2 414 1
2 458 1
2 459 1
2 460 1
2 485 1
2 486 1
2 510 1
2 531 1
2 532 1
2 555 1
2 556 1
2 586 1
2 611 1
2 612 1
2 658 1
2 659 1
2 660 1
2 661 1
3 293 1
3 294 1
3 295 1
3 317 1
3 341 1
3 342 1
3 343 1
3 344 1
3 365 1
3 387 1
3 388 1
3 389 1
3 411 1
3 415 1
3 416 1
3 460 1
3 461 1
3 462 1
3 487 1
3 488 1
3 512 1
3 533 1
3 534 1
3 557 1
3 558 1
3 588 1
3 613 1
3 614 1
3 660 1
3 661 1
3 662 1
3 663 1
4 295 1
4 296 1
4 297 1
4 319 1
4 343 1
4 344 1
4 345 1
4 346 1
4 367 1
4 389 1
4 390 1
4 391 1
4 413 1
4 417 1
4 418 1
4 462 1
4 463 1
4 464 1
4 489 1
4 490 1
4 514 1
4 535 1
4 536 1
4 559 1
4 560 1
4 590 1
4 615 1
4 616 1
4 662 1
4 663 1
4 664 1
4 665 1
5 297 1
5 298 1
5 299 1
5 321 1
5 345 1
5 346 1
5 347 1
5 348 1
5 369 1
5 391 1
5 392 1
5 393 1
5 415 1
5 419 1
5 420 1
5 464 1
5 465 1
5 466 1
5 491 1
5 492 1
5 516 1
5 537 1
5 538 1
5 561 1
5 562 1
5 592 1
5 617 1
5 618 1
5 664 1
5 665 1
5 666 1
5 667 1
6 299 1
6 300 1
6 301 1
6 323 1
6 347 1
6 348 1
6 349 1
6 350 1
6 371 1
6 393 1
6 394 1
6 395 1
6 417 1
6 421 1
6 422 1
6 466 1
6 467 1
6 468 1
6 493 1
6 494 1
6 518 1
6 539 1
6 540 1
6 563 1
6 564 1
6 594 1
6 619 1
6 620 1
6 666 1
6 667 1
6 668 1
6 669 1
7 301 1
7 302 1
7 303 1
7 325 1
7 349 1
7 350 1
7 351 1
7 352 1
7 373 1
7 395 1
7 396 1
7 397 1
7 419 1
7 423 1
7 424 1
7 468 1
7 469 1
7 470 1
7 495 1
7 496 1
7 520 1
7 541 1
7 542 1
7 565 1
7 566 1
7 596 1
7 621 1
7 622 1
7 668 1
7 669 1
7 670 1
7 671 1
8 303 1
8 304 1
8 305 1
8 327 1
8 351 1
8 352 1
8 353 1
8 354 1
8 375 1
8 397 1
8 398 1
8 399 1
8 421 1
8 425 1
8 426 1
8 470 1
8 471 1
8 472 1
8 497 1
8 498 1
8 522 1
8 543 1
8 544 1
8 567 1
8 568 1
8 577 1
8 598 1
8 623 1
8 624 1
8 670 1
8 671 1
8 672 1
9 305 1
9 306 1
9 307 1
9 329 1
9 353 1
9 354 1
9 355 1
9 356 1
9 377 1
9 399 1
9 400 1
9 401 1
9 423 1
9 427 1
9 428 1
9 472 1
9 473 1
9 474 1
9 499 1
9 500 1
9 524 1
9 545 1
9 546 1
9 569 1
9 570 1
9 577 1
9 578 1
9 579 1
9 600 1
9 625 1
9 626 1
9 672 1
10 307 1
10 308 1
10 309 1
10 331 1
10 355 1
10 356 1
10 357 1
10 358 1
10 379 1
10 401 1
10 402 1
10 403 1
10 425 1
10 429 1
10 430 1
10 474 1
10 475 1
10 476 1
10 501 1
10 502 1
10 526 1
10 547 1
10 548 1
10 571 1
10 572 1
10 578 1
10 579 1
10 580 1
10 581 1
10 602 1
10 627 1
10 628 1
11 309 1
11 310 1
11 311 1
11 333 1
11 357 1
11 358 1
11 359 1
11 360 1
11 381 1
11 403 1
11 404 1
11 405 1
11 427 1
11 431 1
11 432 1
11 476 1
11 477 1
11 478 1
11 503 1
11 504 1
11 528 1
11 549 1
11 550 1
11 573 1
11 574 1
11 580 1
11 581 1
11 582 1
11 583 1
11 604 1
11 629 1
11 630 1
12 311 1
12 312 1
12 313 1
12 335 1
12 359 1
12 360 1
12 361 1
12 362 1
12 383 1
12 405 1
12 406 1
12 407 1
12 429 1
12 433 1
12 434 1
12 478 1
12 479 1
12 480 1
12 505 1
12 506 1
12 530 1
12 551 1
12 552 1
12 575 1
12 576 1
12 582 1
12 583 1
12 584 1
12 585 1
12 606 1
12 631 1
12 632 1
13 289 1
13 313 1
13 314 1
13 315 1
13 337 1
13 361 1
13 362 1
13 363 1
13 364 1
13 385 1
13 386 1
13 407 1
13 408 1
13 409 1
13 431 1
13 435 1
13 436 1
13 480 1
13 481 1
13 482 1
13 507 1
13 508 1
13 532 1
13 553 1
13 554 1
13 584 1
13 585 1
13 586 1
13 587 1
13 608 1
13 633 1
13 634 1
14 291 1
14 315 1
14 316 1
14 317 1
14 339 1
14 363 1
14 364 1
14 365 1
14 366 1
14 386 1
14 387 1
14 388 1
14 409 1
14 410 1
14 411 1
14 433 1
14 437 1
14 438 1
14 483 1
14 484 1
14 509 1
14 510 1
14 534 1
14 555 1
14 556 1
14 586 1
14 587 1
14 588 1
14 589 1
14 610 1
14 635 1
14 636 1
15 293 1
15 317 1
15 318 1
15 319 1
15 341 1
15 365 1
15 366 1
15 367 1
15 368 1
15 388 1
15 389 1
15 390 1
15 411 1
15 412 1
15 413 1
15 435 1
15 439 1
15 440 1
15 485 1
15 486 1
15 511 1
15 512 1
15 536 1
15 557 1
15 558 1
15 588 1
15 589 1
15 590 1
15 591 1
15 612 1
15 637 1
15 638 1
16 295 1
16 319 1
16 320 1
16 321 1
16 343 1
16 367 1
16 368 1
16 369 1
16 370 1
16 390 1
16 391 1
16 392 1
16 413 1
16 414 1
16 415 1
16 437 1
16 441 1
16 442 1
16 487 1
16 488 1
16 513 1
16 514 1
16 538 1
16 559 1
16 560 1
16 590 1
16 591 1
16 592 1
16 593 1
16 614 1
16 639 1
16 640 1
17 297 1
17 321 1
17 322 1
17 323 1
17 345 1
17 369 1
17 370 1
17 371 1
17 372 1
17 392 1
17 393 1
17 394 1
17 415 1
17 416 1
17 417 1
17 439 1
17 443 1
17 444 1
17 489 1
17 490 1
17 515 1
17 516 1
17 540 1
17 561 1
17 562 1
17 592 1
17 593 1
17 594 1
17 595 1
17 616 1
17 641 1
17 642 1
18 299 1
18 323 1
18 324 1
18 325 1
18 347 1
18 371 1
18 372 1
18 373 1
18 374 1
18 394 1
18 395 1
18 396 1
18 417 1
18 418 1
18 419 1
18 441 1
18 445 1
18 446 1
18 491 1
18 492 1
18 517 1
18 518 1
18 542 1
18 563 1
18 564 1
18 594 1
18 595 1
18 596 1
18 597 1
18 618 1
18 643 1
18 644 1
19 301 1
19 325 1
19 326 1
19 327 1
19 349 1
19 373 1
19 374 1
19 375 1
19 376 1
19 396 1
19 397 1
19 398 1
19 419 1
19 420 1
19 421 1
19 443 1
19 447 1
19 448 1
19 493 1
19 494 1
19 519 1
19 520 1
19 544 1
19 565 1
19 566 1
19 596 1
19 597 1
19 598 1
19 599 1
19 620 1
19 645 1
19 646 1
20 303 1
20 327 1
20 328 1
20 329 1
20 351 1
20 375 1
20 376 1
20 377 1
20 378 1
20 398 1
20 399 1
20 400 1
20 421 1
20 422 1
20 423 1
20 445 1
20 449 1
20 450 1
20 495 1
20 496 1
20 521 1
20 522 1
20 546 1
20 567 1
20 568 1
20 598 1
20 599 1
20 600 1
20 601 1
20 622 1
20 647 1
20 648 1
21 305 1
21 329 1
21 330 1
21 331 1
21 353 1
21 377 1
21 378 1
21 379 1
21 380 1
21 400 1
21 401 1
21 402 1
21 423 1
21 424 1
21 425 1
21 447 1
21 451 1
21 452 1
21 497 1
21 498 1
21 523 1
21 524 1
21 548 1
21 569 1
21 570 1
21 600 1
21 601 1
21 602 1
21 603 1
21 624 1
21 649 1
21 650 1
22 307 1
22 331 1
22 332 1
22 333 1
22 355 1
22 379 1
22 380 1
22 381 1
22 382 1
22 402 1
22 403 1
22 404 1
22 425 1
22 426 1
22 427 1
22 449 1
22 453 1
22 454 1
22 499 1
22 500 1
22 525 1
22 526 1
22 550 1
22 571 1
22 572 1
22 602 1
22 603 1
22 604 1
22 605 1
22 626 1
22 651 1
22 652 1
23 309 1
23 333 1
23 334 1
23 335 1
23 357 1
23 381 1
23 382 1
23 383 1
23 384 1
23 404 1
23 405 1
23 406 1
23 427 1
23 428 1
23 429 1
23 451 1
23 455 1
23 456 1
23 501 1
23 502 1
23 527 1
23 528 1
23 552 1
23 573 1
23 574 1
23 604 1
23 605 1
23 606 1
23 607 1
23 628 1
23 653 1
23 654 1
24 289 1
24 290 1
24 311 1
24 335 1
24 336 1
24 337 1
24 359 1
24 383 1
24 384 1
24 406 1
24 407 1
24 408 1
24 429 1
24 430 1
24 431 1
24 453 1
24 457 1
24 458 1
24 503 1
24 504 1
24 529 1
24 530 1
24 554 1
24 575 1
24 576 1
24 606 1
24 607 1
24 608 1
24 609 1
24 630 1
24 655 1
24 656 1
25 289 1
25 290 1
25 291 1
25 292 1
25 313 1
25 337 1
25 338 1
25 339 1
25 361 1
25 408 1
25 409 1
25 410 1
25 431 1
25 432 1
25 433 1
25 455 1
25 459 1
25 460 1
25 481 1
25 482 1
25 505 1
25 506 1
25 531 1
25 532 1
25 556 1
25 608 1
25 609 1
25 610 1
25 611 1
25 632 1
25 657 1
25 658 1
26 291 1
26 292 1
26 293 1
26 294 1
26 315 1
26 339 1
26 340 1
26 341 1
26 363 1
26 410 1
26 411 1
26 412 1
26 433 1
26 434 1
26 435 1
26 457 1
26 461 1
26 462 1
26 483 1
26 484 1
26 507 1
26 508 1
26 533 1
26 534 1
26 558 1
26 610 1
26 611 1
26 612 1
26 613 1
26 634 1
26 659 1
26 660 1
27 293 1
27 294 1
27 295 1
27 296 1
27 317 1
27 341 1
27 342 1
27 343 1
27 365 1
27 412 1
27 413 1
27 414 1
27 435 1
27 436 1
27 437 1
27 459 1
27 463 1
27 464 1
27 485 1
27 486 1
27 509 1
27 510 1
27 535 1
27 536 1
27 560 1
27 612 1
27 613 1
27 614 1
27 615 1
27 636 1
27 661 1
27 662 1
28 295 1
28 296 1
28 297 1
28 298 1
28 319 1
28 343 1
28 344 1
28 345 1
28 367 1
28 414 1
28 415 1
28 416 1
28 437 1
28 438 1
28 439 1
28 461 1
28 465 1
28 466 1
28 487 1
28 488 1
28 511 1
28 512 1
28 537 1
28 538 1
28 562 1
28 614 1
28 615 1
28 616 1
28 617 1
28 638 1
28 663 1
28 664 1
29 297 1
29 298 1
29 299 1
29 300 1
29 321 1
29 345 1
29 346 1
29 347 1
29 369 1
29 416 1
29 417 1
29 418 1
29 439 1
29 440 1
29 441 1
29 463 1
29 467 1
29 468 1
29 489 1
29 490 1
29 513 1
29 514 1
29 539 1
29 540 1
29 564 1
29 616 1
29 617 1
29 618 1
29 619 1
29 640 1
29 665 1
29 666 1
30 299 1
30 300 1
30 301 1
30 302 1
30 323 1
30 347 1
30 348 1
30 349 1
30 371 1
30 418 1
30 419 1
30 420 1
30 441 1
30 442 1
30 443 1
30 465 1
30 469 1
30 470 1
30 491 1
30 492 1
30 515 1
30 516 1
30 541 1
30 542 1
30 566 1
30 618 1
30 619 1
30 620 1
30 621 1
30 642 1
30 667 1
30 668 1
31 301 1
31 302 1
31 303 1
31 304 1
31 325 1
31 349 1
31 350 1
31 351 1
31 373 1
31 420 1
31 421 1
31 422 1
31 443 1
31 444 1
31 445 1
31 467 1
31 471 1
31 472 1
31 493 1
31 494 1
31 517 1
31 518 1
31 543 1
31 544 1
31 568 1
31 620 1
31 621 1
31 622 1
31 623 1
31 644 1
31 669 1
31 670 1
32 303 1
32 304 1
32 305 1
32 306 1
32 327 1
32 351 1
32 352 1
32 353 1
32 375 1
32 422 1
32 423 1
32 424 1
32 445 1
32 446 1
32 447 1
32 469 1
32 473 1
32 474 1
32 495 1
32 496 1
32 519 1
32 520 1
32 545 1
32 546 1
32 570 1
32 622 1
32 623 1
32 624 1
32 625 1
32 646 1
32 671 1
32 672 1
33 305 1
33 306 1
33 307 1
33 308 1
33 329 1
33 353 1
33 354 1
33 355 1
33 377 1
33 424 1
33 425 1
33 426 1
33 447 1
33 448 1
33 449 1
33 471 1
33 475 1
33 476 1
33 497 1
33 498 1
33 521 1
33 522 1
33 547 1
33 548 1
33 572 1
33 577 1
33 578 1
33 624 1
33 625 1
33 626 1
33 627 1
33 648 1
34 307 1
34 308 1
34 309 1
34 310 1
34 331 1
34 355 1
34 356 1
34 357 1
34 379 1
34 426 1
34 427 1
34 428 1
34 449 1
34 450 1
34 451 1
34 473 1
34 477 1
34 478 1
34 499 1
34 500 1
34 523 1
34 524 1
34 549 1
34 550 1
34 574 1
34 579 1
34 580 1
34 626 1
34 627 1
34 628 1
34 629 1
34 650 1
35 309 1
35 310 1
35 311 1
35 312 1
35 333 1
35 357 1
35 358 1
35 359 1
35 381 1
35 428 1
35 429 1
35 430 1
35 451 1
35 452 1
35 453 1
35 475 1
35 479 1
35 480 1
35 501 1
35 502 1
35 525 1
35 526 1
35 551 1
35 552 1
35 576 1
35 581 1
35 582 1
35 628 1
35 629 1
35 630 1
35 631 1
35 652 1
36 311 1
36 312 1
36 313 1
36 314 1
36 335 1
36 359 1
36 360 1
36 361 1
36 383 1
36 385 1
36 386 1
36 430 1
36 431 1
36 432 1
36 453 1
36 454 1
36 455 1
36 477 1
36 482 1
36 503 1
36 504 1
36 527 1
36 528 1
36 553 1
36 554 1
36 583 1
36 584 1
36 630 1
36 631 1
36 632 1
36 633 1
36 654 1
37 289 1
37 313 1
37 314 1
37 315 1
37 316 1
37 337 1
37 361 1
37 362 1
37 363 1
37 387 1
37 388 1
37 432 1
37 433 1
37 434 1
37 455 1
37 456 1
37 457 1
37 479 1
37 484 1
37 505 1
37 506 1
37 529 1
37 530 1
37 555 1
37 556 1
37 585 1
37 586 1
37 632 1
37 633 1
37 634 1
37 635 1
37 656 1
38 291 1
38 315 1
38 316 1
38 317 1
38 318 1
38 339 1
38 363 1
38 364 1
38 365 1
38 385 1
38 389 1
38 390 1
38 434 1
38 435 1
38 436 1
38 457 1
38 458 1
38 459 1
38 486 1
38 507 1
38 508 1
38 531 1
38 532 1
38 557 1
38 558 1
38 587 1
38 588 1
38 634 1
38 635 1
38 636 1
38 637 1
38 658 1
39 293 1
39 317 1
39 318 1
39 319 1
39 320 1
39 341 1
39 365 1
39 366 1
39 367 1
39 387 1
39 391 1
39 392 1
39 436 1
39 437 1
39 438 1
39 459 1
39 460 1
39 461 1
39 488 1
39 509 1
39 510 1
39 533 1
39 534 1
39 559 1
39 560 1
39 589 1
39 590 1
39 636 1
39 637 1
39 638 1
39 639 1
39 660 1
40 295 1
40 319 1
40 320 1
40 321 1
40 322 1
40 343 1
40 367 1
40 368 1
40 369 1
40 389 1
40 393 1
40 394 1
40 438 1
40 439 1
40 440 1
40 461 1
40 462 1
40 463 1
40 490 1
40 511 1
40 512 1
40 535 1
40 536 1
40 561 1
40 562 1
40 591 1
40 592 1
40 638 1
40 639 1
40 640 1
40 641 1
40 662 1
41 297 1
41 321 1
41 322 1
41 323 1
41 324 1
41 345 1
41 369 1
41 370 1
41 371 1
41 391 1
41 395 1
41 396 1
41 440 1
41 441 1
41 442 1
41 463 1
41 464 1
41 465 1
41 492 1
41 513 1
41 514 1
41 537 1
41 538 1
41 563 1
41 564 1
41 593 1
41 594 1
41 640 1
41 641 1
41 642 1
41 643 1
41 664 1
42 299 1
42 323 1
42 324 1
42 325 1
42 326 1
42 347 1
42 371 1
42 372 1
42 373 1
42 393 1
42 397 1
42 398 1
42 442 1
42 443 1
42 444 1
42 465 1
42 466 1
42 467 1
42 494 1
42 515 1
42 516 1
42 539 1
42 540 1
42 565 1
42 566 1
42 595 1
42 596 1
42 642 1
42 643 1
42 644 1
42 645 1
42 666 1
43 301 1
43 325 1
43 326 1
43 327 1
43 328 1
43 349 1
43 373 1
43 374 1
43 375 1
43 395 1
43 399 1
43 400 1
43 444 1
43 445 1
43 446 1
43 467 1
43 468 1
43 469 1
43 496 1
43 517 1
43 518 1
43 541 1
43 542 1
43 567 1
43 568 1
43 597 1
43 598 1
43 644 1
43 645 1
43 646 1
43 647 1
43 668 1
44 303 1
44 327 1
44 328 1
44 329 1
44 330 1
44 351 1
44 375 1
44 376 1
44 377 1
44 397 1
44 401 1
44 402 1
44 446 1
44 447 1
44 448 1
44 469 1
44 470 1
44 471 1
44 498 1
44 519 1
44 520 1
44 543 1
44 544 1
44 569 1
44 570 1
44 599 1
44 600 1
44 646 1
44 647 1
44 648 1
44 649 1
44 670 1
45 305 1
45 329 1
45 330 1
45 331 1
45 332 1
45 353 1
45 377 1
45 378 1
45 379 1
45 399 1
45 403 1
45 404 1
45 448 1
45 449 1
45 450 1
45 471 1
45 472 1
45 473 1
45 500 1
45 521 1
45 522 1
45 545 1
45 546 1
45 571 1
45 572 1
45 601 1
45 602 1
45 648 1
45 649 1
45 650 1
45 651 1
45 672 1
46 307 1
46 331 1
46 332 1
46 333 1
46 334 1
46 355 1
46 379 1
46 380 1
46 381 1
46 401 1
46 405 1
46 406 1
46 450 1
46 451 1
46 452 1
46 473 1
46 474 1
46 475 1
46 502 1
46 523 1
46 524 1
46 547 1
46 548 1
46 573 1
46 574 1
46 578 1
46 603 1
46 604 1
46 650 1
46 651 1
46 652 1
46 653 1
47 309 1
47 333 1
47 334 1
47 335 1
47 336 1
47 357 1
47 381 1
47 382 1
47 383 1
47 403 1
47 407 1
47 408 1
47 452 1
47 453 1
47 454 1
47 475 1
47 476 1
47 477 1
47 504 1
47 525 1
47 526 1
47 549 1
47 550 1
47 575 1
47 576 1
47 580 1
47 605 1
47 606 1
47 652 1
47 653 1
47 654 1
47 655 1
48 289 1
48 311 1
48 335 1
48 336 1
48 337 1
48 338 1
48 359 1
48 383 1
48 384 1
48 405 1
48 409 1
48 410 1
48 454 1
48 455 1
48 456 1
48 477 1
48 478 1
48 479 1
48 481 1
48 482 1
48 506 1
48 527 1
48 528 1
48 551 1
48 552 1
48 582 1
48 607 1
48 608 1
48 654 1
48 655 1
48 656 1
48 657 1
49 289 1
49 292 1
49 314 1
49 337 1
49 339 1
49 362 1
49 386 1
49 408 1
49 411 1
49 455 1
49 456 1
49 457 1
49 479 1
49 483 1
49 507 1
49 508 1
49 529 1
49 553 1
49 583 1
49 584 1
49 609 1
49 655 1
49 656 1
49 657 1
49 660 1
50 291 1
50 294 1
50 316 1
50 339 1
50 341 1
50 364 1
50 385 1
50 388 1
50 410 1
50 413 1
50 457 1
50 458 1
50 459 1
50 485 1
50 509 1
50 510 1
50 531 1
50 555 1
50 585 1
50 586 1
50 611 1
50 657 1
50 658 1
50 659 1
50 662 1
51 293 1
51 296 1
51 318 1
51 341 1
51 343 1
51 366 1
51 387 1
51 390 1
51 412 1
51 415 1
51 459 1
51 460 1
51 461 1
51 487 1
51 511 1
51 512 1
51 533 1
51 557 1
51 587 1
51 588 1
51 613 1
51 659 1
51 660 1
51 661 1
51 664 1
52 295 1
52 298 1
52 320 1
52 343 1
52 345 1
52 368 1
52 389 1
52 392 1
52 414 1
52 417 1
52 461 1
52 462 1
52 463 1
52 489 1
52 513 1
52 514 1
52 535 1
52 559 1
52 589 1
52 590 1
52 615 1
52 661 1
52 662 1
52 663 1
52 666 1
53 297 1
53 300 1
53 322 1
53 345 1
53 347 1
53 370 1
53 391 1
53 394 1
53 416 1
53 419 1
53 463 1
53 464 1
53 465 1
53 491 1
53 515 1
53 516 1
53 537 1
53 561 1
53 591 1
53 592 1
53 617 1
53 663 1
53 664 1
53 665 1
53 668 1
54 299 1
54 302 1
54 324 1
54 347 1
54 349 1
54 372 1
54 393 1
54 396 1
54 418 1
54 421 1
54 465 1
54 466 1
54 467 1
54 493 1
54 517 1
54 518 1
54 539 1
54 563 1
54 593 1
54 594 1
54 619 1
54 665 1
54 666 1
54 667 1
54 670 1
55 301 1
55 304 1
55 326 1
55 349 1
55 351 1
55 374 1
55 395 1
55 398 1
55 420 1
55 423 1
55 467 1
55 468 1
55 469 1
55 495 1
55 519 1
55 520 1
55 541 1
55 565 1
55 595 1
55 596 1
55 621 1
55 667 1
55 668 1
55 669 1
55 672 1
56 303 1
56 306 1
56 328 1
56 351 1
56 353 1
56 376 1
56 397 1
56 400 1
56 422 1
56 425 1
56 469 1
56 470 1
56 471 1
56 497 1
56 521 1
56 522 1
56 543 1
56 567 1
56 578 1
56 597 1
56 598 1
56 623 1
56 669 1
56 670 1
56 671 1
57 305 1
57 308 1
57 330 1
57 353 1
57 355 1
57 378 1
57 399 1
57 402 1
57 424 1
57 427 1
57 471 1
57 472 1
57 473 1
57 499 1
57 523 1
57 524 1
57 545 1
57 569 1
57 577 1
57 580 1
57 599 1
57 600 1
57 625 1
57 671 1
57 672 1
58 307 1
58 310 1
58 332 1
58 355 1
58 357 1
58 380 1
58 401 1
58 404 1
58 426 1
58 429 1
58 473 1
58 474 1
58 475 1
58 501 1
58 525 1
58 526 1
58 547 1
58 571 1
58 577 1
58 578 1
58 579 1
58 582 1
58 601 1
58 602 1
58 627 1
59 309 1
59 312 1
59 334 1
59 357 1
59 359 1
59 382 1
59 403 1
59 406 1
59 428 1
59 431 1
59 475 1
59 476 1
59 477 1
59 503 1
59 527 1
59 528 1
59 549 1
59 573 1
59 579 1
59 580 1
59 581 1
59 584 1
59 603 1
59 604 1
59 629 1
60 311 1
60 314 1
60 336 1
60 359 1
60 361 1
60 384 1
60 405 1
60 408 1
60 430 1
60 433 1
60 477 1
60 478 1
60 479 1
60 505 1
60 529 1
60 530 1
60 551 1
60 575 1
60 581 1
60 582 1
60 583 1
60 586 1
60 605 1
60 606 1
60 631 1
61 290 1
61 313 1
61 316 1
61 338 1
61 361 1
61 363 1
61 385 1
61 407 1
61 410 1
61 432 1
61 435 1
61 479 1
61 480 1
61 481 1
61 507 1
61 531 1
61 532 1
61 553 1
61 583 1
61 584 1
61 585 1
61 588 1
61 607 1
61 608 1
61 633 1
62 292 1
62 315 1
62 318 1
62 340 1
62 363 1
62 365 1
62 385 1
62 386 1
62 387 1
62 409 1
62 412 1
62 434 1
62 437 1
62 483 1
62 509 1
62 533 1
62 534 1
62 555 1
62 585 1
62 586 1
62 587 1
62 590 1
62 609 1
62 610 1
62 635 1
63 294 1
63 317 1
63 320 1
63 342 1
63 365 1
63 367 1
63 387 1
63 388 1
63 389 1
63 411 1
63 414 1
63 436 1
63 439 1
63 485 1
63 511 1
63 535 1
63 536 1
63 557 1
63 587 1
63 588 1
63 589 1
63 592 1
63 611 1
63 612 1
63 637 1
64 296 1
64 319 1
64 322 1
64 344 1
64 367 1
64 369 1
64 389 1
64 390 1
64 391 1
64 413 1
64 416 1
64 438 1
64 441 1
64 487 1
64 513 1
64 537 1
64 538 1
64 559 1
64 589 1
64 590 1
64 591 1
64 594 1
64 613 1
64 614 1
64 639 1
65 298 1
65 321 1
65 324 1
65 346 1
65 369 1
65 371 1
65 391 1
65 392 1
65 393 1
65 415 1
65 418 1
65 440 1
65 443 1
65 489 1
65 515 1
65 539 1
65 540 1
65 561 1
65 591 1
65 592 1
65 593 1
65 596 1
65 615 1
65 616 1
65 641 1
66 300 1
66 323 1
66 326 1
66 348 1
66 371 1
66 373 1
66 393 1
66 394 1
66 395 1
66 417 1
66 420 1
66 442 1
66 445 1
66 491 1
66 517 1
66 541 1
66 542 1
66 563 1
66 593 1
66 594 1
66 595 1
66 598 1
66 617 1
66 618 1
66 643 1
67 302 1
67 325 1
67 328 1
67 350 1
67 373 1
67 375 1
67 395 1
67 396 1
67 397 1
67 419 1
67 422 1
67 444 1
67 447 1
67 493 1
67 519 1
67 543 1
67 544 1
67 565 1
67 595 1
67 596 1
67 597 1
67 600 1
67 619 1
67 620 1
67 645 1
68 304 1
68 327 1
68 330 1
68 352 1
68 375 1
68 377 1
68 397 1
68 398 1
68 399 1
68 421 1
68 424 1
68 446 1
68 449 1
68 495 1
68 521 1
68 545 1
68 546 1
68 567 1
68 597 1
68 598 1
68 599 1
68 602 1
68 621 1
68 622 1
68 647 1
69 306 1
69 329 1
69 332 1
69 354 1
69 377 1
69 379 1
69 399 1
69 400 1
69 401 1
69 423 1
69 426 1
69 448 1
69 451 1
69 497 1
69 523 1
69 547 1
69 548 1
69 569 1
69 599 1
69 600 1
69 601 1
69 604 1
69 623 1
69 624 1
69 649 1
70 308 1
70 331 1
70 334 1
70 356 1
70 379 1
70 381 1
70 401 1
70 402 1
70 403 1
70 425 1
70 428 1
70 450 1
70 453 1
70 499 1
70 525 1
70 549 1
70 550 1
70 571 1
70 601 1
70 602 1
70 603 1
70 606 1
70 625 1
70 626 1
70 651 1
71 310 1
71 333 1
71 336 1
71 358 1
71 381 1
71 383 1
71 403 1
71 404 1
71 405 1
71 427 1
71 430 1
71 452 1
71 455 1
71 501 1
71 527 1
71 551 1
71 552 1
71 573 1
71 603 1
71 604 1
71 605 1
71 608 1
71 627 1
71 628 1
71 653 1
72 289 1
72 312 1
72 335 1
72 338 1
72 360 1
72 383 1
72 405 1
72 406 1
72 407 1
72 429 1
72 432 1
72 454 1
72 457 1
72 503 1
72 529 1
72 553 1
72 554 1
72 575 1
72 605 1
72 606 1
72 607 1
72 610 1
72 629 1
72 630 1
72 655 1
73 289 1
73 291 1
73 314 1
73 337 1
73 340 1
73 362 1
73 407 1
73 408 1
73 409 1
73 431 1
73 434 1
73 456 1
73 459 1
73 481 1
73 505 1
73 531 1
73 555 1
73 556 1
73 607 1
73 608 1
73 609 1
73 612 1
73 631 1
73 632 1
73 657 1
74 291 1
74 293 1
74 316 1
74 339 1
74 342 1
74 364 1
74 409 1
74 410 1
74 411 1
74 433 1
74 436 1
74 458 1
74 461 1
74 483 1
74 507 1
74 533 1
74 557 1
74 558 1
74 609 1
74 610 1
74 611 1
74 614 1
74 633 1
74 634 1
74 659 1
75 293 1
75 295 1
75 318 1
75 341 1
75 344 1
75 366 1
75 411 1
75 412 1
75 413 1
75 435 1
75 438 1
75 460 1
75 463 1
75 485 1
75 509 1
75 535 1
75 559 1
75 560 1
75 611 1
75 612 1
75 613 1
75 616 1
75 635 1
75 636 1
75 661 1
76 295 1
76 297 1
76 320 1
76 343 1
76 346 1
76 368 1
76 413 1
76 414 1
76 415 1
76 437 1
76 440 1
76 462 1
76 465 1
76 487 1
76 511 1
76 537 1
76 561 1
76 562 1
76 613 1
76 614 1
76 615 1
76 618 1
76 637 1
76 638 1
76 663 1
77 297 1
77 299 1
77 322 1
77 345 1
77 348 1
77 370 1
77 415 1
77 416 1
77 417 1
77 439 1
77 442 1
77 464 1
77 467 1
77 489 1
77 513 1
77 539 1
77 563 1
77 564 1
77 615 1
77 616 1
77 617 1
77 620 1
77 639 1
77 640 1
77 665 1
78 299 1
78 301 1
78 324 1
78 347 1
78 350 1
78 372 1
78 417 1
78 418 1
78 419 1
78 441 1
78 444 1
78 466 1
78 469 1
78 491 1
78 515 1
78 541 1
78 565 1
78 566 1
78 617 1
78 618 1
78 619 1
78 622 1
78 641 1
78 642 1
78 667 1
79 301 1
79 303 1
79 326 1
79 349 1
79 352 1
79 374 1
79 419 1
79 420 1
79 421 1
79 443 1
79 446 1
79 468 1
79 471 1
79 493 1
79 517 1
79 543 1
79 567 1
79 568 1
79 619 1
79 620 1
79 621 1
79 624 1
79 643 1
79 644 1
79 669 1
80 303 1
80 305 1
80 328 1
80 351 1
80 354 1
80 376 1
80 421 1
80 422 1
80 423 1
80 445 1
80 448 1
80 470 1
80 473 1
80 495 1
80 519 1
80 545 1
80 569 1
80 570 1
80 621 1
80 622 1
80 623 1
80 626 1
80 645 1
80 646 1
80 671 1
81 305 1
81 307 1
81 330 1
81 353 1
81 356 1
81 378 1
81 423 1
81 424 1
81 425 1
81 447 1
81 450 1
81 472 1
81 475 1
81 497 1
81 521 1
81 547 1
81 571 1
81 572 1
81 577 1
81 623 1
81 624 1
81 625 1
81 628 1
81 647 1
81 648 1
82 307 1
82 309 1
82 332 1
82 355 1
82 358 1
82 380 1
82 425 1
82 426 1
82 427 1
82 449 1
82 452 1
82 474 1
82 477 1
82 499 1
82 523 1
82 549 1
82 573 1
82 574 1
82 579 1
82 625 1
82 626 1
82 627 1
82 630 1
82 649 1
82 650 1
83 309 1
83 311 1
83 334 1
83 357 1
83 360 1
83 382 1
83 427 1
83 428 1
83 429 1
83 451 1
83 454 1
83 476 1
83 479 1
83 501 1
83 525 1
83 551 1
83 575 1
83 576 1
83 581 1
83 627 1
83 628 1
83 629 1
83 632 1
83 651 1
83 652 1
84 311 1
84 313 1
84 336 1
84 359 1
84 362 1
84 384 1
84 385 1
84 429 1
84 430 1
84 431 1
84 453 1
84 456 1
84 478 1
84 481 1
84 482 1
84 503 1
84 527 1
84 553 1
84 583 1
84 629 1
84 630 1
84 631 1
84 634 1
84 653 1
84 654 1
85 290 1
85 313 1
85 315 1
85 338 1
85 361 1
85 364 1
85 387 1
85 431 1
85 432 1
85 433 1
85 455 1
85 458 1
85 480 1
85 483 1
85 484 1
85 505 1
85 529 1
85 555 1
85 585 1
85 631 1
85 632 1
85 633 1
85 636 1
85 655 1
85 656 1
86 292 1
86 315 1
86 317 1
86 340 1
86 363 1
86 366 1
86 386 1
86 389 1
86 433 1
86 434 1
86 435 1
86 457 1
86 460 1
86 485 1
86 486 1
86 507 1
86 531 1
86 557 1
86 587 1
86 633 1
86 634 1
86 635 1
86 638 1
86 657 1
86 658 1
87 294 1
87 317 1
87 319 1
87 342 1
87 365 1
87 368 1
87 388 1
87 391 1
87 435 1
87 436 1
87 437 1
87 459 1
87 462 1
87 487 1
87 488 1
87 509 1
87 533 1
87 559 1
87 589 1
87 635 1
87 636 1
87 637 1
87 640 1
87 659 1
87 660 1
88 296 1
88 319 1
88 321 1
88 344 1
88 367 1
88 370 1
88 390 1
88 393 1
88 437 1
88 438 1
88 439 1
88 461 1
88 464 1
88 489 1
88 490 1
88 511 1
88 535 1
88 561 1
88 591 1
88 637 1
88 638 1
88 639 1
88 642 1
88 661 1
88 662 1
89 298 1
89 321 1
89 323 1
89 346 1
89 369 1
89 372 1
89 392 1
89 395 1
89 439 1
89 440 1
89 441 1
89 463 1
89 466 1
89 491 1
89 492 1
89 513 1
89 537 1
89 563 1
89 593 1
89 639 1
89 640 1
89 641 1
89 644 1
89 663 1
89 664 1
90 300 1
90 323 1
90 325 1
90 348 1
90 371 1
90 374 1
90 394 1
90 397 1
90 441 1
90 442 1
90 443 1
90 465 1
90 468 1
90 493 1
90 494 1
90 515 1
90 539 1
90 565 1
90 595 1
90 641 1
90 642 1
90 643 1
90 646 1
90 665 1
90 666 1
91 302 1
91 325 1
91 327 1
91 350 1
91 373 1
91 376 1
91 396 1
91 399 1
91 443 1
91 444 1
91 445 1
91 467 1
91 470 1
91 495 1
91 496 1
91 517 1
91 541 1
91 567 1
91 597 1
91 643 1
91 644 1
91 645 1
91 648 1
91 667 1
91 668 1
92 304 1
92 327 1
92 329 1
92 352 1
92 375 1
92 378 1
92 398 1
92 401 1
92 445 1
92 446 1
92 447 1
92 469 1
92 472 1
92 497 1
92 498 1
92 519 1
92 543 1
92 569 1
92 599 1
92 645 1
92 646 1
92 647 1
92 650 1
92 669 1
92 670 1
93 306 1
93 329 1
93 331 1
93 354 1
93 377 1
93 380 1
93 400 1
93 403 1
93 447 1
93 448 1
93 449 1
93 471 1
93 474 1
93 499 1
93 500 1
93 521 1
93 545 1
93 571 1
93 601 1
93 647 1
93 648 1
93 649 1
93 652 1
93 671 1
93 672 1
94 308 1
94 331 1
94 333 1
94 356 1
94 379 1
94 382 1
94 402 1
94 405 1
94 449 1
94 450 1
94 451 1
94 473 1
94 476 1
94 501 1
94 502 1
94 523 1
94 547 1
94 573 1
94 577 1
94 578 1
94 603 1
94 649 1
94 650 1
94 651 1
94 654 1
95 310 1
95 333 1
95 335 1
95 358 1
95 381 1
95 384 1
95 404 1
95 407 1
95 451 1
95 452 1
95 453 1
95 475 1
95 478 1
95 503 1
95 504 1
95 525 1
95 549 1
95 575 1
95 579 1
95 580 1
95 605 1
95 651 1
95 652 1
95 653 1
95 656 1
96 290 1
96 312 1
96 335 1
96 337 1
96 360 1
96 383 1
96 406 1
96 409 1
96 453 1
96 454 1
96 455 1
96 477 1
96 480 1
96 481 1
96 505 1
96 506 1
96 527 1
96 551 1
96 581 1
96 582 1
96 607 1
96 653 1
96 654 1
96 655 1
96 658 1
97 408 1
97 410 1
97 425 1
97 426 1
97 427 1
97 435 1
97 479 1
97 499 1
97 506 1
97 507 1
97 531 1
97 532 1
97 553 1
97 572 1
97 583 1
97 588 1
97 627 1
97 633 1
97 650 1
97 655 1
97 656 1
97 673 1
97 676 1
97 698 1
97 721 1
97 723 1
97 746 1
98 385 1
98 410 1
98 412 1
98 427 1
98 428 1
98 429 1
98 437 1
98 501 1
98 508 1
98 509 1
98 533 1
98 534 1
98 555 1
98 574 1
98 585 1
98 590 1
98 629 1
98 635 1
98 652 1
98 657 1
98 658 1
98 675 1
98 678 1
98 700 1
98 723 1
98 725 1
98 748 1
99 387 1
99 412 1
99 414 1
99 429 1
99 430 1
99 431 1
99 439 1
99 503 1
99 510 1
99 511 1
99 535 1
99 536 1
99 557 1
99 576 1
99 587 1
99 592 1
99 631 1
99 637 1
99 654 1
99 659 1
99 660 1
99 677 1
99 680 1
99 702 1
99 725 1
99 727 1
99 750 1
100 389 1
100 414 1
100 416 1
100 431 1
100 432 1
100 433 1
100 441 1
100 482 1
100 505 1
100 512 1
100 513 1
100 537 1
100 538 1
100 559 1
100 589 1
100 594 1
100 633 1
100 639 1
100 656 1
100 661 1
100 662 1
100 679 1
100 682 1
100 704 1
100 727 1
100 729 1
100 752 1
101 391 1
101 416 1
101 418 1
101 433 1
101 434 1
101 435 1
101 443 1
101 484 1
101 507 1
101 514 1
101 515 1
101 539 1
101 540 1
101 561 1
101 591 1
101 596 1
101 635 1
101 641 1
101 658 1
101 663 1
101 664 1
101 681 1
101 684 1
101 706 1
101 729 1
101 731 1
101 754 1
102 393 1
102 418 1
102 420 1
102 435 1
102 436 1
102 437 1
102 445 1
102 486 1
102 509 1
102 516 1
102 517 1
102 541 1
102 542 1
102 563 1
102 593 1
102 598 1
102 637 1
102 643 1
102 660 1
102 665 1
102 666 1
102 683 1
102 686 1
102 708 1
102 731 1
102 733 1
102 756 1
103 395 1
103 420 1
103 422 1
103 437 1
103 438 1
103 439 1
103 447 1
103 488 1
103 511 1
103 518 1
103 519 1
103 543 1
103 544 1
103 565 1
103 595 1
103 600 1
103 639 1
103 645 1
103 662 1
103 667 1
103 668 1
103 685 1
103 688 1
103 710 1
103 733 1
103 735 1
103 758 1
104 397 1
104 422 1
104 424 1
104 439 1
104 440 1
104 441 1
104 449 1
104 490 1
104 513 1
104 520 1
104 521 1
104 545 1
104 546 1
104 567 1
104 597 1
104 602 1
104 641 1
104 647 1
104 664 1
104 669 1
104 670 1
104 687 1
104 690 1
104 712 1
104 735 1
104 737 1
104 760 1
105 399 1
105 424 1
105 426 1
105 441 1
105 442 1
105 443 1
105 451 1
105 492 1
105 515 1
105 522 1
105 523 1
105 547 1
105 548 1
105 569 1
105 599 1
105 604 1
105 643 1
105 649 1
105 666 1
105 671 1
105 672 1
105 689 1
105 692 1
105 714 1
105 737 1
105 739 1
105 762 1
106 401 1
106 426 1
106 428 1
106 443 1
106 444 1
106 445 1
106 453 1
106 494 1
106 517 1
106 524 1
106 525 1
106 549 1
106 550 1
106 571 1
106 577 1
106 578 1
106 601 1
106 606 1
106 645 1
106 651 1
106 668 1
106 691 1
106 694 1
106 716 1
106 739 1
106 741 1
106 764 1
107 403 1
107 428 1
107 430 1
107 445 1
107 446 1
107 447 1
107 455 1
107 496 1
107 519 1
107 526 1
107 527 1
107 551 1
107 552 1
107 573 1
107 579 1
107 580 1
107 603 1
107 608 1
107 647 1
107 653 1
107 670 1
107 693 1
107 696 1
107 718 1
107 741 1
107 743 1
107 766 1
108 405 1
108 430 1
108 432 1
108 447 1
108 448 1
108 449 1
108 457 1
108 498 1
108 521 1
108 528 1
108 529 1
108 553 1
108 554 1
108 575 1
108 581 1
108 582 1
108 605 1
108 610 1
108 649 1
108 655 1
108 672 1
108 695 1
108 698 1
108 720 1
108 743 1
108 745 1
108 768 1
109 407 1
109 432 1
109 434 1
109 449 1
109 450 1
109 451 1
109 459 1
109 481 1
109 500 1
109 523 1
109 530 1
109 531 1
109 555 1
109 556 1
109 578 1
109 583 1
109 584 1
109 607 1
109 612 1
109 651 1
109 657 1
109 674 1
109 697 1
109 700 1
109 722 1
109 745 1
109 747 1
110 409 1
110 434 1
110 436 1
110 451 1
110 452 1
110 453 1
110 461 1
110 483 1
110 502 1
110 525 1
110 532 1
110 533 1
110 557 1
110 558 1
110 580 1
110 585 1
110 586 1
110 609 1
110 614 1
110 653 1
110 659 1
110 676 1
110 699 1
110 702 1
110 724 1
110 747 1
110 749 1
111 411 1
111 436 1
111 438 1
111 453 1
111 454 1
111 455 1
111 463 1
111 485 1
111 504 1
111 527 1
111 534 1
111 535 1
111 559 1
111 560 1
111 582 1
111 587 1
111 588 1
111 611 1
111 616 1
111 655 1
111 661 1
111 678 1
111 701 1
111 704 1
111 726 1
111 749 1
111 751 1
112 413 1
112 438 1
112 440 1
112 455 1
112 456 1
112 457 1
112 465 1
112 487 1
112 506 1
112 529 1
112 536 1
112 537 1
112 561 1
112 562 1
112 584 1
112 589 1
112 590 1
112 613 1
112 618 1
112 657 1
112 663 1
112 680 1
112 703 1
112 706 1
112 728 1
112 751 1
112 753 1
113 415 1
113 440 1
113 442 1
113 457 1
113 458 1
113 459 1
113 467 1
113 489 1
113 508 1
113 531 1
113 538 1
113 539 1
113 563 1
113 564 1
113 586 1
113 591 1
113 592 1
113 615 1
113 620 1
113 659 1
113 665 1
113 682 1
113 705 1
113 708 1
113 730 1
113 753 1
113 755 1
114 417 1
114 442 1
114 444 1
114 459 1
114 460 1
114 461 1
114 469 1
114 491 1
114 510 1
114 533 1
114 540 1
114 541 1
114 565 1
114 566 1
114 588 1
114 593 1
114 594 1
114 617 1
114 622 1
114 661 1
114 667 1
114 684 1
114 707 1
114 710 1
114 732 1
114 755 1
114 757 1
115 419 1
115 444 1
115 446 1
115 461 1
115 462 1
115 463 1
115 471 1
115 493 1
115 512 1
115 535 1
115 542 1
115 543 1
115 567 1
115 568 1
115 590 1
115 595 1
115 596 1
115 619 1
115 624 1
115 663 1
115 669 1
115 686 1
115 709 1
115 712 1
115 734 1
115 757 1
115 759 1
116 421 1
116 446 1
116 448 1
116 463 1
116 464 1
116 465 1
116 473 1
116 495 1
116 514 1
116 537 1
116 544 1
116 545 1
116 569 1
116 570 1
116 592 1
116 597 1
116 598 1
116 621 1
116 626 1
116 665 1
116 671 1
116 688 1
116 711 1
116 714 1
116 736 1
116 759 1
116 761 1
117 423 1
117 448 1
117 450 1
117 465 1
117 466 1
117 467 1
117 475 1
117 497 1
117 516 1
117 539 1
117 546 1
117 547 1
117 571 1
117 572 1
117 577 1
117 594 1
117 599 1
117 600 1
117 623 1
117 628 1
117 667 1
117 690 1
117 713 1
117 716 1
117 738 1
117 761 1
117 763 1
118 425 1
118 450 1
118 452 1
118 467 1
118 468 1
118 469 1
118 477 1
118 499 1
118 518 1
118 541 1
118 548 1
118 549 1
118 573 1
118 574 1
118 579 1
118 596 1
118 601 1
118 602 1
118 625 1
118 630 1
118 669 1
118 692 1
118 715 1
118 718 1
118 740 1
118 763 1
118 765 1
119 427 1
119 452 1
119 454 1
119 469 1
119 470 1
119 471 1
119 479 1
119 501 1
119 520 1
119 543 1
119 550 1
119 551 1
119 575 1
119 576 1
119 581 1
119 598 1
119 603 1
119 604 1
119 627 1
119 632 1
119 671 1
119 694 1
119 717 1
119 720 1
119 742 1
119 765 1
119 767 1
120 385 1
120 429 1
120 454 1
120 456 1
120 471 1
120 472 1
120 473 1
120 481 1
120 482 1
120 503 1
120 522 1
120 545 1
120 552 1
120 553 1
120 577 1
120 583 1
120 600 1
120 605 1
120 606 1
120 629 1
120 634 1
120 673 1
120 696 1
120 719 1
120 722 1
120 744 1
120 767 1
121 387 1
121 431 1
121 456 1
121 458 1
121 473 1
121 474 1
121 475 1
121 483 1
121 484 1
121 505 1
121 524 1
121 547 1
121 554 1
121 555 1
121 579 1
121 585 1
121 602 1
121 607 1
121 608 1
121 631 1
121 636 1
121 673 1
121 675 1
121 698 1
121 721 1
121 724 1
121 746 1
122 389 1
122 433 1
122 458 1
122 460 1
122 475 1
122 476 1
122 477 1
122 485 1
122 486 1
122 507 1
122 526 1
122 549 1
122 556 1
122 557 1
122 581 1
122 587 1
122 604 1
122 609 1
122 610 1
122 633 1
122 638 1
122 675 1
122 677 1
122 700 1
122 723 1
122 726 1
122 748 1
123 391 1
123 435 1
123 460 1
123 462 1
123 477 1
123 478 1
123 479 1
123 487 1
123 488 1
123 509 1
123 528 1
123 551 1
123 558 1
123 559 1
123 583 1
123 589 1
123 606 1
123 611 1
123 612 1
123 635 1
123 640 1
123 677 1
123 679 1
123 702 1
123 725 1
123 728 1
123 750 1
124 385 1
124 393 1
124 437 1
124 462 1
124 464 1
124 479 1
124 480 1
124 489 1
124 490 1
124 511 1
124 530 1
124 553 1
124 560 1
124 561 1
124 585 1
124 591 1
124 608 1
124 613 1
124 614 1
124 637 1
124 642 1
124 679 1
124 681 1
124 704 1
124 727 1
124 730 1
124 752 1
125 385 1
125 386 1
125 387 1
125 395 1
125 439 1
125 464 1
125 466 1
125 491 1
125 492 1
125 513 1
125 532 1
125 555 1
125 562 1
125 563 1
125 587 1
125 593 1
125 610 1
125 615 1
125 616 1
125 639 1
125 644 1
125 681 1
125 683 1
125 706 1
125 729 1
125 732 1
125 754 1
126 387 1
126 388 1
126 389 1
126 397 1
126 441 1
126 466 1
126 468 1
126 493 1
126 494 1
126 515 1
126 534 1
126 557 1
126 564 1
126 565 1
126 589 1
126 595 1
126 612 1
126 617 1
126 618 1
126 641 1
126 646 1
126 683 1
126 685 1
126 708 1
126 731 1
126 734 1
126 756 1
127 389 1
127 390 1
127 391 1
127 399 1
127 443 1
127 468 1
127 470 1
127 495 1
127 496 1
127 517 1
127 536 1
127 559 1
127 566 1
127 567 1
127 591 1
127 597 1
127 614 1
127 619 1
127 620 1
127 643 1
127 648 1
127 685 1
127 687 1
127 710 1
127 733 1
127 736 1
127 758 1
128 391 1
128 392 1
128 393 1
128 401 1
128 445 1
128 470 1
128 472 1
128 497 1
128 498 1
128 519 1
128 538 1
128 561 1
128 568 1
128 569 1
128 593 1
128 599 1
128 616 1
128 621 1
128 622 1
128 645 1
128 650 1
128 687 1
128 689 1
128 712 1
128 735 1
128 738 1
128 760 1
129 393 1
129 394 1
129 395 1
129 403 1
129 447 1
129 472 1
129 474 1
129 499 1
129 500 1
129 521 1
129 540 1
129 563 1
129 570 1
129 571 1
129 595 1
129 601 1
129 618 1
129 623 1
129 624 1
129 647 1
129 652 1
129 689 1
129 691 1
129 714 1
129 737 1
129 740 1
129 762 1
130 395 1
130 396 1
130 397 1
130 405 1
130 449 1
130 474 1
130 476 1
130 501 1
130 502 1
130 523 1
130 542 1
130 565 1
130 572 1
130 573 1
130 597 1
130 603 1
130 620 1
130 625 1
130 626 1
130 649 1
130 654 1
130 691 1
130 693 1
130 716 1
130 739 1
130 742 1
130 764 1
131 397 1
131 398 1
131 399 1
131 407 1
131 451 1
131 476 1
131 478 1
131 503 1
131 504 1
131 525 1
131 544 1
131 567 1
131 574 1
131 575 1
131 599 1
131 605 1
131 622 1
131 627 1
131 628 1
131 651 1
131 656 1
131 693 1
131 695 1
131 718 1
131 741 1
131 744 1
131 766 1
132 399 1
132 400 1
132 401 1
132 409 1
132 453 1
132 478 1
132 480 1
132 481 1
132 505 1
132 506 1
132 527 1
132 546 1
132 569 1
132 576 1
132 601 1
132 607 1
132 624 1
132 629 1
132 630 1
132 653 1
132 658 1
132 695 1
132 697 1
132 720 1
132 743 1
132 746 1
132 768 1
133 386 1
133 401 1
133 402 1
133 403 1
133 411 1
133 455 1
133 480 1
133 482 1
133 483 1
133 507 1
133 508 1
133 529 1
133 548 1
133 571 1
133 603 1
133 609 1
133 626 1
133 631 1
133 632 1
133 655 1
133 660 1
133 674 1
133 697 1
133 699 1
133 722 1
133 745 1
133 748 1
134 386 1
134 388 1
134 403 1
134 404 1
134 405 1
134 413 1
134 457 1
134 484 1
134 485 1
134 509 1
134 510 1
134 531 1
134 550 1
134 573 1
134 605 1
134 611 1
134 628 1
134 633 1
134 634 1
134 657 1
134 662 1
134 676 1
134 699 1
134 701 1
134 724 1
134 747 1
134 750 1
135 388 1
135 390 1
135 405 1
135 406 1
135 407 1
135 415 1
135 459 1
135 486 1
135 487 1
135 511 1
135 512 1
135 533 1
135 552 1
135 575 1
135 607 1
135 613 1
135 630 1
135 635 1
135 636 1
135 659 1
135 664 1
135 678 1
135 701 1
135 703 1
135 726 1
135 749 1
135 752 1
136 390 1
136 392 1
136 407 1
136 408 1
136 409 1
136 417 1
136 461 1
136 481 1
136 488 1
136 489 1
136 513 1
136 514 1
136 535 1
136 554 1
136 609 1
136 615 1
136 632 1
136 637 1
136 638 1
136 661 1
136 666 1
136 680 1
136 703 1
136 705 1
136 728 1
136 751 1
136 754 1
137 392 1
137 394 1
137 409 1
137 410 1
137 411 1
137 419 1
137 463 1
137 483 1
137 490 1
137 491 1
137 515 1
137 516 1
137 537 1
137 556 1
137 611 1
137 617 1
137 634 1
137 639 1
137 640 1
137 663 1
137 668 1
137 682 1
137 705 1
137 707 1
137 730 1
137 753 1
137 756 1
138 394 1
138 396 1
138 411 1
138 412 1
138 413 1
138 421 1
138 465 1
138 485 1
138 492 1
138 493 1
138 517 1
138 518 1
138 539 1
138 558 1
138 613 1
138 619 1
138 636 1
138 641 1
138 642 1
138 665 1
138 670 1
138 684 1
138 707 1
138 709 1
138 732 1
138 755 1
138 758 1
139 396 1
139 398 1
139 413 1
139 414 1
139 415 1
139 423 1
139 467 1
139 487 1
139 494 1
139 495 1
139 519 1
139 520 1
139 541 1
139 560 1
139 615 1
139 621 1
139 638 1
139 643 1
139 644 1
139 667 1
139 672 1
139 686 1
139 709 1
139 711 1
139 734 1
139 757 1
139 760 1
140 398 1
140 400 1
140 415 1
140 416 1
140 417 1
140 425 1
140 469 1
140 489 1
140 496 1
140 497 1
140 521 1
140 522 1
140 543 1
140 562 1
140 578 1
140 617 1
140 623 1
140 640 1
140 645 1
140 646 1
140 669 1
140 688 1
140 711 1
140 713 1
140 736 1
140 759 1
140 762 1
141 400 1
141 402 1
141 417 1
141 418 1
141 419 1
141 427 1
141 471 1
141 491 1
141 498 1
141 499 1
141 523 1
141 524 1
141 545 1
141 564 1
141 580 1
141 619 1
141 625 1
141 642 1
141 647 1
141 648 1
141 671 1
141 690 1
141 713 1
141 715 1
141 738 1
141 761 1
141 764 1
142 402 1
142 404 1
142 419 1
142 420 1
142 421 1
142 429 1
142 473 1
142 493 1
142 500 1
142 501 1
142 525 1
142 526 1
142 547 1
142 566 1
142 577 1
142 582 1
142 621 1
142 627 1
142 644 1
142 649 1
142 650 1
142 692 1
142 715 1
142 717 1
142 740 1
142 763 1
142 766 1
143 404 1
143 406 1
143 421 1
143 422 1
143 423 1
143 431 1
143 475 1
143 495 1
143 502 1
143 503 1
143 527 1
143 528 1
143 549 1
143 568 1
143 579 1
143 584 1
143 623 1
143 629 1
143 646 1
143 651 1
143 652 1
143 694 1
143 717 1
143 719 1
143 742 1
143 765 1
143 768 1
144 406 1
144 408 1
144 423 1
144 424 1
144 425 1
144 433 1
144 477 1
144 497 1
144 504 1
144 505 1
144 529 1
144 530 1
144 551 1
144 570 1
144 581 1
144 586 1
144 625 1
144 631 1
144 648 1
144 653 1
144 654 1
144 674 1
144 696 1
144 719 1
144 721 1
144 744 1
144 767 1
145 407 1
145 408 1
145 409 1
145 410 1
145 425 1
145 428 1
145 436 1
145 480 1
145 500 1
145 505 1
145 506 1
145 508 1
145 531 1
145 554 1
145 571 1
145 572 1
145 584 1
145 587 1
145 588 1
145 628 1
145 634 1
145 649 1
145 650 1
145 655 1
145 674 1
145 675 1
145 676 1
145 697 1
145 698 1
145 722 1
145 724 1
145 745 1
145 746 1
146 386 1
146 409 1
146 410 1
146 411 1
146 412 1
146 427 1
146 430 1
146 438 1
146 502 1
146 507 1
146 508 1
146 510 1
146 533 1
146 556 1
146 573 1
146 574 1
146 586 1
146 589 1
146 590 1
146 630 1
146 636 1
146 651 1
146 652 1
146 657 1
146 676 1
146 677 1
146 678 1
146 699 1
146 700 1
146 724 1
146 726 1
146 747 1
146 748 1
147 388 1
147 411 1
147 412 1
147 413 1
147 414 1
147 429 1
147 432 1
147 440 1
147 504 1
147 509 1
147 510 1
147 512 1
147 535 1
147 558 1
147 575 1
147 576 1
147 588 1
147 591 1
147 592 1
147 632 1
147 638 1
147 653 1
147 654 1
147 659 1
147 678 1
147 679 1
147 680 1
147 701 1
147 702 1
147 726 1
147 728 1
147 749 1
147 750 1
148 390 1
148 413 1
148 414 1
148 415 1
148 416 1
148 431 1
148 434 1
148 442 1
148 481 1
148 482 1
148 506 1
148 511 1
148 512 1
148 514 1
148 537 1
148 560 1
148 590 1
148 593 1
148 594 1
148 634 1
148 640 1
148 655 1
148 656 1
148 661 1
148 680 1
148 681 1
148 682 1
148 703 1
148 704 1
148 728 1
148 730 1
148 751 1
148 752 1
149 392 1
149 415 1
149 416 1
149 417 1
149 418 1
149 433 1
149 436 1
149 444 1
149 483 1
149 484 1
149 508 1
149 513 1
149 514 1
149 516 1
149 539 1
149 562 1
149 592 1
149 595 1
149 596 1
149 636 1
149 642 1
149 657 1
149 658 1
149 663 1
149 682 1
149 683 1
149 684 1
149 705 1
149 706 1
149 730 1
149 732 1
149 753 1
149 754 1
150 394 1
150 417 1
150 418 1
150 419 1
150 420 1
150 435 1
150 438 1
150 446 1
150 485 1
150 486 1
150 510 1
150 515 1
150 516 1
150 518 1
150 541 1
150 564 1
150 594 1
150 597 1
150 598 1
150 638 1
150 644 1
150 659 1
150 660 1
150 665 1
150 684 1
150 685 1
150 686 1
150 707 1
150 708 1
150 732 1
150 734 1
150 755 1
150 756 1
151 396 1
151 419 1
151 420 1
151 421 1
151 422 1
151 437 1
151 440 1
151 448 1
151 487 1
151 488 1
151 512 1
151 517 1
151 518 1
151 520 1
151 543 1
151 566 1
151 596 1
151 599 1
151 600 1
151 640 1
151 646 1
151 661 1
151 662 1
151 667 1
151 686 1
151 687 1
151 688 1
151 709 1
151 710 1
151 734 1
151 736 1
151 757 1
151 758 1
152 398 1
152 421 1
152 422 1
152 423 1
152 424 1
152 439 1
152 442 1
152 450 1
152 489 1
152 490 1
152 514 1
152 519 1
152 520 1
152 522 1
152 545 1
152 568 1
152 598 1
152 601 1
152 602 1
152 642 1
152 648 1
152 663 1
152 664 1
152 669 1
152 688 1
152 689 1
152 690 1
152 711 1
152 712 1
152 736 1
152 738 1
152 759 1
152 760 1
153 400 1
153 423 1
153 424 1
153 425 1
153 426 1
153 441 1
153 444 1
153 452 1
153 491 1
153 492 1
153 516 1
153 521 1
153 522 1
153 524 1
153 547 1
153 570 1
153 600 1
153 603 1
153 604 1
153 644 1
153 650 1
153 665 1
153 666 1
153 671 1
153 690 1
153 691 1
153 692 1
153 713 1
153 714 1
153 738 1
153 740 1
153 761 1
153 762 1
154 402 1
154 425 1
154 426 1
154 427 1
154 428 1
154 443 1
154 446 1
154 454 1
154 493 1
154 494 1
154 518 1
154 523 1
154 524 1
154 526 1
154 549 1
154 572 1
154 577 1
154 602 1
154 605 1
154 606 1
154 646 1
154 652 1
154 667 1
154 668 1
154 692 1
154 693 1
154 694 1
154 715 1
154 716 1
154 740 1
154 742 1
154 763 1
154 764 1
155 404 1
155 427 1
155 428 1
155 429 1
155 430 1
155 445 1
155 448 1
155 456 1
155 495 1
155 496 1
155 520 1
155 525 1
155 526 1
155 528 1
155 551 1
155 574 1
155 579 1
155 604 1
155 607 1
155 608 1
155 648 1
155 654 1
155 669 1
155 670 1
155 694 1
155 695 1
155 696 1
155 717 1
155 718 1
155 742 1
155 744 1
155 765 1
155 766 1
156 406 1
156 429 1
156 430 1
156 431 1
156 432 1
156 447 1
156 450 1
156 458 1
156 497 1
156 498 1
156 522 1
156 527 1
156 528 1
156 530 1
156 553 1
156 576 1
156 581 1
156 606 1
156 609 1
156 610 1
156 650 1
156 656 1
156 671 1
156 672 1
156 696 1
156 697 1
156 698 1
156 719 1
156 720 1
156 744 1
156 746 1
156 767 1
156 768 1
157 408 1
157 431 1
157 432 1
157 433 1
157 434 1
157 449 1
157 452 1
157 460 1
157 482 1
157 499 1
157 500 1
157 524 1
157 529 1
157 530 1
157 532 1
157 555 1
157 577 1
157 578 1
157 583 1
157 608 1
157 611 1
157 612 1
157 652 1
157 658 1
157 673 1
157 674 1
157 698 1
157 699 1
157 700 1
157 721 1
157 722 1
157 746 1
157 748 1
158 410 1
158 433 1
158 434 1
158 435 1
158 436 1
158 451 1
158 454 1
158 462 1
158 484 1
158 501 1
158 502 1
158 526 1
158 531 1
158 532 1
158 534 1
158 557 1
158 579 1
158 580 1
158 585 1
158 610 1
158 613 1
158 614 1
158 654 1
158 660 1
158 675 1
158 676 1
158 700 1
158 701 1
158 702 1
158 723 1
158 724 1
158 748 1
158 750 1
159 412 1
159 435 1
159 436 1
159 437 1
159 438 1
159 453 1
159 456 1
159 464 1
159 486 1
159 503 1
159 504 1
159 528 1
159 533 1
159 534 1
159 536 1
159 559 1
159 581 1
159 582 1
159 587 1
159 612 1
159 615 1
159 616 1
159 656 1
159 662 1
159 677 1
159 678 1
159 702 1
159 703 1
159 704 1
159 725 1
159 726 1
159 750 1
159 752 1
160 414 1
160 437 1
160 438 1
160 439 1
160 440 1
160 455 1
160 458 1
160 466 1
160 488 1
160 505 1
160 506 1
160 530 1
160 535 1
160 536 1
160 538 1
160 561 1
160 583 1
160 584 1
160 589 1
160 614 1
160 617 1
160 618 1
160 658 1
160 664 1
160 679 1
160 680 1
160 704 1
160 705 1
160 706 1
160 727 1
160 728 1
160 752 1
160 754 1
161 416 1
161 439 1
161 440 1
161 441 1
161 442 1
161 457 1
161 460 1
161 468 1
161 490 1
161 507 1
161 508 1
161 532 1
161 537 1
161 538 1
161 540 1
161 563 1
161 585 1
161 586 1
161 591 1
161 616 1
161 619 1
161 620 1
161 660 1
161 666 1
161 681 1
161 682 1
161 706 1
161 707 1
161 708 1
161 729 1
161 730 1
161 754 1
161 756 1
162 418 1
162 441 1
162 442 1
162 443 1
162 444 1
162 459 1
162 462 1
162 470 1
162 492 1
162 509 1
162 510 1
162 534 1
162 539 1
162 540 1
162 542 1
162 565 1
162 587 1
162 588 1
162 593 1
162 618 1
162 621 1
162 622 1
162 662 1
162 668 1
162 683 1
162 684 1
162 708 1
162 709 1
162 710 1
162 731 1
162 732 1
162 756 1
162 758 1
163 420 1
163 443 1
163 444 1
163 445 1
163 446 1
163 461 1
163 464 1
163 472 1
163 494 1
163 511 1
163 512 1
163 536 1
163 541 1
163 542 1
163 544 1
163 567 1
163 589 1
163 590 1
163 595 1
163 620 1
163 623 1
163 624 1
163 664 1
163 670 1
163 685 1
163 686 1
163 710 1
163 711 1
163 712 1
163 733 1
163 734 1
163 758 1
163 760 1
164 422 1
164 445 1
164 446 1
164 447 1
164 448 1
164 463 1
164 466 1
164 474 1
164 496 1
164 513 1
164 514 1
164 538 1
164 543 1
164 544 1
164 546 1
164 569 1
164 591 1
164 592 1
164 597 1
164 622 1
164 625 1
164 626 1
164 666 1
164 672 1
164 687 1
164 688 1
164 712 1
164 713 1
164 714 1
164 735 1
164 736 1
164 760 1
164 762 1
165 424 1
165 447 1
165 448 1
165 449 1
165 450 1
165 465 1
165 468 1
165 476 1
165 498 1
165 515 1
165 516 1
165 540 1
165 545 1
165 546 1
165 548 1
165 571 1
165 578 1
165 593 1
165 594 1
165 599 1
165 624 1
165 627 1
165 628 1
165 668 1
165 689 1
165 690 1
165 714 1
165 715 1
165 716 1
165 737 1
165 738 1
165 762 1
165 764 1
166 426 1
166 449 1
166 450 1
166 451 1
166 452 1
166 467 1
166 470 1
166 478 1
166 500 1
166 517 1
166 518 1
166 542 1
166 547 1
166 548 1
166 550 1
166 573 1
166 580 1
166 595 1
166 596 1
166 601 1
166 626 1
166 629 1
166 630 1
166 670 1
166 691 1
166 692 1
166 716 1
166 717 1
166 718 1
166 739 1
166 740 1
166 764 1
166 766 1
167 428 1
167 451 1
167 452 1
167 453 1
167 454 1
167 469 1
167 472 1
167 480 1
167 502 1
167 519 1
167 520 1
167 544 1
167 549 1
167 550 1
167 552 1
167 575 1
167 582 1
167 597 1
167 598 1
167 603 1
167 628 1
167 631 1
167 632 1
167 672 1
167 693 1
167 694 1
167 718 1
167 719 1
167 720 1
167 741 1
167 742 1
167 766 1
167 768 1
168 386 1
168 430 1
168 453 1
168 454 1
168 455 1
168 456 1
168 471 1
168 474 1
168 481 1
168 504 1
168 521 1
168 522 1
168 546 1
168 551 1
168 552 1
168 554 1
168 578 1
168 584 1
168 599 1
168 600 1
168 605 1
168 630 1
168 633 1
168 634 1
168 674 1
168 695 1
168 696 1
168 720 1
168 721 1
168 722 1
168 743 1
168 744 1
168 768 1
169 388 1
169 432 1
169 455 1
169 456 1
169 457 1
169 458 1
169 473 1
169 476 1
169 483 1
169 506 1
169 523 1
169 524 1
169 548 1
169 553 1
169 554 1
169 556 1
169 580 1
169 586 1
169 601 1
169 602 1
169 607 1
169 632 1
169 635 1
169 636 1
169 674 1
169 676 1
169 697 1
169 698 1
169 722 1
169 723 1
169 724 1
169 745 1
169 746 1
170 390 1
170 434 1
170 457 1
170 458 1
170 459 1
170 460 1
170 475 1
170 478 1
170 485 1
170 508 1
170 525 1
170 526 1
170 550 1
170 555 1
170 556 1
170 558 1
170 582 1
170 588 1
170 603 1
170 604 1
170 609 1
170 634 1
170 637 1
170 638 1
170 676 1
170 678 1
170 699 1
170 700 1
170 724 1
170 725 1
170 726 1
170 747 1
170 748 1
171 392 1
171 436 1
171 459 1
171 460 1
171 461 1
171 462 1
171 477 1
171 480 1
171 487 1
171 510 1
171 527 1
171 528 1
171 552 1
171 557 1
171 558 1
171 560 1
171 584 1
171 590 1
171 605 1
171 606 1
171 611 1
171 636 1
171 639 1
171 640 1
171 678 1
171 680 1
171 701 1
171 702 1
171 726 1
171 727 1
171 728 1
171 749 1
171 750 1
172 386 1
172 394 1
172 438 1
172 461 1
172 462 1
172 463 1
172 464 1
172 479 1
172 489 1
172 512 1
172 529 1
172 530 1
172 554 1
172 559 1
172 560 1
172 562 1
172 586 1
172 592 1
172 607 1
172 608 1
172 613 1
172 638 1
172 641 1
172 642 1
172 680 1
172 682 1
172 703 1
172 704 1
172 728 1
172 729 1
172 730 1
172 751 1
172 752 1
173 385 1
173 388 1
173 396 1
173 440 1
173 463 1
173 464 1
173 465 1
173 466 1
173 491 1
173 514 1
173 531 1
173 532 1
173 556 1
173 561 1
173 562 1
173 564 1
173 588 1
173 594 1
173 609 1
173 610 1
173 615 1
173 640 1
173 643 1
173 644 1
173 682 1
173 684 1
173 705 1
173 706 1
173 730 1
173 731 1
173 732 1
173 753 1
173 754 1
174 387 1
174 390 1
174 398 1
174 442 1
174 465 1
174 466 1
174 467 1
174 468 1
174 493 1
174 516 1
174 533 1
174 534 1
174 558 1
174 563 1
174 564 1
174 566 1
174 590 1
174 596 1
174 611 1
174 612 1
174 617 1
174 642 1
174 645 1
174 646 1
174 684 1
174 686 1
174 707 1
174 708 1
174 732 1
174 733 1
174 734 1
174 755 1
174 756 1
175 389 1
175 392 1
175 400 1
175 444 1
175 467 1
175 468 1
175 469 1
175 470 1
175 495 1
175 518 1
175 535 1
175 536 1
175 560 1
175 565 1
175 566 1
175 568 1
175 592 1
175 598 1
175 613 1
175 614 1
175 619 1
175 644 1
175 647 1
175 648 1
175 686 1
175 688 1
175 709 1
175 710 1
175 734 1
175 735 1
175 736 1
175 757 1
175 758 1
176 391 1
176 394 1
176 402 1
176 446 1
176 469 1
176 470 1
176 471 1
176 472 1
176 497 1
176 520 1
176 537 1
176 538 1
176 562 1
176 567 1
176 568 1
176 570 1
176 594 1
176 600 1
176 615 1
176 616 1
176 621 1
176 646 1
176 649 1
176 650 1
176 688 1
176 690 1
176 711 1
176 712 1
176 736 1
176 737 1
176 738 1
176 759 1
176 760 1
177 393 1
177 396 1
177 404 1
177 448 1
177 471 1
177 472 1
177 473 1
177 474 1
177 499 1
177 522 1
177 539 1
177 540 1
177 564 1
177 569 1
177 570 1
177 572 1
177 596 1
177 602 1
177 617 1
177 618 1
177 623 1
177 648 1
177 651 1
177 652 1
177 690 1
177 692 1
177 713 1
177 714 1
177 738 1
177 739 1
177 740 1
177 761 1
177 762 1
178 395 1
178 398 1
178 406 1
178 450 1
178 473 1
178 474 1
178 475 1
178 476 1
178 501 1
178 524 1
178 541 1
178 542 1
178 566 1
178 571 1
178 572 1
178 574 1
178 598 1
178 604 1
178 619 1
178 620 1
178 625 1
178 650 1
178 653 1
178 654 1
178 692 1
178 694 1
178 715 1
178 716 1
178 740 1
178 741 1
178 742 1
178 763 1
178 764 1
179 397 1
179 400 1
179 408 1
179 452 1
179 475 1
179 476 1
179 477 1
179 478 1
179 503 1
179 526 1
179 543 1
179 544 1
179 568 1
179 573 1
179 574 1
179 576 1
179 600 1
179 606 1
179 621 1
179 622 1
179 627 1
179 652 1
179 655 1
179 656 1
179 694 1
179 696 1
179 717 1
179 718 1
179 742 1
179 743 1
179 744 1
179 765 1
179 766 1
180 399 1
180 402 1
180 410 1
180 454 1
180 477 1
180 478 1
180 479 1
180 480 1
180 482 1
180 505 1
180 528 1
180 545 1
180 546 1
180 570 1
180 575 1
180 576 1
180 602 1
180 608 1
180 623 1
180 624 1
180 629 1
180 654 1
180 657 1
180 658 1
180 696 1
180 698 1
180 719 1
180 720 1
180 744 1
180 745 1
180 746 1
180 767 1
180 768 1
181 385 1
181 386 1
181 401 1
181 404 1
181 412 1
181 456 1
181 479 1
181 480 1
181 481 1
181 482 1
181 484 1
181 507 1
181 530 1
181 547 1
181 548 1
181 572 1
181 604 1
181 610 1
181 625 1
181 626 1
181 631 1
181 656 1
181 659 1
181 660 1
181 673 1
181 674 1
181 698 1
181 700 1
181 721 1
181 722 1
181 746 1
181 747 1
181 748 1
182 385 1
182 386 1
182 387 1
182 388 1
182 403 1
182 406 1
182 414 1
182 458 1
182 483 1
182 484 1
182 486 1
182 509 1
182 532 1
182 549 1
182 550 1
182 574 1
182 606 1
182 612 1
182 627 1
182 628 1
182 633 1
182 658 1
182 661 1
182 662 1
182 675 1
182 676 1
182 700 1
182 702 1
182 723 1
182 724 1
182 748 1
182 749 1
182 750 1
183 387 1
183 388 1
183 389 1
183 390 1
183 405 1
183 408 1
183 416 1
183 460 1
183 485 1
183 486 1
183 488 1
183 511 1
183 534 1
183 551 1
183 552 1
183 576 1
183 608 1
183 614 1
183 629 1
183 630 1
183 635 1
183 660 1
183 663 1
183 664 1
183 677 1
183 678 1
183 702 1
183 704 1
183 725 1
183 726 1
183 750 1
183 751 1
183 752 1
184 389 1
184 390 1
184 391 1
184 392 1
184 407 1
184 410 1
184 418 1
184 462 1
184 482 1
184 487 1
184 488 1
184 490 1
184 513 1
184 536 1
184 553 1
184 554 1
184 610 1
184 616 1
184 631 1
184 632 1
184 637 1
184 662 1
184 665 1
184 666 1
184 679 1
184 680 1
184 704 1
184 706 1
184 727 1
184 728 1
184 752 1
184 753 1
184 754 1
185 391 1
185 392 1
185 393 1
185 394 1
185 409 1
185 412 1
185 420 1
185 464 1
185 484 1
185 489 1
185 490 1
185 492 1
185 515 1
185 538 1
185 555 1
185 556 1
185 612 1
185 618 1
185 633 1
185 634 1
185 639 1
185 664 1
185 667 1
185 668 1
185 681 1
185 682 1
185 706 1
185 708 1
185 729 1
185 730 1
185 754 1
185 755 1
185 756 1
186 393 1
186 394 1
186 395 1
186 396 1
186 411 1
186 414 1
186 422 1
186 466 1
186 486 1
186 491 1
186 492 1
186 494 1
186 517 1
186 540 1
186 557 1
186 558 1
186 614 1
186 620 1
186 635 1
186 636 1
186 641 1
186 666 1
186 669 1
186 670 1
186 683 1
186 684 1
186 708 1
186 710 1
186 731 1
186 732 1
186 756 1
186 757 1
186 758 1
187 395 1
187 396 1
187 397 1
187 398 1
187 413 1
187 416 1
187 424 1
187 468 1
187 488 1
187 493 1
187 494 1
187 496 1
187 519 1
187 542 1
187 559 1
187 560 1
187 616 1
187 622 1
187 637 1
187 638 1
187 643 1
187 668 1
187 671 1
187 672 1
187 685 1
187 686 1
187 710 1
187 712 1
187 733 1
187 734 1
187 758 1
187 759 1
187 760 1
188 397 1
188 398 1
188 399 1
188 400 1
188 415 1
188 418 1
188 426 1
188 470 1
188 490 1
188 495 1
188 496 1
188 498 1
188 521 1
188 544 1
188 561 1
188 562 1
188 577 1
188 578 1
188 618 1
188 624 1
188 639 1
188 640 1
188 645 1
188 670 1
188 687 1
188 688 1
188 712 1
188 714 1
188 735 1
188 736 1
188 760 1
188 761 1
188 762 1
189 399 1
189 400 1
189 401 1
189 402 1
189 417 1
189 420 1
189 428 1
189 472 1
189 492 1
189 497 1
189 498 1
189 500 1
189 523 1
189 546 1
189 563 1
189 564 1
189 579 1
189 580 1
189 620 1
189 626 1
189 641 1
189 642 1
189 647 1
189 672 1
189 689 1
189 690 1
189 714 1
189 716 1
189 737 1
189 738 1
189 762 1
189 763 1
189 764 1
190 401 1
190 402 1
190 403 1
190 404 1
190 419 1
190 422 1
190 430 1
190 474 1
190 494 1
190 499 1
190 500 1
190 502 1
190 525 1
190 548 1
190 565 1
190 566 1
190 578 1
190 581 1
190 582 1
190 622 1
190 628 1
190 643 1
190 644 1
190 649 1
190 691 1
190 692 1
190 716 1
190 718 1
190 739 1
190 740 1
190 764 1
190 765 1
190 766 1
191 403 1
191 404 1
191 405 1
191 406 1
191 421 1
191 424 1
191 432 1
191 476 1
191 496 1
191 501 1
191 502 1
191 504 1
191 527 1
191 550 1
191 567 1
191 568 1
191 580 1
191 583 1
191 584 1
191 624 1
191 630 1
191 645 1
191 646 1
191 651 1
191 693 1
191 694 1
191 718 1
191 720 1
191 741 1
191 742 1
191 766 1
191 767 1
191 768 1
192 405 1
192 406 1
192 407 1
192 408 1
192 423 1
192 426 1
192 434 1
192 478 1
192 498 1
192 503 1
192 504 1
192 506 1
192 529 1
192 552 1
192 569 1
192 570 1
192 582 1
192 585 1
192 586 1
192 626 1
192 632 1
192 647 1
192 648 1
192 653 1
192 673 1
192 674 1
192 695 1
192 696 1
192 720 1
192 722 1
192 743 1
192 744 1
192 768 1
