%%MatrixMarket matrix coordinate integer general
% GF(4) labels 0,1,2=omega,3=omega+1; arithmetic is NOT integer arithmetic.
% Coordinate indices are 1-based; omitted entries are zero.
96 384 2160
1 145 3
1 146 1
1 157 1
1 169 3
1 170 3
1 181 1
1 193 1
1 204 1
1 206 3
1 228 2
1 229 3
1 240 3
1 242 3
1 254 2
1 265 3
1 277 3
1 292 2
1 305 3
1 328 2
1 329 3
1 330 1
2 146 3
2 147 1
2 158 1
2 170 3
2 171 3
2 182 1
2 193 3
2 194 1
2 205 1
2 207 3
2 229 2
2 230 3
2 243 3
2 255 2
2 266 3
2 278 3
2 293 2
2 306 3
2 329 2
2 330 3
2 331 1
3 147 3
3 148 1
3 159 1
3 171 3
3 172 3
3 183 1
3 194 3
3 195 1
3 206 1
3 208 3
3 230 2
3 231 3
3 244 3
3 256 2
3 267 3
3 279 3
3 294 2
3 307 3
3 330 2
3 331 3
3 332 1
4 148 3
4 149 1
4 160 1
4 172 3
4 173 3
4 184 1
4 195 3
4 196 1
4 207 1
4 209 3
4 231 2
4 232 3
4 245 3
4 257 2
4 268 3
4 280 3
4 295 2
4 308 3
4 331 2
4 332 3
4 333 1
5 149 3
5 150 1
5 161 1
5 173 3
5 174 3
5 185 1
5 196 3
5 197 1
5 208 1
5 210 3
5 232 2
5 233 3
5 246 3
5 258 2
5 269 3
5 281 3
5 296 2
5 309 3
5 332 2
5 333 3
5 334 1
6 150 3
6 151 1
6 162 1
6 174 3
6 175 3
6 186 1
6 197 3
6 198 1
6 209 1
6 211 3
6 233 2
6 234 3
6 247 3
6 259 2
6 270 3
6 282 3
6 297 2
6 310 3
6 333 2
6 334 3
6 335 1
7 151 3
7 152 1
7 163 1
7 175 3
7 176 3
7 187 1
7 198 3
7 199 1
7 210 1
7 212 3
7 234 2
7 235 3
7 248 3
7 260 2
7 271 3
7 283 3
7 298 2
7 311 3
7 334 2
7 335 3
7 336 1
8 152 3
8 153 1
8 164 1
8 176 3
8 177 3
8 188 1
8 199 3
8 200 1
8 211 1
8 213 3
8 235 2
8 236 3
8 249 3
8 261 2
8 272 3
8 284 3
8 289 1
8 299 2
8 312 3
8 335 2
8 336 3
9 153 3
9 154 1
9 165 1
9 177 3
9 178 3
9 189 1
9 200 3
9 201 1
9 212 1
9 214 3
9 236 2
9 237 3
9 250 3
9 262 2
9 273 3
9 285 3
9 289 3
9 290 1
9 300 2
9 313 3
9 336 2
10 154 3
10 155 1
10 166 1
10 178 3
10 179 3
10 190 1
10 201 3
10 202 1
10 213 1
10 215 3
10 237 2
10 238 3
10 251 3
10 263 2
10 274 3
10 286 3
10 289 2
10 290 3
10 291 1
10 301 2
10 314 3
11 155 3
11 156 1
11 167 1
11 179 3
11 180 3
11 191 1
11 202 3
11 203 1
11 214 1
11 216 3
11 238 2
11 239 3
11 252 3
11 264 2
11 275 3
11 287 3
11 290 2
11 291 3
11 292 1
11 302 2
11 315 3
12 156 3
12 157 1
12 168 1
12 180 3
12 181 3
12 192 1
12 203 3
12 204 1
12 215 1
12 217 3
12 239 2
12 240 3
12 253 3
12 265 2
12 276 3
12 288 3
12 291 2
12 292 3
12 293 1
12 303 2
12 316 3
13 145 1
13 157 3
13 158 1
13 169 1
13 181 3
13 182 3
13 193 3
13 204 3
13 205 1
13 216 1
13 218 3
13 240 2
13 241 3
13 254 3
13 266 2
13 277 3
13 292 2
13 293 3
13 294 1
13 304 2
13 317 3
14 146 1
14 158 3
14 159 1
14 170 1
14 182 3
14 183 3
14 193 2
14 194 3
14 205 3
14 206 1
14 217 1
14 219 3
14 242 3
14 255 3
14 267 2
14 278 3
14 293 2
14 294 3
14 295 1
14 305 2
14 318 3
15 147 1
15 159 3
15 160 1
15 171 1
15 183 3
15 184 3
15 194 2
15 195 3
15 206 3
15 207 1
15 218 1
15 220 3
15 243 3
15 256 3
15 268 2
15 279 3
15 294 2
15 295 3
15 296 1
15 306 2
15 319 3
16 148 1
16 160 3
16 161 1
16 172 1
16 184 3
16 185 3
16 195 2
16 196 3
16 207 3
16 208 1
16 219 1
16 221 3
16 244 3
16 257 3
16 269 2
16 280 3
16 295 2
16 296 3
16 297 1
16 307 2
16 320 3
17 149 1
17 161 3
17 162 1
17 173 1
17 185 3
17 186 3
17 196 2
17 197 3
17 208 3
17 209 1
17 220 1
17 222 3
17 245 3
17 258 3
17 270 2
17 281 3
17 296 2
17 297 3
17 298 1
17 308 2
17 321 3
18 150 1
18 162 3
18 163 1
18 174 1
18 186 3
18 187 3
18 197 2
18 198 3
18 209 3
18 210 1
18 221 1
18 223 3
18 246 3
18 259 3
18 271 2
18 282 3
18 297 2
18 298 3
18 299 1
18 309 2
18 322 3
19 151 1
19 163 3
19 164 1
19 175 1
19 187 3
19 188 3
19 198 2
19 199 3
19 210 3
19 211 1
19 222 1
19 224 3
19 247 3
19 260 3
19 272 2
19 283 3
19 298 2
19 299 3
19 300 1
19 310 2
19 323 3
20 152 1
20 164 3
20 165 1
20 176 1
20 188 3
20 189 3
20 199 2
20 200 3
20 211 3
20 212 1
20 223 1
20 225 3
20 248 3
20 261 3
20 273 2
20 284 3
20 299 2
20 300 3
20 301 1
20 311 2
20 324 3
21 153 1
21 165 3
21 166 1
21 177 1
21 189 3
21 190 3
21 200 2
21 201 3
21 212 3
21 213 1
21 224 1
21 226 3
21 249 3
21 262 3
21 274 2
21 285 3
21 300 2
21 301 3
21 302 1
21 312 2
21 325 3
22 154 1
22 166 3
22 167 1
22 178 1
22 190 3
22 191 3
22 201 2
22 202 3
22 213 3
22 214 1
22 225 1
22 227 3
22 250 3
22 263 3
22 275 2
22 286 3
22 301 2
22 302 3
22 303 1
22 313 2
22 326 3
23 155 1
23 167 3
23 168 1
23 179 1
23 191 3
23 192 3
23 202 2
23 203 3
23 214 3
23 215 1
23 226 1
23 228 3
23 251 3
23 264 3
23 276 2
23 287 3
23 302 2
23 303 3
23 304 1
23 314 2
23 327 3
24 145 3
24 156 1
24 168 3
24 169 1
24 180 1
24 192 3
24 203 2
24 204 3
24 215 3
24 216 1
24 227 1
24 229 3
24 252 3
24 265 3
24 277 2
24 288 3
24 303 2
24 304 3
24 305 1
24 315 2
24 328 3
25 145 3
25 146 3
25 157 1
25 169 3
25 170 1
25 181 1
25 204 2
25 205 3
25 216 3
25 217 1
25 228 1
25 230 3
25 241 3
25 253 3
25 266 3
25 278 2
25 304 2
25 305 3
25 306 1
25 316 2
25 329 3
26 146 3
26 147 3
26 158 1
26 170 3
26 171 1
26 182 1
26 205 2
26 206 3
26 217 3
26 218 1
26 229 1
26 231 3
26 242 3
26 254 3
26 267 3
26 279 2
26 305 2
26 306 3
26 307 1
26 317 2
26 330 3
27 147 3
27 148 3
27 159 1
27 171 3
27 172 1
27 183 1
27 206 2
27 207 3
27 218 3
27 219 1
27 230 1
27 232 3
27 243 3
27 255 3
27 268 3
27 280 2
27 306 2
27 307 3
27 308 1
27 318 2
27 331 3
28 148 3
28 149 3
28 160 1
28 172 3
28 173 1
28 184 1
28 207 2
28 208 3
28 219 3
28 220 1
28 231 1
28 233 3
28 244 3
28 256 3
28 269 3
28 281 2
28 307 2
28 308 3
28 309 1
28 319 2
28 332 3
29 149 3
29 150 3
29 161 1
29 173 3
29 174 1
29 185 1
29 208 2
29 209 3
29 220 3
29 221 1
29 232 1
29 234 3
29 245 3
29 257 3
29 270 3
29 282 2
29 308 2
29 309 3
29 310 1
29 320 2
29 333 3
30 150 3
30 151 3
30 162 1
30 174 3
30 175 1
30 186 1
30 209 2
30 210 3
30 221 3
30 222 1
30 233 1
30 235 3
30 246 3
30 258 3
30 271 3
30 283 2
30 309 2
30 310 3
30 311 1
30 321 2
30 334 3
31 151 3
31 152 3
31 163 1
31 175 3
31 176 1
31 187 1
31 210 2
31 211 3
31 222 3
31 223 1
31 234 1
31 236 3
31 247 3
31 259 3
31 272 3
31 284 2
31 310 2
31 311 3
31 312 1
31 322 2
31 335 3
32 152 3
32 153 3
32 164 1
32 176 3
32 177 1
32 188 1
32 211 2
32 212 3
32 223 3
32 224 1
32 235 1
32 237 3
32 248 3
32 260 3
32 273 3
32 285 2
32 311 2
32 312 3
32 313 1
32 323 2
32 336 3
33 153 3
33 154 3
33 165 1
33 177 3
33 178 1
33 189 1
33 212 2
33 213 3
33 224 3
33 225 1
33 236 1
33 238 3
33 249 3
33 261 3
33 274 3
33 286 2
33 289 3
33 312 2
33 313 3
33 314 1
33 324 2
34 154 3
34 155 3
34 166 1
34 178 3
34 179 1
34 190 1
34 213 2
34 214 3
34 225 3
34 226 1
34 237 1
34 239 3
34 250 3
34 262 3
34 275 3
34 287 2
34 290 3
34 313 2
34 314 3
34 315 1
34 325 2
35 155 3
35 156 3
35 167 1
35 179 3
35 180 1
35 191 1
35 214 2
35 215 3
35 226 3
35 227 1
35 238 1
35 240 3
35 251 3
35 263 3
35 276 3
35 288 2
35 291 3
35 314 2
35 315 3
35 316 1
35 326 2
36 156 3
36 157 3
36 168 1
36 180 3
36 181 1
36 192 1
36 193 3
36 215 2
36 216 3
36 227 3
36 228 1
36 239 1
36 241 2
36 252 3
36 264 3
36 277 3
36 292 3
36 315 2
36 316 3
36 317 1
36 327 2
37 145 1
37 157 3
37 158 3
37 169 1
37 181 3
37 182 1
37 194 3
37 216 2
37 217 3
37 228 3
37 229 1
37 240 1
37 242 2
37 253 3
37 265 3
37 278 3
37 293 3
37 316 2
37 317 3
37 318 1
37 328 2
38 146 1
38 158 3
38 159 3
38 170 1
38 182 3
38 183 1
38 193 1
38 195 3
38 217 2
38 218 3
38 229 3
38 230 1
38 243 2
38 254 3
38 266 3
38 279 3
38 294 3
38 317 2
38 318 3
38 319 1
38 329 2
39 147 1
39 159 3
39 160 3
39 171 1
39 183 3
39 184 1
39 194 1
39 196 3
39 218 2
39 219 3
39 230 3
39 231 1
39 244 2
39 255 3
39 267 3
39 280 3
39 295 3
39 318 2
39 319 3
39 320 1
39 330 2
40 148 1
40 160 3
40 161 3
40 172 1
40 184 3
40 185 1
40 195 1
40 197 3
40 219 2
40 220 3
40 231 3
40 232 1
40 245 2
40 256 3
40 268 3
40 281 3
40 296 3
40 319 2
40 320 3
40 321 1
40 331 2
41 149 1
41 161 3
41 162 3
41 173 1
41 185 3
41 186 1
41 196 1
41 198 3
41 220 2
41 221 3
41 232 3
41 233 1
41 246 2
41 257 3
41 269 3
41 282 3
41 297 3
41 320 2
41 321 3
41 322 1
41 332 2
42 150 1
42 162 3
42 163 3
42 174 1
42 186 3
42 187 1
42 197 1
42 199 3
42 221 2
42 222 3
42 233 3
42 234 1
42 247 2
42 258 3
42 270 3
42 283 3
42 298 3
42 321 2
42 322 3
42 323 1
42 333 2
43 151 1
43 163 3
43 164 3
43 175 1
43 187 3
43 188 1
43 198 1
43 200 3
43 222 2
43 223 3
43 234 3
43 235 1
43 248 2
43 259 3
43 271 3
43 284 3
43 299 3
43 322 2
43 323 3
43 324 1
43 334 2
44 152 1
44 164 3
44 165 3
44 176 1
44 188 3
44 189 1
44 199 1
44 201 3
44 223 2
44 224 3
44 235 3
44 236 1
44 249 2
44 260 3
44 272 3
44 285 3
44 300 3
44 323 2
44 324 3
44 325 1
44 335 2
45 153 1
45 165 3
45 166 3
45 177 1
45 189 3
45 190 1
45 200 1
45 202 3
45 224 2
45 225 3
45 236 3
45 237 1
45 250 2
45 261 3
45 273 3
45 286 3
45 301 3
45 324 2
45 325 3
45 326 1
45 336 2
46 154 1
46 166 3
46 167 3
46 178 1
46 190 3
46 191 1
46 201 1
46 203 3
46 225 2
46 226 3
46 237 3
46 238 1
46 251 2
46 262 3
46 274 3
46 287 3
46 289 2
46 302 3
46 325 2
46 326 3
46 327 1
47 155 1
47 167 3
47 168 3
47 179 1
47 191 3
47 192 1
47 202 1
47 204 3
47 226 2
47 227 3
47 238 3
47 239 1
47 252 2
47 263 3
47 275 3
47 288 3
47 290 2
47 303 3
47 326 2
47 327 3
47 328 1
48 145 1
48 156 1
48 168 3
48 169 3
48 180 1
48 192 3
48 203 1
48 205 3
48 227 2
48 228 3
48 239 3
48 240 1
48 241 3
48 253 2
48 264 3
48 276 3
48 291 2
48 304 3
48 327 2
48 328 3
48 329 1
49 204 2
49 205 2
49 213 3
49 214 1
49 218 1
49 240 1
49 250 1
49 253 2
49 254 1
49 266 3
49 277 1
49 286 2
49 292 1
49 294 2
49 314 1
49 317 1
49 325 2
49 328 3
49 337 1
49 338 2
49 349 2
49 361 1
49 362 1
49 373 2
50 193 1
50 205 2
50 206 2
50 214 3
50 215 1
50 219 1
50 251 1
50 254 2
50 255 1
50 267 3
50 278 1
50 287 2
50 293 1
50 295 2
50 315 1
50 318 1
50 326 2
50 329 3
50 338 1
50 339 2
50 350 2
50 362 1
50 363 1
50 374 2
51 194 1
51 206 2
51 207 2
51 215 3
51 216 1
51 220 1
51 252 1
51 255 2
51 256 1
51 268 3
51 279 1
51 288 2
51 294 1
51 296 2
51 316 1
51 319 1
51 327 2
51 330 3
51 339 1
51 340 2
51 351 2
51 363 1
51 364 1
51 375 2
52 195 1
52 207 2
52 208 2
52 216 3
52 217 1
52 221 1
52 241 2
52 253 1
52 256 2
52 257 1
52 269 3
52 280 1
52 295 1
52 297 2
52 317 1
52 320 1
52 328 2
52 331 3
52 340 1
52 341 2
52 352 2
52 364 1
52 365 1
52 376 2
53 196 1
53 208 2
53 209 2
53 217 3
53 218 1
53 222 1
53 242 2
53 254 1
53 257 2
53 258 1
53 270 3
53 281 1
53 296 1
53 298 2
53 318 1
53 321 1
53 329 2
53 332 3
53 341 1
53 342 2
53 353 2
53 365 1
53 366 1
53 377 2
54 197 1
54 209 2
54 210 2
54 218 3
54 219 1
54 223 1
54 243 2
54 255 1
54 258 2
54 259 1
54 271 3
54 282 1
54 297 1
54 299 2
54 319 1
54 322 1
54 330 2
54 333 3
54 342 1
54 343 2
54 354 2
54 366 1
54 367 1
54 378 2
55 198 1
55 210 2
55 211 2
55 219 3
55 220 1
55 224 1
55 244 2
55 256 1
55 259 2
55 260 1
55 272 3
55 283 1
55 298 1
55 300 2
55 320 1
55 323 1
55 331 2
55 334 3
55 343 1
55 344 2
55 355 2
55 367 1
55 368 1
55 379 2
56 199 1
56 211 2
56 212 2
56 220 3
56 221 1
56 225 1
56 245 2
56 257 1
56 260 2
56 261 1
56 273 3
56 284 1
56 299 1
56 301 2
56 321 1
56 324 1
56 332 2
56 335 3
56 344 1
56 345 2
56 356 2
56 368 1
56 369 1
56 380 2
57 200 1
57 212 2
57 213 2
57 221 3
57 222 1
57 226 1
57 246 2
57 258 1
57 261 2
57 262 1
57 274 3
57 285 1
57 300 1
57 302 2
57 322 1
57 325 1
57 333 2
57 336 3
57 345 1
57 346 2
57 357 2
57 369 1
57 370 1
57 381 2
58 201 1
58 213 2
58 214 2
58 222 3
58 223 1
58 227 1
58 247 2
58 259 1
58 262 2
58 263 1
58 275 3
58 286 1
58 289 3
58 301 1
58 303 2
58 323 1
58 326 1
58 334 2
58 346 1
58 347 2
58 358 2
58 370 1
58 371 1
58 382 2
59 202 1
59 214 2
59 215 2
59 223 3
59 224 1
59 228 1
59 248 2
59 260 1
59 263 2
59 264 1
59 276 3
59 287 1
59 290 3
59 302 1
59 304 2
59 324 1
59 327 1
59 335 2
59 347 1
59 348 2
59 359 2
59 371 1
59 372 1
59 383 2
60 203 1
60 215 2
60 216 2
60 224 3
60 225 1
60 229 1
60 249 2
60 261 1
60 264 2
60 265 1
60 277 3
60 288 1
60 291 3
60 303 1
60 305 2
60 325 1
60 328 1
60 336 2
60 348 1
60 349 2
60 360 2
60 372 1
60 373 1
60 384 2
61 204 1
61 216 2
61 217 2
61 225 3
61 226 1
61 230 1
61 241 1
61 250 2
61 262 1
61 265 2
61 266 1
61 278 3
61 289 2
61 292 3
61 304 1
61 306 2
61 326 1
61 329 1
61 337 2
61 349 1
61 350 2
61 361 2
61 373 1
61 374 1
62 205 1
62 217 2
62 218 2
62 226 3
62 227 1
62 231 1
62 242 1
62 251 2
62 263 1
62 266 2
62 267 1
62 279 3
62 290 2
62 293 3
62 305 1
62 307 2
62 327 1
62 330 1
62 338 2
62 350 1
62 351 2
62 362 2
62 374 1
62 375 1
63 206 1
63 218 2
63 219 2
63 227 3
63 228 1
63 232 1
63 243 1
63 252 2
63 264 1
63 267 2
63 268 1
63 280 3
63 291 2
63 294 3
63 306 1
63 308 2
63 328 1
63 331 1
63 339 2
63 351 1
63 352 2
63 363 2
63 375 1
63 376 1
64 207 1
64 219 2
64 220 2
64 228 3
64 229 1
64 233 1
64 244 1
64 253 2
64 265 1
64 268 2
64 269 1
64 281 3
64 292 2
64 295 3
64 307 1
64 309 2
64 329 1
64 332 1
64 340 2
64 352 1
64 353 2
64 364 2
64 376 1
64 377 1
65 208 1
65 220 2
65 221 2
65 229 3
65 230 1
65 234 1
65 245 1
65 254 2
65 266 1
65 269 2
65 270 1
65 282 3
65 293 2
65 296 3
65 308 1
65 310 2
65 330 1
65 333 1
65 341 2
65 353 1
65 354 2
65 365 2
65 377 1
65 378 1
66 209 1
66 221 2
66 222 2
66 230 3
66 231 1
66 235 1
66 246 1
66 255 2
66 267 1
66 270 2
66 271 1
66 283 3
66 294 2
66 297 3
66 309 1
66 311 2
66 331 1
66 334 1
66 342 2
66 354 1
66 355 2
66 366 2
66 378 1
66 379 1
67 210 1
67 222 2
67 223 2
67 231 3
67 232 1
67 236 1
67 247 1
67 256 2
67 268 1
67 271 2
67 272 1
67 284 3
67 295 2
67 298 3
67 310 1
67 312 2
67 332 1
67 335 1
67 343 2
67 355 1
67 356 2
67 367 2
67 379 1
67 380 1
68 211 1
68 223 2
68 224 2
68 232 3
68 233 1
68 237 1
68 248 1
68 257 2
68 269 1
68 272 2
68 273 1
68 285 3
68 296 2
68 299 3
68 311 1
68 313 2
68 333 1
68 336 1
68 344 2
68 356 1
68 357 2
68 368 2
68 380 1
68 381 1
69 212 1
69 224 2
69 225 2
69 233 3
69 234 1
69 238 1
69 249 1
69 258 2
69 270 1
69 273 2
69 274 1
69 286 3
69 289 1
69 297 2
69 300 3
69 312 1
69 314 2
69 334 1
69 345 2
69 357 1
69 358 2
69 369 2
69 381 1
69 382 1
70 213 1
70 225 2
70 226 2
70 234 3
70 235 1
70 239 1
70 250 1
70 259 2
70 271 1
70 274 2
70 275 1
70 287 3
70 290 1
70 298 2
70 301 3
70 313 1
70 315 2
70 335 1
70 346 2
70 358 1
70 359 2
70 370 2
70 382 1
70 383 1
71 214 1
71 226 2
71 227 2
71 235 3
71 236 1
71 240 1
71 251 1
71 260 2
71 272 1
71 275 2
71 276 1
71 288 3
71 291 1
71 299 2
71 302 3
71 314 1
71 316 2
71 336 1
71 347 2
71 359 1
71 360 2
71 371 2
71 383 1
71 384 1
72 193 1
72 215 1
72 227 2
72 228 2
72 236 3
72 237 1
72 241 3
72 252 1
72 261 2
72 273 1
72 276 2
72 277 1
72 289 1
72 292 1
72 300 2
72 303 3
72 315 1
72 317 2
72 337 1
72 348 2
72 360 1
72 361 2
72 372 2
72 384 1
73 194 1
73 216 1
73 228 2
73 229 2
73 237 3
73 238 1
73 242 3
73 253 1
73 262 2
73 274 1
73 277 2
73 278 1
73 290 1
73 293 1
73 301 2
73 304 3
73 316 1
73 318 2
73 337 1
73 338 1
73 349 2
73 361 1
73 362 2
73 373 2
74 195 1
74 217 1
74 229 2
74 230 2
74 238 3
74 239 1
74 243 3
74 254 1
74 263 2
74 275 1
74 278 2
74 279 1
74 291 1
74 294 1
74 302 2
74 305 3
74 317 1
74 319 2
74 338 1
74 339 1
74 350 2
74 362 1
74 363 2
74 374 2
75 196 1
75 218 1
75 230 2
75 231 2
75 239 3
75 240 1
75 244 3
75 255 1
75 264 2
75 276 1
75 279 2
75 280 1
75 292 1
75 295 1
75 303 2
75 306 3
75 318 1
75 320 2
75 339 1
75 340 1
75 351 2
75 363 1
75 364 2
75 375 2
76 193 1
76 197 1
76 219 1
76 231 2
76 232 2
76 240 3
76 245 3
76 256 1
76 265 2
76 277 1
76 280 2
76 281 1
76 293 1
76 296 1
76 304 2
76 307 3
76 319 1
76 321 2
76 340 1
76 341 1
76 352 2
76 364 1
76 365 2
76 376 2
77 193 3
77 194 1
77 198 1
77 220 1
77 232 2
77 233 2
77 246 3
77 257 1
77 266 2
77 278 1
77 281 2
77 282 1
77 294 1
77 297 1
77 305 2
77 308 3
77 320 1
77 322 2
77 341 1
77 342 1
77 353 2
77 365 1
77 366 2
77 377 2
78 194 3
78 195 1
78 199 1
78 221 1
78 233 2
78 234 2
78 247 3
78 258 1
78 267 2
78 279 1
78 282 2
78 283 1
78 295 1
78 298 1
78 306 2
78 309 3
78 321 1
78 323 2
78 342 1
78 343 1
78 354 2
78 366 1
78 367 2
78 378 2
79 195 3
79 196 1
79 200 1
79 222 1
79 234 2
79 235 2
79 248 3
79 259 1
79 268 2
79 280 1
79 283 2
79 284 1
79 296 1
79 299 1
79 307 2
79 310 3
79 322 1
79 324 2
79 343 1
79 344 1
79 355 2
79 367 1
79 368 2
79 379 2
80 196 3
80 197 1
80 201 1
80 223 1
80 235 2
80 236 2
80 249 3
80 260 1
80 269 2
80 281 1
80 284 2
80 285 1
80 297 1
80 300 1
80 308 2
80 311 3
80 323 1
80 325 2
80 344 1
80 345 1
80 356 2
80 368 1
80 369 2
80 380 2
81 197 3
81 198 1
81 202 1
81 224 1
81 236 2
81 237 2
81 250 3
81 261 1
81 270 2
81 282 1
81 285 2
81 286 1
81 298 1
81 301 1
81 309 2
81 312 3
81 324 1
81 326 2
81 345 1
81 346 1
81 357 2
81 369 1
81 370 2
81 381 2
82 198 3
82 199 1
82 203 1
82 225 1
82 237 2
82 238 2
82 251 3
82 262 1
82 271 2
82 283 1
82 286 2
82 287 1
82 299 1
82 302 1
82 310 2
82 313 3
82 325 1
82 327 2
82 346 1
82 347 1
82 358 2
82 370 1
82 371 2
82 382 2
83 199 3
83 200 1
83 204 1
83 226 1
83 238 2
83 239 2
83 252 3
83 263 1
83 272 2
83 284 1
83 287 2
83 288 1
83 300 1
83 303 1
83 311 2
83 314 3
83 326 1
83 328 2
83 347 1
83 348 1
83 359 2
83 371 1
83 372 2
83 383 2
84 200 3
84 201 1
84 205 1
84 227 1
84 239 2
84 240 2
84 241 1
84 253 3
84 264 1
84 273 2
84 285 1
84 288 2
84 301 1
84 304 1
84 312 2
84 315 3
84 327 1
84 329 2
84 348 1
84 349 1
84 360 2
84 372 1
84 373 2
84 384 2
85 193 2
85 201 3
85 202 1
85 206 1
85 228 1
85 240 2
85 241 2
85 242 1
85 254 3
85 265 1
85 274 2
85 286 1
85 302 1
85 305 1
85 313 2
85 316 3
85 328 1
85 330 2
85 337 2
85 349 1
85 350 1
85 361 2
85 373 1
85 374 2
86 193 2
86 194 2
86 202 3
86 203 1
86 207 1
86 229 1
86 242 2
86 243 1
86 255 3
86 266 1
86 275 2
86 287 1
86 303 1
86 306 1
86 314 2
86 317 3
86 329 1
86 331 2
86 338 2
86 350 1
86 351 1
86 362 2
86 374 1
86 375 2
87 194 2
87 195 2
87 203 3
87 204 1
87 208 1
87 230 1
87 243 2
87 244 1
87 256 3
87 267 1
87 276 2
87 288 1
87 304 1
87 307 1
87 315 2
87 318 3
87 330 1
87 332 2
87 339 2
87 351 1
87 352 1
87 363 2
87 375 1
87 376 2
88 195 2
88 196 2
88 204 3
88 205 1
88 209 1
88 231 1
88 241 1
88 244 2
88 245 1
88 257 3
88 268 1
88 277 2
88 305 1
88 308 1
88 316 2
88 319 3
88 331 1
88 333 2
88 340 2
88 352 1
88 353 1
88 364 2
88 376 1
88 377 2
89 196 2
89 197 2
89 205 3
89 206 1
89 210 1
89 232 1
89 242 1
89 245 2
89 246 1
89 258 3
89 269 1
89 278 2
89 306 1
89 309 1
89 317 2
89 320 3
89 332 1
89 334 2
89 341 2
89 353 1
89 354 1
89 365 2
89 377 1
89 378 2
90 197 2
90 198 2
90 206 3
90 207 1
90 211 1
90 233 1
90 243 1
90 246 2
90 247 1
90 259 3
90 270 1
90 279 2
90 307 1
90 310 1
90 318 2
90 321 3
90 333 1
90 335 2
90 342 2
90 354 1
90 355 1
90 366 2
90 378 1
90 379 2
91 198 2
91 199 2
91 207 3
91 208 1
91 212 1
91 234 1
91 244 1
91 247 2
91 248 1
91 260 3
91 271 1
91 280 2
91 308 1
91 311 1
91 319 2
91 322 3
91 334 1
91 336 2
91 343 2
91 355 1
91 356 1
91 367 2
91 379 1
91 380 2
92 199 2
92 200 2
92 208 3
92 209 1
92 213 1
92 235 1
92 245 1
92 248 2
92 249 1
92 261 3
92 272 1
92 281 2
92 289 2
92 309 1
92 312 1
92 320 2
92 323 3
92 335 1
92 344 2
92 356 1
92 357 1
92 368 2
92 380 1
92 381 2
93 200 2
93 201 2
93 209 3
93 210 1
93 214 1
93 236 1
93 246 1
93 249 2
93 250 1
93 262 3
93 273 1
93 282 2
93 290 2
93 310 1
93 313 1
93 321 2
93 324 3
93 336 1
93 345 2
93 357 1
93 358 1
93 369 2
93 381 1
93 382 2
94 201 2
94 202 2
94 210 3
94 211 1
94 215 1
94 237 1
94 247 1
94 250 2
94 251 1
94 263 3
94 274 1
94 283 2
94 289 1
94 291 2
94 311 1
94 314 1
94 322 2
94 325 3
94 346 2
94 358 1
94 359 1
94 370 2
94 382 1
94 383 2
95 202 2
95 203 2
95 211 3
95 212 1
95 216 1
95 238 1
95 248 1
95 251 2
95 252 1
95 264 3
95 275 1
95 284 2
95 290 1
95 292 2
95 312 1
95 315 1
95 323 2
95 326 3
95 347 2
95 359 1
95 360 1
95 371 2
95 383 1
95 384 2
96 203 2
96 204 2
96 212 3
96 213 1
96 217 1
96 239 1
96 249 1
96 252 2
96 253 1
96 265 3
96 276 1
96 285 2
96 291 1
96 293 2
96 313 1
96 316 1
96 324 2
96 327 3
96 337 2
96 348 2
96 360 1
96 361 1
96 372 2
96 384 1
