%%MatrixMarket matrix coordinate integer general
% Binary matrix over GF(2).
% Coordinate indices are 1-based; omitted entries are zero.
192 768 5616
1 5 1
1 6 1
1 12 1
1 27 1
1 33 1
1 74 1
1 77 1
1 97 1
1 100 1
1 105 1
1 130 1
1 147 1
1 169 1
1 170 1
1 193 1
1 201 1
1 203 1
1 204 1
1 220 1
1 222 1
1 245 1
1 292 1
1 293 1
1 318 1
1 339 1
1 341 1
1 366 1
2 7 1
2 8 1
2 14 1
2 29 1
2 35 1
2 76 1
2 79 1
2 99 1
2 102 1
2 107 1
2 132 1
2 149 1
2 171 1
2 172 1
2 195 1
2 203 1
2 205 1
2 206 1
2 222 1
2 224 1
2 247 1
2 294 1
2 295 1
2 320 1
2 341 1
2 343 1
2 368 1
3 9 1
3 10 1
3 16 1
3 31 1
3 37 1
3 78 1
3 81 1
3 101 1
3 104 1
3 109 1
3 134 1
3 151 1
3 173 1
3 174 1
3 197 1
3 205 1
3 207 1
3 208 1
3 224 1
3 226 1
3 249 1
3 296 1
3 297 1
3 322 1
3 343 1
3 345 1
3 370 1
4 11 1
4 12 1
4 18 1
4 33 1
4 39 1
4 80 1
4 83 1
4 103 1
4 106 1
4 111 1
4 136 1
4 153 1
4 175 1
4 176 1
4 199 1
4 207 1
4 209 1
4 210 1
4 226 1
4 228 1
4 251 1
4 298 1
4 299 1
4 324 1
4 345 1
4 347 1
4 372 1
5 13 1
5 14 1
5 20 1
5 35 1
5 41 1
5 82 1
5 85 1
5 105 1
5 108 1
5 113 1
5 138 1
5 155 1
5 177 1
5 178 1
5 201 1
5 209 1
5 211 1
5 212 1
5 228 1
5 230 1
5 253 1
5 300 1
5 301 1
5 326 1
5 347 1
5 349 1
5 374 1
6 15 1
6 16 1
6 22 1
6 37 1
6 43 1
6 84 1
6 87 1
6 107 1
6 110 1
6 115 1
6 140 1
6 157 1
6 179 1
6 180 1
6 203 1
6 211 1
6 213 1
6 214 1
6 230 1
6 232 1
6 255 1
6 302 1
6 303 1
6 328 1
6 349 1
6 351 1
6 376 1
7 17 1
7 18 1
7 24 1
7 39 1
7 45 1
7 86 1
7 89 1
7 109 1
7 112 1
7 117 1
7 142 1
7 159 1
7 181 1
7 182 1
7 205 1
7 213 1
7 215 1
7 216 1
7 232 1
7 234 1
7 257 1
7 304 1
7 305 1
7 330 1
7 351 1
7 353 1
7 378 1
8 19 1
8 20 1
8 26 1
8 41 1
8 47 1
8 88 1
8 91 1
8 111 1
8 114 1
8 119 1
8 144 1
8 161 1
8 183 1
8 184 1
8 207 1
8 215 1
8 217 1
8 218 1
8 234 1
8 236 1
8 259 1
8 306 1
8 307 1
8 332 1
8 353 1
8 355 1
8 380 1
9 21 1
9 22 1
9 28 1
9 43 1
9 49 1
9 90 1
9 93 1
9 113 1
9 116 1
9 121 1
9 146 1
9 163 1
9 185 1
9 186 1
9 209 1
9 217 1
9 219 1
9 220 1
9 236 1
9 238 1
9 261 1
9 308 1
9 309 1
9 334 1
9 355 1
9 357 1
9 382 1
10 23 1
10 24 1
10 30 1
10 45 1
10 51 1
10 92 1
10 95 1
10 115 1
10 118 1
10 123 1
10 148 1
10 165 1
10 187 1
10 188 1
10 211 1
10 219 1
10 221 1
10 222 1
10 238 1
10 240 1
10 263 1
10 310 1
10 311 1
10 336 1
10 357 1
10 359 1
10 384 1
11 1 1
11 25 1
11 26 1
11 32 1
11 47 1
11 53 1
11 94 1
11 117 1
11 120 1
11 125 1
11 150 1
11 167 1
11 189 1
11 190 1
11 213 1
11 221 1
11 223 1
11 224 1
11 240 1
11 242 1
11 265 1
11 290 1
11 312 1
11 313 1
11 338 1
11 359 1
11 361 1
12 3 1
12 27 1
12 28 1
12 34 1
12 49 1
12 55 1
12 96 1
12 119 1
12 122 1
12 127 1
12 152 1
12 169 1
12 191 1
12 192 1
12 215 1
12 223 1
12 225 1
12 226 1
12 242 1
12 244 1
12 267 1
12 292 1
12 314 1
12 315 1
12 340 1
12 361 1
12 363 1
13 2 1
13 5 1
13 29 1
13 30 1
13 36 1
13 51 1
13 57 1
13 97 1
13 98 1
13 121 1
13 124 1
13 129 1
13 154 1
13 171 1
13 217 1
13 225 1
13 227 1
13 228 1
13 244 1
13 246 1
13 269 1
13 294 1
13 316 1
13 317 1
13 342 1
13 363 1
13 365 1
14 4 1
14 7 1
14 31 1
14 32 1
14 38 1
14 53 1
14 59 1
14 99 1
14 100 1
14 123 1
14 126 1
14 131 1
14 156 1
14 173 1
14 219 1
14 227 1
14 229 1
14 230 1
14 246 1
14 248 1
14 271 1
14 296 1
14 318 1
14 319 1
14 344 1
14 365 1
14 367 1
15 6 1
15 9 1
15 33 1
15 34 1
15 40 1
15 55 1
15 61 1
15 101 1
15 102 1
15 125 1
15 128 1
15 133 1
15 158 1
15 175 1
15 221 1
15 229 1
15 231 1
15 232 1
15 248 1
15 250 1
15 273 1
15 298 1
15 320 1
15 321 1
15 346 1
15 367 1
15 369 1
16 8 1
16 11 1
16 35 1
16 36 1
16 42 1
16 57 1
16 63 1
16 103 1
16 104 1
16 127 1
16 130 1
16 135 1
16 160 1
16 177 1
16 223 1
16 231 1
16 233 1
16 234 1
16 250 1
16 252 1
16 275 1
16 300 1
16 322 1
16 323 1
16 348 1
16 369 1
16 371 1
17 10 1
17 13 1
17 37 1
17 38 1
17 44 1
17 59 1
17 65 1
17 105 1
17 106 1
17 129 1
17 132 1
17 137 1
17 162 1
17 179 1
17 225 1
17 233 1
17 235 1
17 236 1
17 252 1
17 254 1
17 277 1
17 302 1
17 324 1
17 325 1
17 350 1
17 371 1
17 373 1
18 12 1
18 15 1
18 39 1
18 40 1
18 46 1
18 61 1
18 67 1
18 107 1
18 108 1
18 131 1
18 134 1
18 139 1
18 164 1
18 181 1
18 227 1
18 235 1
18 237 1
18 238 1
18 254 1
18 256 1
18 279 1
18 304 1
18 326 1
18 327 1
18 352 1
18 373 1
18 375 1
19 14 1
19 17 1
19 41 1
19 42 1
19 48 1
19 63 1
19 69 1
19 109 1
19 110 1
19 133 1
19 136 1
19 141 1
19 166 1
19 183 1
19 229 1
19 237 1
19 239 1
19 240 1
19 256 1
19 258 1
19 281 1
19 306 1
19 328 1
19 329 1
19 354 1
19 375 1
19 377 1
20 16 1
20 19 1
20 43 1
20 44 1
20 50 1
20 65 1
20 71 1
20 111 1
20 112 1
20 135 1
20 138 1
20 143 1
20 168 1
20 185 1
20 231 1
20 239 1
20 241 1
20 242 1
20 258 1
20 260 1
20 283 1
20 308 1
20 330 1
20 331 1
20 356 1
20 377 1
20 379 1
21 18 1
21 21 1
21 45 1
21 46 1
21 52 1
21 67 1
21 73 1
21 113 1
21 114 1
21 137 1
21 140 1
21 145 1
21 170 1
21 187 1
21 233 1
21 241 1
21 243 1
21 244 1
21 260 1
21 262 1
21 285 1
21 310 1
21 332 1
21 333 1
21 358 1
21 379 1
21 381 1
22 20 1
22 23 1
22 47 1
22 48 1
22 54 1
22 69 1
22 75 1
22 115 1
22 116 1
22 139 1
22 142 1
22 147 1
22 172 1
22 189 1
22 235 1
22 243 1
22 245 1
22 246 1
22 262 1
22 264 1
22 287 1
22 312 1
22 334 1
22 335 1
22 360 1
22 381 1
22 383 1
23 22 1
23 25 1
23 49 1
23 50 1
23 56 1
23 71 1
23 77 1
23 117 1
23 118 1
23 141 1
23 144 1
23 149 1
23 174 1
23 191 1
23 193 1
23 237 1
23 245 1
23 247 1
23 248 1
23 264 1
23 266 1
23 289 1
23 314 1
23 336 1
23 337 1
23 362 1
23 383 1
24 24 1
24 27 1
24 51 1
24 52 1
24 58 1
24 73 1
24 79 1
24 97 1
24 119 1
24 120 1
24 143 1
24 146 1
24 151 1
24 176 1
24 195 1
24 239 1
24 247 1
24 249 1
24 250 1
24 266 1
24 268 1
24 289 1
24 291 1
24 316 1
24 338 1
24 339 1
24 364 1
25 26 1
25 29 1
25 53 1
25 54 1
25 60 1
25 75 1
25 81 1
25 99 1
25 121 1
25 122 1
25 145 1
25 148 1
25 153 1
25 178 1
25 197 1
25 241 1
25 249 1
25 251 1
25 252 1
25 268 1
25 270 1
25 291 1
25 293 1
25 318 1
25 340 1
25 341 1
25 366 1
26 28 1
26 31 1
26 55 1
26 56 1
26 62 1
26 77 1
26 83 1
26 101 1
26 123 1
26 124 1
26 147 1
26 150 1
26 155 1
26 180 1
26 199 1
26 243 1
26 251 1
26 253 1
26 254 1
26 270 1
26 272 1
26 293 1
26 295 1
26 320 1
26 342 1
26 343 1
26 368 1
27 30 1
27 33 1
27 57 1
27 58 1
27 64 1
27 79 1
27 85 1
27 103 1
27 125 1
27 126 1
27 149 1
27 152 1
27 157 1
27 182 1
27 201 1
27 245 1
27 253 1
27 255 1
27 256 1
27 272 1
27 274 1
27 295 1
27 297 1
27 322 1
27 344 1
27 345 1
27 370 1
28 32 1
28 35 1
28 59 1
28 60 1
28 66 1
28 81 1
28 87 1
28 105 1
28 127 1
28 128 1
28 151 1
28 154 1
28 159 1
28 184 1
28 203 1
28 247 1
28 255 1
28 257 1
28 258 1
28 274 1
28 276 1
28 297 1
28 299 1
28 324 1
28 346 1
28 347 1
28 372 1
29 34 1
29 37 1
29 61 1
29 62 1
29 68 1
29 83 1
29 89 1
29 107 1
29 129 1
29 130 1
29 153 1
29 156 1
29 161 1
29 186 1
29 205 1
29 249 1
29 257 1
29 259 1
29 260 1
29 276 1
29 278 1
29 299 1
29 301 1
29 326 1
29 348 1
29 349 1
29 374 1
30 36 1
30 39 1
30 63 1
30 64 1
30 70 1
30 85 1
30 91 1
30 109 1
30 131 1
30 132 1
30 155 1
30 158 1
30 163 1
30 188 1
30 207 1
30 251 1
30 259 1
30 261 1
30 262 1
30 278 1
30 280 1
30 301 1
30 303 1
30 328 1
30 350 1
30 351 1
30 376 1
31 38 1
31 41 1
31 65 1
31 66 1
31 72 1
31 87 1
31 93 1
31 111 1
31 133 1
31 134 1
31 157 1
31 160 1
31 165 1
31 190 1
31 209 1
31 253 1
31 261 1
31 263 1
31 264 1
31 280 1
31 282 1
31 303 1
31 305 1
31 330 1
31 352 1
31 353 1
31 378 1
32 40 1
32 43 1
32 67 1
32 68 1
32 74 1
32 89 1
32 95 1
32 113 1
32 135 1
32 136 1
32 159 1
32 162 1
32 167 1
32 192 1
32 211 1
32 255 1
32 263 1
32 265 1
32 266 1
32 282 1
32 284 1
32 305 1
32 307 1
32 332 1
32 354 1
32 355 1
32 380 1
33 1 1
33 42 1
33 45 1
33 69 1
33 70 1
33 76 1
33 91 1
33 98 1
33 115 1
33 137 1
33 138 1
33 161 1
33 164 1
33 169 1
33 213 1
33 257 1
33 265 1
33 267 1
33 268 1
33 284 1
33 286 1
33 307 1
33 309 1
33 334 1
33 356 1
33 357 1
33 382 1
34 3 1
34 44 1
34 47 1
34 71 1
34 72 1
34 78 1
34 93 1
34 100 1
34 117 1
34 139 1
34 140 1
34 163 1
34 166 1
34 171 1
34 215 1
34 259 1
34 267 1
34 269 1
34 270 1
34 286 1
34 288 1
34 309 1
34 311 1
34 336 1
34 358 1
34 359 1
34 384 1
35 5 1
35 46 1
35 49 1
35 73 1
35 74 1
35 80 1
35 95 1
35 102 1
35 119 1
35 141 1
35 142 1
35 165 1
35 168 1
35 173 1
35 194 1
35 217 1
35 261 1
35 269 1
35 271 1
35 272 1
35 288 1
35 290 1
35 311 1
35 313 1
35 338 1
35 360 1
35 361 1
36 1 1
36 7 1
36 48 1
36 51 1
36 75 1
36 76 1
36 82 1
36 104 1
36 121 1
36 143 1
36 144 1
36 167 1
36 170 1
36 175 1
36 194 1
36 196 1
36 219 1
36 263 1
36 271 1
36 273 1
36 274 1
36 292 1
36 313 1
36 315 1
36 340 1
36 362 1
36 363 1
37 3 1
37 9 1
37 50 1
37 53 1
37 77 1
37 78 1
37 84 1
37 106 1
37 123 1
37 145 1
37 146 1
37 169 1
37 172 1
37 177 1
37 196 1
37 198 1
37 221 1
37 265 1
37 273 1
37 275 1
37 276 1
37 294 1
37 315 1
37 317 1
37 342 1
37 364 1
37 365 1
38 5 1
38 11 1
38 52 1
38 55 1
38 79 1
38 80 1
38 86 1
38 108 1
38 125 1
38 147 1
38 148 1
38 171 1
38 174 1
38 179 1
38 198 1
38 200 1
38 223 1
38 267 1
38 275 1
38 277 1
38 278 1
38 296 1
38 317 1
38 319 1
38 344 1
38 366 1
38 367 1
39 7 1
39 13 1
39 54 1
39 57 1
39 81 1
39 82 1
39 88 1
39 110 1
39 127 1
39 149 1
39 150 1
39 173 1
39 176 1
39 181 1
39 200 1
39 202 1
39 225 1
39 269 1
39 277 1
39 279 1
39 280 1
39 298 1
39 319 1
39 321 1
39 346 1
39 368 1
39 369 1
40 9 1
40 15 1
40 56 1
40 59 1
40 83 1
40 84 1
40 90 1
40 112 1
40 129 1
40 151 1
40 152 1
40 175 1
40 178 1
40 183 1
40 202 1
40 204 1
40 227 1
40 271 1
40 279 1
40 281 1
40 282 1
40 300 1
40 321 1
40 323 1
40 348 1
40 370 1
40 371 1
41 11 1
41 17 1
41 58 1
41 61 1
41 85 1
41 86 1
41 92 1
41 114 1
41 131 1
41 153 1
41 154 1
41 177 1
41 180 1
41 185 1
41 204 1
41 206 1
41 229 1
41 273 1
41 281 1
41 283 1
41 284 1
41 302 1
41 323 1
41 325 1
41 350 1
41 372 1
41 373 1
42 13 1
42 19 1
42 60 1
42 63 1
42 87 1
42 88 1
42 94 1
42 116 1
42 133 1
42 155 1
42 156 1
42 179 1
42 182 1
42 187 1
42 206 1
42 208 1
42 231 1
42 275 1
42 283 1
42 285 1
42 286 1
42 304 1
42 325 1
42 327 1
42 352 1
42 374 1
42 375 1
43 15 1
43 21 1
43 62 1
43 65 1
43 89 1
43 90 1
43 96 1
43 118 1
43 135 1
43 157 1
43 158 1
43 181 1
43 184 1
43 189 1
43 208 1
43 210 1
43 233 1
43 277 1
43 285 1
43 287 1
43 288 1
43 306 1
43 327 1
43 329 1
43 354 1
43 376 1
43 377 1
44 2 1
44 17 1
44 23 1
44 64 1
44 67 1
44 91 1
44 92 1
44 120 1
44 137 1
44 159 1
44 160 1
44 183 1
44 186 1
44 191 1
44 193 1
44 194 1
44 210 1
44 212 1
44 235 1
44 279 1
44 287 1
44 308 1
44 329 1
44 331 1
44 356 1
44 378 1
44 379 1
45 4 1
45 19 1
45 25 1
45 66 1
45 69 1
45 93 1
45 94 1
45 97 1
45 122 1
45 139 1
45 161 1
45 162 1
45 185 1
45 188 1
45 193 1
45 195 1
45 196 1
45 212 1
45 214 1
45 237 1
45 281 1
45 310 1
45 331 1
45 333 1
45 358 1
45 380 1
45 381 1
46 6 1
46 21 1
46 27 1
46 68 1
46 71 1
46 95 1
46 96 1
46 99 1
46 124 1
46 141 1
46 163 1
46 164 1
46 187 1
46 190 1
46 195 1
46 197 1
46 198 1
46 214 1
46 216 1
46 239 1
46 283 1
46 312 1
46 333 1
46 335 1
46 360 1
46 382 1
46 383 1
47 1 1
47 2 1
47 8 1
47 23 1
47 29 1
47 70 1
47 73 1
47 101 1
47 126 1
47 143 1
47 165 1
47 166 1
47 189 1
47 192 1
47 197 1
47 199 1
47 200 1
47 216 1
47 218 1
47 241 1
47 285 1
47 289 1
47 314 1
47 335 1
47 337 1
47 362 1
47 384 1
48 3 1
48 4 1
48 10 1
48 25 1
48 31 1
48 72 1
48 75 1
48 98 1
48 103 1
48 128 1
48 145 1
48 167 1
48 168 1
48 191 1
48 199 1
48 201 1
48 202 1
48 218 1
48 220 1
48 243 1
48 287 1
48 290 1
48 291 1
48 316 1
48 337 1
48 339 1
48 364 1
49 5 1
49 11 1
49 12 1
49 28 1
49 34 1
49 73 1
49 74 1
49 78 1
49 98 1
49 99 1
49 100 1
49 106 1
49 129 1
49 130 1
49 148 1
49 169 1
49 194 1
49 202 1
49 203 1
49 219 1
49 220 1
49 221 1
49 222 1
49 246 1
49 291 1
49 292 1
49 294 1
49 317 1
49 318 1
49 340 1
49 342 1
49 365 1
49 366 1
50 7 1
50 13 1
50 14 1
50 30 1
50 36 1
50 75 1
50 76 1
50 80 1
50 100 1
50 101 1
50 102 1
50 108 1
50 131 1
50 132 1
50 150 1
50 171 1
50 196 1
50 204 1
50 205 1
50 221 1
50 222 1
50 223 1
50 224 1
50 248 1
50 293 1
50 294 1
50 296 1
50 319 1
50 320 1
50 342 1
50 344 1
50 367 1
50 368 1
51 9 1
51 15 1
51 16 1
51 32 1
51 38 1
51 77 1
51 78 1
51 82 1
51 102 1
51 103 1
51 104 1
51 110 1
51 133 1
51 134 1
51 152 1
51 173 1
51 198 1
51 206 1
51 207 1
51 223 1
51 224 1
51 225 1
51 226 1
51 250 1
51 295 1
51 296 1
51 298 1
51 321 1
51 322 1
51 344 1
51 346 1
51 369 1
51 370 1
52 11 1
52 17 1
52 18 1
52 34 1
52 40 1
52 79 1
52 80 1
52 84 1
52 104 1
52 105 1
52 106 1
52 112 1
52 135 1
52 136 1
52 154 1
52 175 1
52 200 1
52 208 1
52 209 1
52 225 1
52 226 1
52 227 1
52 228 1
52 252 1
52 297 1
52 298 1
52 300 1
52 323 1
52 324 1
52 346 1
52 348 1
52 371 1
52 372 1
53 13 1
53 19 1
53 20 1
53 36 1
53 42 1
53 81 1
53 82 1
53 86 1
53 106 1
53 107 1
53 108 1
53 114 1
53 137 1
53 138 1
53 156 1
53 177 1
53 202 1
53 210 1
53 211 1
53 227 1
53 228 1
53 229 1
53 230 1
53 254 1
53 299 1
53 300 1
53 302 1
53 325 1
53 326 1
53 348 1
53 350 1
53 373 1
53 374 1
54 15 1
54 21 1
54 22 1
54 38 1
54 44 1
54 83 1
54 84 1
54 88 1
54 108 1
54 109 1
54 110 1
54 116 1
54 139 1
54 140 1
54 158 1
54 179 1
54 204 1
54 212 1
54 213 1
54 229 1
54 230 1
54 231 1
54 232 1
54 256 1
54 301 1
54 302 1
54 304 1
54 327 1
54 328 1
54 350 1
54 352 1
54 375 1
54 376 1
55 17 1
55 23 1
55 24 1
55 40 1
55 46 1
55 85 1
55 86 1
55 90 1
55 110 1
55 111 1
55 112 1
55 118 1
55 141 1
55 142 1
55 160 1
55 181 1
55 206 1
55 214 1
55 215 1
55 231 1
55 232 1
55 233 1
55 234 1
55 258 1
55 303 1
55 304 1
55 306 1
55 329 1
55 330 1
55 352 1
55 354 1
55 377 1
55 378 1
56 19 1
56 25 1
56 26 1
56 42 1
56 48 1
56 87 1
56 88 1
56 92 1
56 112 1
56 113 1
56 114 1
56 120 1
56 143 1
56 144 1
56 162 1
56 183 1
56 208 1
56 216 1
56 217 1
56 233 1
56 234 1
56 235 1
56 236 1
56 260 1
56 305 1
56 306 1
56 308 1
56 331 1
56 332 1
56 354 1
56 356 1
56 379 1
56 380 1
57 21 1
57 27 1
57 28 1
57 44 1
57 50 1
57 89 1
57 90 1
57 94 1
57 114 1
57 115 1
57 116 1
57 122 1
57 145 1
57 146 1
57 164 1
57 185 1
57 210 1
57 218 1
57 219 1
57 235 1
57 236 1
57 237 1
57 238 1
57 262 1
57 307 1
57 308 1
57 310 1
57 333 1
57 334 1
57 356 1
57 358 1
57 381 1
57 382 1
58 23 1
58 29 1
58 30 1
58 46 1
58 52 1
58 91 1
58 92 1
58 96 1
58 116 1
58 117 1
58 118 1
58 124 1
58 147 1
58 148 1
58 166 1
58 187 1
58 212 1
58 220 1
58 221 1
58 237 1
58 238 1
58 239 1
58 240 1
58 264 1
58 309 1
58 310 1
58 312 1
58 335 1
58 336 1
58 358 1
58 360 1
58 383 1
58 384 1
59 2 1
59 25 1
59 31 1
59 32 1
59 48 1
59 54 1
59 93 1
59 94 1
59 118 1
59 119 1
59 120 1
59 126 1
59 149 1
59 150 1
59 168 1
59 189 1
59 214 1
59 222 1
59 223 1
59 239 1
59 240 1
59 241 1
59 242 1
59 266 1
59 289 1
59 290 1
59 311 1
59 312 1
59 314 1
59 337 1
59 338 1
59 360 1
59 362 1
60 4 1
60 27 1
60 33 1
60 34 1
60 50 1
60 56 1
60 95 1
60 96 1
60 120 1
60 121 1
60 122 1
60 128 1
60 151 1
60 152 1
60 170 1
60 191 1
60 216 1
60 224 1
60 225 1
60 241 1
60 242 1
60 243 1
60 244 1
60 268 1
60 291 1
60 292 1
60 313 1
60 314 1
60 316 1
60 339 1
60 340 1
60 362 1
60 364 1
61 1 1
61 2 1
61 6 1
61 29 1
61 35 1
61 36 1
61 52 1
61 58 1
61 97 1
61 122 1
61 123 1
61 124 1
61 130 1
61 153 1
61 154 1
61 172 1
61 218 1
61 226 1
61 227 1
61 243 1
61 244 1
61 245 1
61 246 1
61 270 1
61 293 1
61 294 1
61 315 1
61 316 1
61 318 1
61 341 1
61 342 1
61 364 1
61 366 1
62 3 1
62 4 1
62 8 1
62 31 1
62 37 1
62 38 1
62 54 1
62 60 1
62 99 1
62 124 1
62 125 1
62 126 1
62 132 1
62 155 1
62 156 1
62 174 1
62 220 1
62 228 1
62 229 1
62 245 1
62 246 1
62 247 1
62 248 1
62 272 1
62 295 1
62 296 1
62 317 1
62 318 1
62 320 1
62 343 1
62 344 1
62 366 1
62 368 1
63 5 1
63 6 1
63 10 1
63 33 1
63 39 1
63 40 1
63 56 1
63 62 1
63 101 1
63 126 1
63 127 1
63 128 1
63 134 1
63 157 1
63 158 1
63 176 1
63 222 1
63 230 1
63 231 1
63 247 1
63 248 1
63 249 1
63 250 1
63 274 1
63 297 1
63 298 1
63 319 1
63 320 1
63 322 1
63 345 1
63 346 1
63 368 1
63 370 1
64 7 1
64 8 1
64 12 1
64 35 1
64 41 1
64 42 1
64 58 1
64 64 1
64 103 1
64 128 1
64 129 1
64 130 1
64 136 1
64 159 1
64 160 1
64 178 1
64 224 1
64 232 1
64 233 1
64 249 1
64 250 1
64 251 1
64 252 1
64 276 1
64 299 1
64 300 1
64 321 1
64 322 1
64 324 1
64 347 1
64 348 1
64 370 1
64 372 1
65 9 1
65 10 1
65 14 1
65 37 1
65 43 1
65 44 1
65 60 1
65 66 1
65 105 1
65 130 1
65 131 1
65 132 1
65 138 1
65 161 1
65 162 1
65 180 1
65 226 1
65 234 1
65 235 1
65 251 1
65 252 1
65 253 1
65 254 1
65 278 1
65 301 1
65 302 1
65 323 1
65 324 1
65 326 1
65 349 1
65 350 1
65 372 1
65 374 1
66 11 1
66 12 1
66 16 1
66 39 1
66 45 1
66 46 1
66 62 1
66 68 1
66 107 1
66 132 1
66 133 1
66 134 1
66 140 1
66 163 1
66 164 1
66 182 1
66 228 1
66 236 1
66 237 1
66 253 1
66 254 1
66 255 1
66 256 1
66 280 1
66 303 1
66 304 1
66 325 1
66 326 1
66 328 1
66 351 1
66 352 1
66 374 1
66 376 1
67 13 1
67 14 1
67 18 1
67 41 1
67 47 1
67 48 1
67 64 1
67 70 1
67 109 1
67 134 1
67 135 1
67 136 1
67 142 1
67 165 1
67 166 1
67 184 1
67 230 1
67 238 1
67 239 1
67 255 1
67 256 1
67 257 1
67 258 1
67 282 1
67 305 1
67 306 1
67 327 1
67 328 1
67 330 1
67 353 1
67 354 1
67 376 1
67 378 1
68 15 1
68 16 1
68 20 1
68 43 1
68 49 1
68 50 1
68 66 1
68 72 1
68 111 1
68 136 1
68 137 1
68 138 1
68 144 1
68 167 1
68 168 1
68 186 1
68 232 1
68 240 1
68 241 1
68 257 1
68 258 1
68 259 1
68 260 1
68 284 1
68 307 1
68 308 1
68 329 1
68 330 1
68 332 1
68 355 1
68 356 1
68 378 1
68 380 1
69 17 1
69 18 1
69 22 1
69 45 1
69 51 1
69 52 1
69 68 1
69 74 1
69 113 1
69 138 1
69 139 1
69 140 1
69 146 1
69 169 1
69 170 1
69 188 1
69 234 1
69 242 1
69 243 1
69 259 1
69 260 1
69 261 1
69 262 1
69 286 1
69 309 1
69 310 1
69 331 1
69 332 1
69 334 1
69 357 1
69 358 1
69 380 1
69 382 1
70 19 1
70 20 1
70 24 1
70 47 1
70 53 1
70 54 1
70 70 1
70 76 1
70 115 1
70 140 1
70 141 1
70 142 1
70 148 1
70 171 1
70 172 1
70 190 1
70 236 1
70 244 1
70 245 1
70 261 1
70 262 1
70 263 1
70 264 1
70 288 1
70 311 1
70 312 1
70 333 1
70 334 1
70 336 1
70 359 1
70 360 1
70 382 1
70 384 1
71 21 1
71 22 1
71 26 1
71 49 1
71 55 1
71 56 1
71 72 1
71 78 1
71 117 1
71 142 1
71 143 1
71 144 1
71 150 1
71 173 1
71 174 1
71 192 1
71 194 1
71 238 1
71 246 1
71 247 1
71 263 1
71 264 1
71 265 1
71 266 1
71 290 1
71 313 1
71 314 1
71 335 1
71 336 1
71 338 1
71 361 1
71 362 1
71 384 1
72 23 1
72 24 1
72 28 1
72 51 1
72 57 1
72 58 1
72 74 1
72 80 1
72 98 1
72 119 1
72 144 1
72 145 1
72 146 1
72 152 1
72 175 1
72 176 1
72 196 1
72 240 1
72 248 1
72 249 1
72 265 1
72 266 1
72 267 1
72 268 1
72 290 1
72 292 1
72 315 1
72 316 1
72 337 1
72 338 1
72 340 1
72 363 1
72 364 1
73 25 1
73 26 1
73 30 1
73 53 1
73 59 1
73 60 1
73 76 1
73 82 1
73 100 1
73 121 1
73 146 1
73 147 1
73 148 1
73 154 1
73 177 1
73 178 1
73 198 1
73 242 1
73 250 1
73 251 1
73 267 1
73 268 1
73 269 1
73 270 1
73 292 1
73 294 1
73 317 1
73 318 1
73 339 1
73 340 1
73 342 1
73 365 1
73 366 1
74 27 1
74 28 1
74 32 1
74 55 1
74 61 1
74 62 1
74 78 1
74 84 1
74 102 1
74 123 1
74 148 1
74 149 1
74 150 1
74 156 1
74 179 1
74 180 1
74 200 1
74 244 1
74 252 1
74 253 1
74 269 1
74 270 1
74 271 1
74 272 1
74 294 1
74 296 1
74 319 1
74 320 1
74 341 1
74 342 1
74 344 1
74 367 1
74 368 1
75 29 1
75 30 1
75 34 1
75 57 1
75 63 1
75 64 1
75 80 1
75 86 1
75 104 1
75 125 1
75 150 1
75 151 1
75 152 1
75 158 1
75 181 1
75 182 1
75 202 1
75 246 1
75 254 1
75 255 1
75 271 1
75 272 1
75 273 1
75 274 1
75 296 1
75 298 1
75 321 1
75 322 1
75 343 1
75 344 1
75 346 1
75 369 1
75 370 1
76 31 1
76 32 1
76 36 1
76 59 1
76 65 1
76 66 1
76 82 1
76 88 1
76 106 1
76 127 1
76 152 1
76 153 1
76 154 1
76 160 1
76 183 1
76 184 1
76 204 1
76 248 1
76 256 1
76 257 1
76 273 1
76 274 1
76 275 1
76 276 1
76 298 1
76 300 1
76 323 1
76 324 1
76 345 1
76 346 1
76 348 1
76 371 1
76 372 1
77 33 1
77 34 1
77 38 1
77 61 1
77 67 1
77 68 1
77 84 1
77 90 1
77 108 1
77 129 1
77 154 1
77 155 1
77 156 1
77 162 1
77 185 1
77 186 1
77 206 1
77 250 1
77 258 1
77 259 1
77 275 1
77 276 1
77 277 1
77 278 1
77 300 1
77 302 1
77 325 1
77 326 1
77 347 1
77 348 1
77 350 1
77 373 1
77 374 1
78 35 1
78 36 1
78 40 1
78 63 1
78 69 1
78 70 1
78 86 1
78 92 1
78 110 1
78 131 1
78 156 1
78 157 1
78 158 1
78 164 1
78 187 1
78 188 1
78 208 1
78 252 1
78 260 1
78 261 1
78 277 1
78 278 1
78 279 1
78 280 1
78 302 1
78 304 1
78 327 1
78 328 1
78 349 1
78 350 1
78 352 1
78 375 1
78 376 1
79 37 1
79 38 1
79 42 1
79 65 1
79 71 1
79 72 1
79 88 1
79 94 1
79 112 1
79 133 1
79 158 1
79 159 1
79 160 1
79 166 1
79 189 1
79 190 1
79 210 1
79 254 1
79 262 1
79 263 1
79 279 1
79 280 1
79 281 1
79 282 1
79 304 1
79 306 1
79 329 1
79 330 1
79 351 1
79 352 1
79 354 1
79 377 1
79 378 1
80 39 1
80 40 1
80 44 1
80 67 1
80 73 1
80 74 1
80 90 1
80 96 1
80 114 1
80 135 1
80 160 1
80 161 1
80 162 1
80 168 1
80 191 1
80 192 1
80 212 1
80 256 1
80 264 1
80 265 1
80 281 1
80 282 1
80 283 1
80 284 1
80 306 1
80 308 1
80 331 1
80 332 1
80 353 1
80 354 1
80 356 1
80 379 1
80 380 1
81 2 1
81 41 1
81 42 1
81 46 1
81 69 1
81 75 1
81 76 1
81 92 1
81 97 1
81 98 1
81 116 1
81 137 1
81 162 1
81 163 1
81 164 1
81 170 1
81 214 1
81 258 1
81 266 1
81 267 1
81 283 1
81 284 1
81 285 1
81 286 1
81 308 1
81 310 1
81 333 1
81 334 1
81 355 1
81 356 1
81 358 1
81 381 1
81 382 1
82 4 1
82 43 1
82 44 1
82 48 1
82 71 1
82 77 1
82 78 1
82 94 1
82 99 1
82 100 1
82 118 1
82 139 1
82 164 1
82 165 1
82 166 1
82 172 1
82 216 1
82 260 1
82 268 1
82 269 1
82 285 1
82 286 1
82 287 1
82 288 1
82 310 1
82 312 1
82 335 1
82 336 1
82 357 1
82 358 1
82 360 1
82 383 1
82 384 1
83 6 1
83 45 1
83 46 1
83 50 1
83 73 1
83 79 1
83 80 1
83 96 1
83 101 1
83 102 1
83 120 1
83 141 1
83 166 1
83 167 1
83 168 1
83 174 1
83 193 1
83 194 1
83 218 1
83 262 1
83 270 1
83 271 1
83 287 1
83 288 1
83 289 1
83 290 1
83 312 1
83 314 1
83 337 1
83 338 1
83 359 1
83 360 1
83 362 1
84 2 1
84 8 1
84 47 1
84 48 1
84 52 1
84 75 1
84 81 1
84 82 1
84 103 1
84 104 1
84 122 1
84 143 1
84 168 1
84 169 1
84 170 1
84 176 1
84 193 1
84 194 1
84 195 1
84 196 1
84 220 1
84 264 1
84 272 1
84 273 1
84 291 1
84 292 1
84 314 1
84 316 1
84 339 1
84 340 1
84 361 1
84 362 1
84 364 1
85 4 1
85 10 1
85 49 1
85 50 1
85 54 1
85 77 1
85 83 1
85 84 1
85 105 1
85 106 1
85 124 1
85 145 1
85 170 1
85 171 1
85 172 1
85 178 1
85 195 1
85 196 1
85 197 1
85 198 1
85 222 1
85 266 1
85 274 1
85 275 1
85 293 1
85 294 1
85 316 1
85 318 1
85 341 1
85 342 1
85 363 1
85 364 1
85 366 1
86 6 1
86 12 1
86 51 1
86 52 1
86 56 1
86 79 1
86 85 1
86 86 1
86 107 1
86 108 1
86 126 1
86 147 1
86 172 1
86 173 1
86 174 1
86 180 1
86 197 1
86 198 1
86 199 1
86 200 1
86 224 1
86 268 1
86 276 1
86 277 1
86 295 1
86 296 1
86 318 1
86 320 1
86 343 1
86 344 1
86 365 1
86 366 1
86 368 1
87 8 1
87 14 1
87 53 1
87 54 1
87 58 1
87 81 1
87 87 1
87 88 1
87 109 1
87 110 1
87 128 1
87 149 1
87 174 1
87 175 1
87 176 1
87 182 1
87 199 1
87 200 1
87 201 1
87 202 1
87 226 1
87 270 1
87 278 1
87 279 1
87 297 1
87 298 1
87 320 1
87 322 1
87 345 1
87 346 1
87 367 1
87 368 1
87 370 1
88 10 1
88 16 1
88 55 1
88 56 1
88 60 1
88 83 1
88 89 1
88 90 1
88 111 1
88 112 1
88 130 1
88 151 1
88 176 1
88 177 1
88 178 1
88 184 1
88 201 1
88 202 1
88 203 1
88 204 1
88 228 1
88 272 1
88 280 1
88 281 1
88 299 1
88 300 1
88 322 1
88 324 1
88 347 1
88 348 1
88 369 1
88 370 1
88 372 1
89 12 1
89 18 1
89 57 1
89 58 1
89 62 1
89 85 1
89 91 1
89 92 1
89 113 1
89 114 1
89 132 1
89 153 1
89 178 1
89 179 1
89 180 1
89 186 1
89 203 1
89 204 1
89 205 1
89 206 1
89 230 1
89 274 1
89 282 1
89 283 1
89 301 1
89 302 1
89 324 1
89 326 1
89 349 1
89 350 1
89 371 1
89 372 1
89 374 1
90 14 1
90 20 1
90 59 1
90 60 1
90 64 1
90 87 1
90 93 1
90 94 1
90 115 1
90 116 1
90 134 1
90 155 1
90 180 1
90 181 1
90 182 1
90 188 1
90 205 1
90 206 1
90 207 1
90 208 1
90 232 1
90 276 1
90 284 1
90 285 1
90 303 1
90 304 1
90 326 1
90 328 1
90 351 1
90 352 1
90 373 1
90 374 1
90 376 1
91 16 1
91 22 1
91 61 1
91 62 1
91 66 1
91 89 1
91 95 1
91 96 1
91 117 1
91 118 1
91 136 1
91 157 1
91 182 1
91 183 1
91 184 1
91 190 1
91 207 1
91 208 1
91 209 1
91 210 1
91 234 1
91 278 1
91 286 1
91 287 1
91 305 1
91 306 1
91 328 1
91 330 1
91 353 1
91 354 1
91 375 1
91 376 1
91 378 1
92 1 1
92 2 1
92 18 1
92 24 1
92 63 1
92 64 1
92 68 1
92 91 1
92 119 1
92 120 1
92 138 1
92 159 1
92 184 1
92 185 1
92 186 1
92 192 1
92 193 1
92 209 1
92 210 1
92 211 1
92 212 1
92 236 1
92 280 1
92 288 1
92 307 1
92 308 1
92 330 1
92 332 1
92 355 1
92 356 1
92 377 1
92 378 1
92 380 1
93 3 1
93 4 1
93 20 1
93 26 1
93 65 1
93 66 1
93 70 1
93 93 1
93 98 1
93 121 1
93 122 1
93 140 1
93 161 1
93 186 1
93 187 1
93 188 1
93 194 1
93 195 1
93 211 1
93 212 1
93 213 1
93 214 1
93 238 1
93 282 1
93 309 1
93 310 1
93 332 1
93 334 1
93 357 1
93 358 1
93 379 1
93 380 1
93 382 1
94 5 1
94 6 1
94 22 1
94 28 1
94 67 1
94 68 1
94 72 1
94 95 1
94 100 1
94 123 1
94 124 1
94 142 1
94 163 1
94 188 1
94 189 1
94 190 1
94 196 1
94 197 1
94 213 1
94 214 1
94 215 1
94 216 1
94 240 1
94 284 1
94 311 1
94 312 1
94 334 1
94 336 1
94 359 1
94 360 1
94 381 1
94 382 1
94 384 1
95 1 1
95 7 1
95 8 1
95 24 1
95 30 1
95 69 1
95 70 1
95 74 1
95 102 1
95 125 1
95 126 1
95 144 1
95 165 1
95 190 1
95 191 1
95 192 1
95 198 1
95 199 1
95 215 1
95 216 1
95 217 1
95 218 1
95 242 1
95 286 1
95 290 1
95 313 1
95 314 1
95 336 1
95 338 1
95 361 1
95 362 1
95 383 1
95 384 1
96 3 1
96 9 1
96 10 1
96 26 1
96 32 1
96 71 1
96 72 1
96 76 1
96 97 1
96 98 1
96 104 1
96 127 1
96 128 1
96 146 1
96 167 1
96 192 1
96 200 1
96 201 1
96 217 1
96 218 1
96 219 1
96 220 1
96 244 1
96 288 1
96 289 1
96 290 1
96 292 1
96 315 1
96 316 1
96 338 1
96 340 1
96 363 1
96 364 1
97 1 1
97 3 1
97 4 1
97 6 1
97 51 1
97 52 1
97 78 1
97 98 1
97 121 1
97 122 1
97 147 1
97 148 1
97 171 1
97 172 1
97 217 1
97 218 1
97 221 1
97 243 1
97 245 1
97 246 1
97 267 1
97 268 1
97 270 1
97 675 1
97 677 1
97 678 1
97 701 1
97 723 1
97 724 1
97 725 1
97 726 1
97 749 1
98 3 1
98 5 1
98 6 1
98 8 1
98 53 1
98 54 1
98 80 1
98 100 1
98 123 1
98 124 1
98 149 1
98 150 1
98 173 1
98 174 1
98 219 1
98 220 1
98 223 1
98 245 1
98 247 1
98 248 1
98 269 1
98 270 1
98 272 1
98 677 1
98 679 1
98 680 1
98 703 1
98 725 1
98 726 1
98 727 1
98 728 1
98 751 1
99 5 1
99 7 1
99 8 1
99 10 1
99 55 1
99 56 1
99 82 1
99 102 1
99 125 1
99 126 1
99 151 1
99 152 1
99 175 1
99 176 1
99 221 1
99 222 1
99 225 1
99 247 1
99 249 1
99 250 1
99 271 1
99 272 1
99 274 1
99 679 1
99 681 1
99 682 1
99 705 1
99 727 1
99 728 1
99 729 1
99 730 1
99 753 1
100 7 1
100 9 1
100 10 1
100 12 1
100 57 1
100 58 1
100 84 1
100 104 1
100 127 1
100 128 1
100 153 1
100 154 1
100 177 1
100 178 1
100 223 1
100 224 1
100 227 1
100 249 1
100 251 1
100 252 1
100 273 1
100 274 1
100 276 1
100 681 1
100 683 1
100 684 1
100 707 1
100 729 1
100 730 1
100 731 1
100 732 1
100 755 1
101 9 1
101 11 1
101 12 1
101 14 1
101 59 1
101 60 1
101 86 1
101 106 1
101 129 1
101 130 1
101 155 1
101 156 1
101 179 1
101 180 1
101 225 1
101 226 1
101 229 1
101 251 1
101 253 1
101 254 1
101 275 1
101 276 1
101 278 1
101 683 1
101 685 1
101 686 1
101 709 1
101 731 1
101 732 1
101 733 1
101 734 1
101 757 1
102 11 1
102 13 1
102 14 1
102 16 1
102 61 1
102 62 1
102 88 1
102 108 1
102 131 1
102 132 1
102 157 1
102 158 1
102 181 1
102 182 1
102 227 1
102 228 1
102 231 1
102 253 1
102 255 1
102 256 1
102 277 1
102 278 1
102 280 1
102 685 1
102 687 1
102 688 1
102 711 1
102 733 1
102 734 1
102 735 1
102 736 1
102 759 1
103 13 1
103 15 1
103 16 1
103 18 1
103 63 1
103 64 1
103 90 1
103 110 1
103 133 1
103 134 1
103 159 1
103 160 1
103 183 1
103 184 1
103 229 1
103 230 1
103 233 1
103 255 1
103 257 1
103 258 1
103 279 1
103 280 1
103 282 1
103 687 1
103 689 1
103 690 1
103 713 1
103 735 1
103 736 1
103 737 1
103 738 1
103 761 1
104 15 1
104 17 1
104 18 1
104 20 1
104 65 1
104 66 1
104 92 1
104 112 1
104 135 1
104 136 1
104 161 1
104 162 1
104 185 1
104 186 1
104 231 1
104 232 1
104 235 1
104 257 1
104 259 1
104 260 1
104 281 1
104 282 1
104 284 1
104 689 1
104 691 1
104 692 1
104 715 1
104 737 1
104 738 1
104 739 1
104 740 1
104 763 1
105 17 1
105 19 1
105 20 1
105 22 1
105 67 1
105 68 1
105 94 1
105 114 1
105 137 1
105 138 1
105 163 1
105 164 1
105 187 1
105 188 1
105 233 1
105 234 1
105 237 1
105 259 1
105 261 1
105 262 1
105 283 1
105 284 1
105 286 1
105 691 1
105 693 1
105 694 1
105 717 1
105 739 1
105 740 1
105 741 1
105 742 1
105 765 1
106 19 1
106 21 1
106 22 1
106 24 1
106 69 1
106 70 1
106 96 1
106 116 1
106 139 1
106 140 1
106 165 1
106 166 1
106 189 1
106 190 1
106 235 1
106 236 1
106 239 1
106 261 1
106 263 1
106 264 1
106 285 1
106 286 1
106 288 1
106 693 1
106 695 1
106 696 1
106 719 1
106 741 1
106 742 1
106 743 1
106 744 1
106 767 1
107 2 1
107 21 1
107 23 1
107 24 1
107 26 1
107 71 1
107 72 1
107 118 1
107 141 1
107 142 1
107 167 1
107 168 1
107 191 1
107 192 1
107 194 1
107 237 1
107 238 1
107 241 1
107 263 1
107 265 1
107 266 1
107 287 1
107 288 1
107 673 1
107 695 1
107 697 1
107 698 1
107 721 1
107 743 1
107 744 1
107 745 1
107 746 1
108 4 1
108 23 1
108 25 1
108 26 1
108 28 1
108 73 1
108 74 1
108 97 1
108 98 1
108 120 1
108 143 1
108 144 1
108 169 1
108 170 1
108 193 1
108 194 1
108 196 1
108 239 1
108 240 1
108 243 1
108 265 1
108 267 1
108 268 1
108 675 1
108 697 1
108 699 1
108 700 1
108 723 1
108 745 1
108 746 1
108 747 1
108 748 1
109 6 1
109 25 1
109 27 1
109 28 1
109 30 1
109 75 1
109 76 1
109 99 1
109 100 1
109 122 1
109 145 1
109 146 1
109 171 1
109 172 1
109 195 1
109 196 1
109 198 1
109 241 1
109 242 1
109 245 1
109 267 1
109 269 1
109 270 1
109 677 1
109 699 1
109 701 1
109 702 1
109 725 1
109 747 1
109 748 1
109 749 1
109 750 1
110 8 1
110 27 1
110 29 1
110 30 1
110 32 1
110 77 1
110 78 1
110 101 1
110 102 1
110 124 1
110 147 1
110 148 1
110 173 1
110 174 1
110 197 1
110 198 1
110 200 1
110 243 1
110 244 1
110 247 1
110 269 1
110 271 1
110 272 1
110 679 1
110 701 1
110 703 1
110 704 1
110 727 1
110 749 1
110 750 1
110 751 1
110 752 1
111 10 1
111 29 1
111 31 1
111 32 1
111 34 1
111 79 1
111 80 1
111 103 1
111 104 1
111 126 1
111 149 1
111 150 1
111 175 1
111 176 1
111 199 1
111 200 1
111 202 1
111 245 1
111 246 1
111 249 1
111 271 1
111 273 1
111 274 1
111 681 1
111 703 1
111 705 1
111 706 1
111 729 1
111 751 1
111 752 1
111 753 1
111 754 1
112 12 1
112 31 1
112 33 1
112 34 1
112 36 1
112 81 1
112 82 1
112 105 1
112 106 1
112 128 1
112 151 1
112 152 1
112 177 1
112 178 1
112 201 1
112 202 1
112 204 1
112 247 1
112 248 1
112 251 1
112 273 1
112 275 1
112 276 1
112 683 1
112 705 1
112 707 1
112 708 1
112 731 1
112 753 1
112 754 1
112 755 1
112 756 1
113 14 1
113 33 1
113 35 1
113 36 1
113 38 1
113 83 1
113 84 1
113 107 1
113 108 1
113 130 1
113 153 1
113 154 1
113 179 1
113 180 1
113 203 1
113 204 1
113 206 1
113 249 1
113 250 1
113 253 1
113 275 1
113 277 1
113 278 1
113 685 1
113 707 1
113 709 1
113 710 1
113 733 1
113 755 1
113 756 1
113 757 1
113 758 1
114 16 1
114 35 1
114 37 1
114 38 1
114 40 1
114 85 1
114 86 1
114 109 1
114 110 1
114 132 1
114 155 1
114 156 1
114 181 1
114 182 1
114 205 1
114 206 1
114 208 1
114 251 1
114 252 1
114 255 1
114 277 1
114 279 1
114 280 1
114 687 1
114 709 1
114 711 1
114 712 1
114 735 1
114 757 1
114 758 1
114 759 1
114 760 1
115 18 1
115 37 1
115 39 1
115 40 1
115 42 1
115 87 1
115 88 1
115 111 1
115 112 1
115 134 1
115 157 1
115 158 1
115 183 1
115 184 1
115 207 1
115 208 1
115 210 1
115 253 1
115 254 1
115 257 1
115 279 1
115 281 1
115 282 1
115 689 1
115 711 1
115 713 1
115 714 1
115 737 1
115 759 1
115 760 1
115 761 1
115 762 1
116 20 1
116 39 1
116 41 1
116 42 1
116 44 1
116 89 1
116 90 1
116 113 1
116 114 1
116 136 1
116 159 1
116 160 1
116 185 1
116 186 1
116 209 1
116 210 1
116 212 1
116 255 1
116 256 1
116 259 1
116 281 1
116 283 1
116 284 1
116 691 1
116 713 1
116 715 1
116 716 1
116 739 1
116 761 1
116 762 1
116 763 1
116 764 1
117 22 1
117 41 1
117 43 1
117 44 1
117 46 1
117 91 1
117 92 1
117 115 1
117 116 1
117 138 1
117 161 1
117 162 1
117 187 1
117 188 1
117 211 1
117 212 1
117 214 1
117 257 1
117 258 1
117 261 1
117 283 1
117 285 1
117 286 1
117 693 1
117 715 1
117 717 1
117 718 1
117 741 1
117 763 1
117 764 1
117 765 1
117 766 1
118 24 1
118 43 1
118 45 1
118 46 1
118 48 1
118 93 1
118 94 1
118 117 1
118 118 1
118 140 1
118 163 1
118 164 1
118 189 1
118 190 1
118 213 1
118 214 1
118 216 1
118 259 1
118 260 1
118 263 1
118 285 1
118 287 1
118 288 1
118 695 1
118 717 1
118 719 1
118 720 1
118 743 1
118 765 1
118 766 1
118 767 1
118 768 1
119 26 1
119 45 1
119 47 1
119 48 1
119 50 1
119 95 1
119 96 1
119 119 1
119 120 1
119 142 1
119 165 1
119 166 1
119 191 1
119 192 1
119 193 1
119 194 1
119 215 1
119 216 1
119 218 1
119 261 1
119 262 1
119 265 1
119 287 1
119 673 1
119 674 1
119 697 1
119 719 1
119 721 1
119 722 1
119 745 1
119 767 1
119 768 1
120 1 1
120 2 1
120 28 1
120 47 1
120 49 1
120 50 1
120 52 1
120 97 1
120 98 1
120 121 1
120 122 1
120 144 1
120 167 1
120 168 1
120 193 1
120 195 1
120 196 1
120 217 1
120 218 1
120 220 1
120 263 1
120 264 1
120 267 1
120 673 1
120 674 1
120 675 1
120 676 1
120 699 1
120 721 1
120 723 1
120 724 1
120 747 1
121 3 1
121 4 1
121 30 1
121 49 1
121 51 1
121 52 1
121 54 1
121 99 1
121 100 1
121 123 1
121 124 1
121 146 1
121 169 1
121 170 1
121 195 1
121 197 1
121 198 1
121 219 1
121 220 1
121 222 1
121 265 1
121 266 1
121 269 1
121 675 1
121 676 1
121 677 1
121 678 1
121 701 1
121 723 1
121 725 1
121 726 1
121 749 1
122 5 1
122 6 1
122 32 1
122 51 1
122 53 1
122 54 1
122 56 1
122 101 1
122 102 1
122 125 1
122 126 1
122 148 1
122 171 1
122 172 1
122 197 1
122 199 1
122 200 1
122 221 1
122 222 1
122 224 1
122 267 1
122 268 1
122 271 1
122 677 1
122 678 1
122 679 1
122 680 1
122 703 1
122 725 1
122 727 1
122 728 1
122 751 1
123 7 1
123 8 1
123 34 1
123 53 1
123 55 1
123 56 1
123 58 1
123 103 1
123 104 1
123 127 1
123 128 1
123 150 1
123 173 1
123 174 1
123 199 1
123 201 1
123 202 1
123 223 1
123 224 1
123 226 1
123 269 1
123 270 1
123 273 1
123 679 1
123 680 1
123 681 1
123 682 1
123 705 1
123 727 1
123 729 1
123 730 1
123 753 1
124 9 1
124 10 1
124 36 1
124 55 1
124 57 1
124 58 1
124 60 1
124 105 1
124 106 1
124 129 1
124 130 1
124 152 1
124 175 1
124 176 1
124 201 1
124 203 1
124 204 1
124 225 1
124 226 1
124 228 1
124 271 1
124 272 1
124 275 1
124 681 1
124 682 1
124 683 1
124 684 1
124 707 1
124 729 1
124 731 1
124 732 1
124 755 1
125 11 1
125 12 1
125 38 1
125 57 1
125 59 1
125 60 1
125 62 1
125 107 1
125 108 1
125 131 1
125 132 1
125 154 1
125 177 1
125 178 1
125 203 1
125 205 1
125 206 1
125 227 1
125 228 1
125 230 1
125 273 1
125 274 1
125 277 1
125 683 1
125 684 1
125 685 1
125 686 1
125 709 1
125 731 1
125 733 1
125 734 1
125 757 1
126 13 1
126 14 1
126 40 1
126 59 1
126 61 1
126 62 1
126 64 1
126 109 1
126 110 1
126 133 1
126 134 1
126 156 1
126 179 1
126 180 1
126 205 1
126 207 1
126 208 1
126 229 1
126 230 1
126 232 1
126 275 1
126 276 1
126 279 1
126 685 1
126 686 1
126 687 1
126 688 1
126 711 1
126 733 1
126 735 1
126 736 1
126 759 1
127 15 1
127 16 1
127 42 1
127 61 1
127 63 1
127 64 1
127 66 1
127 111 1
127 112 1
127 135 1
127 136 1
127 158 1
127 181 1
127 182 1
127 207 1
127 209 1
127 210 1
127 231 1
127 232 1
127 234 1
127 277 1
127 278 1
127 281 1
127 687 1
127 688 1
127 689 1
127 690 1
127 713 1
127 735 1
127 737 1
127 738 1
127 761 1
128 17 1
128 18 1
128 44 1
128 63 1
128 65 1
128 66 1
128 68 1
128 113 1
128 114 1
128 137 1
128 138 1
128 160 1
128 183 1
128 184 1
128 209 1
128 211 1
128 212 1
128 233 1
128 234 1
128 236 1
128 279 1
128 280 1
128 283 1
128 689 1
128 690 1
128 691 1
128 692 1
128 715 1
128 737 1
128 739 1
128 740 1
128 763 1
129 19 1
129 20 1
129 46 1
129 65 1
129 67 1
129 68 1
129 70 1
129 115 1
129 116 1
129 139 1
129 140 1
129 162 1
129 185 1
129 186 1
129 211 1
129 213 1
129 214 1
129 235 1
129 236 1
129 238 1
129 281 1
129 282 1
129 285 1
129 691 1
129 692 1
129 693 1
129 694 1
129 717 1
129 739 1
129 741 1
129 742 1
129 765 1
130 21 1
130 22 1
130 48 1
130 67 1
130 69 1
130 70 1
130 72 1
130 117 1
130 118 1
130 141 1
130 142 1
130 164 1
130 187 1
130 188 1
130 213 1
130 215 1
130 216 1
130 237 1
130 238 1
130 240 1
130 283 1
130 284 1
130 287 1
130 693 1
130 694 1
130 695 1
130 696 1
130 719 1
130 741 1
130 743 1
130 744 1
130 767 1
131 23 1
131 24 1
131 50 1
131 69 1
131 71 1
131 72 1
131 74 1
131 119 1
131 120 1
131 143 1
131 144 1
131 166 1
131 189 1
131 190 1
131 193 1
131 215 1
131 217 1
131 218 1
131 239 1
131 240 1
131 242 1
131 285 1
131 286 1
131 673 1
131 695 1
131 696 1
131 697 1
131 698 1
131 721 1
131 743 1
131 745 1
131 746 1
132 25 1
132 26 1
132 52 1
132 71 1
132 73 1
132 74 1
132 76 1
132 121 1
132 122 1
132 145 1
132 146 1
132 168 1
132 191 1
132 192 1
132 195 1
132 217 1
132 219 1
132 220 1
132 241 1
132 242 1
132 244 1
132 287 1
132 288 1
132 675 1
132 697 1
132 698 1
132 699 1
132 700 1
132 723 1
132 745 1
132 747 1
132 748 1
133 27 1
133 28 1
133 54 1
133 73 1
133 75 1
133 76 1
133 78 1
133 97 1
133 98 1
133 123 1
133 124 1
133 147 1
133 148 1
133 170 1
133 193 1
133 194 1
133 197 1
133 219 1
133 221 1
133 222 1
133 243 1
133 244 1
133 246 1
133 677 1
133 699 1
133 700 1
133 701 1
133 702 1
133 725 1
133 747 1
133 749 1
133 750 1
134 29 1
134 30 1
134 56 1
134 75 1
134 77 1
134 78 1
134 80 1
134 99 1
134 100 1
134 125 1
134 126 1
134 149 1
134 150 1
134 172 1
134 195 1
134 196 1
134 199 1
134 221 1
134 223 1
134 224 1
134 245 1
134 246 1
134 248 1
134 679 1
134 701 1
134 702 1
134 703 1
134 704 1
134 727 1
134 749 1
134 751 1
134 752 1
135 31 1
135 32 1
135 58 1
135 77 1
135 79 1
135 80 1
135 82 1
135 101 1
135 102 1
135 127 1
135 128 1
135 151 1
135 152 1
135 174 1
135 197 1
135 198 1
135 201 1
135 223 1
135 225 1
135 226 1
135 247 1
135 248 1
135 250 1
135 681 1
135 703 1
135 704 1
135 705 1
135 706 1
135 729 1
135 751 1
135 753 1
135 754 1
136 33 1
136 34 1
136 60 1
136 79 1
136 81 1
136 82 1
136 84 1
136 103 1
136 104 1
136 129 1
136 130 1
136 153 1
136 154 1
136 176 1
136 199 1
136 200 1
136 203 1
136 225 1
136 227 1
136 228 1
136 249 1
136 250 1
136 252 1
136 683 1
136 705 1
136 706 1
136 707 1
136 708 1
136 731 1
136 753 1
136 755 1
136 756 1
137 35 1
137 36 1
137 62 1
137 81 1
137 83 1
137 84 1
137 86 1
137 105 1
137 106 1
137 131 1
137 132 1
137 155 1
137 156 1
137 178 1
137 201 1
137 202 1
137 205 1
137 227 1
137 229 1
137 230 1
137 251 1
137 252 1
137 254 1
137 685 1
137 707 1
137 708 1
137 709 1
137 710 1
137 733 1
137 755 1
137 757 1
137 758 1
138 37 1
138 38 1
138 64 1
138 83 1
138 85 1
138 86 1
138 88 1
138 107 1
138 108 1
138 133 1
138 134 1
138 157 1
138 158 1
138 180 1
138 203 1
138 204 1
138 207 1
138 229 1
138 231 1
138 232 1
138 253 1
138 254 1
138 256 1
138 687 1
138 709 1
138 710 1
138 711 1
138 712 1
138 735 1
138 757 1
138 759 1
138 760 1
139 39 1
139 40 1
139 66 1
139 85 1
139 87 1
139 88 1
139 90 1
139 109 1
139 110 1
139 135 1
139 136 1
139 159 1
139 160 1
139 182 1
139 205 1
139 206 1
139 209 1
139 231 1
139 233 1
139 234 1
139 255 1
139 256 1
139 258 1
139 689 1
139 711 1
139 712 1
139 713 1
139 714 1
139 737 1
139 759 1
139 761 1
139 762 1
140 41 1
140 42 1
140 68 1
140 87 1
140 89 1
140 90 1
140 92 1
140 111 1
140 112 1
140 137 1
140 138 1
140 161 1
140 162 1
140 184 1
140 207 1
140 208 1
140 211 1
140 233 1
140 235 1
140 236 1
140 257 1
140 258 1
140 260 1
140 691 1
140 713 1
140 714 1
140 715 1
140 716 1
140 739 1
140 761 1
140 763 1
140 764 1
141 43 1
141 44 1
141 70 1
141 89 1
141 91 1
141 92 1
141 94 1
141 113 1
141 114 1
141 139 1
141 140 1
141 163 1
141 164 1
141 186 1
141 209 1
141 210 1
141 213 1
141 235 1
141 237 1
141 238 1
141 259 1
141 260 1
141 262 1
141 693 1
141 715 1
141 716 1
141 717 1
141 718 1
141 741 1
141 763 1
141 765 1
141 766 1
142 45 1
142 46 1
142 72 1
142 91 1
142 93 1
142 94 1
142 96 1
142 115 1
142 116 1
142 141 1
142 142 1
142 165 1
142 166 1
142 188 1
142 211 1
142 212 1
142 215 1
142 237 1
142 239 1
142 240 1
142 261 1
142 262 1
142 264 1
142 695 1
142 717 1
142 718 1
142 719 1
142 720 1
142 743 1
142 765 1
142 767 1
142 768 1
143 2 1
143 47 1
143 48 1
143 74 1
143 93 1
143 95 1
143 96 1
143 117 1
143 118 1
143 143 1
143 144 1
143 167 1
143 168 1
143 190 1
143 213 1
143 214 1
143 217 1
143 239 1
143 241 1
143 242 1
143 263 1
143 264 1
143 266 1
143 673 1
143 674 1
143 697 1
143 719 1
143 720 1
143 721 1
143 722 1
143 745 1
143 767 1
144 1 1
144 2 1
144 4 1
144 49 1
144 50 1
144 76 1
144 95 1
144 119 1
144 120 1
144 145 1
144 146 1
144 169 1
144 170 1
144 192 1
144 215 1
144 216 1
144 219 1
144 241 1
144 243 1
144 244 1
144 265 1
144 266 1
144 268 1
144 673 1
144 675 1
144 676 1
144 699 1
144 721 1
144 722 1
144 723 1
144 724 1
144 747 1
145 2 1
145 3 1
145 5 1
145 6 1
145 51 1
145 77 1
145 78 1
145 97 1
145 98 1
145 121 1
145 147 1
145 171 1
145 217 1
145 222 1
145 244 1
145 245 1
145 267 1
145 269 1
145 270 1
145 676 1
145 677 1
145 702 1
145 723 1
145 725 1
145 750 1
146 4 1
146 5 1
146 7 1
146 8 1
146 53 1
146 79 1
146 80 1
146 99 1
146 100 1
146 123 1
146 149 1
146 173 1
146 219 1
146 224 1
146 246 1
146 247 1
146 269 1
146 271 1
146 272 1
146 678 1
146 679 1
146 704 1
146 725 1
146 727 1
146 752 1
147 6 1
147 7 1
147 9 1
147 10 1
147 55 1
147 81 1
147 82 1
147 101 1
147 102 1
147 125 1
147 151 1
147 175 1
147 221 1
147 226 1
147 248 1
147 249 1
147 271 1
147 273 1
147 274 1
147 680 1
147 681 1
147 706 1
147 727 1
147 729 1
147 754 1
148 8 1
148 9 1
148 11 1
148 12 1
148 57 1
148 83 1
148 84 1
148 103 1
148 104 1
148 127 1
148 153 1
148 177 1
148 223 1
148 228 1
148 250 1
148 251 1
148 273 1
148 275 1
148 276 1
148 682 1
148 683 1
148 708 1
148 729 1
148 731 1
148 756 1
149 10 1
149 11 1
149 13 1
149 14 1
149 59 1
149 85 1
149 86 1
149 105 1
149 106 1
149 129 1
149 155 1
149 179 1
149 225 1
149 230 1
149 252 1
149 253 1
149 275 1
149 277 1
149 278 1
149 684 1
149 685 1
149 710 1
149 731 1
149 733 1
149 758 1
150 12 1
150 13 1
150 15 1
150 16 1
150 61 1
150 87 1
150 88 1
150 107 1
150 108 1
150 131 1
150 157 1
150 181 1
150 227 1
150 232 1
150 254 1
150 255 1
150 277 1
150 279 1
150 280 1
150 686 1
150 687 1
150 712 1
150 733 1
150 735 1
150 760 1
151 14 1
151 15 1
151 17 1
151 18 1
151 63 1
151 89 1
151 90 1
151 109 1
151 110 1
151 133 1
151 159 1
151 183 1
151 229 1
151 234 1
151 256 1
151 257 1
151 279 1
151 281 1
151 282 1
151 688 1
151 689 1
151 714 1
151 735 1
151 737 1
151 762 1
152 16 1
152 17 1
152 19 1
152 20 1
152 65 1
152 91 1
152 92 1
152 111 1
152 112 1
152 135 1
152 161 1
152 185 1
152 231 1
152 236 1
152 258 1
152 259 1
152 281 1
152 283 1
152 284 1
152 690 1
152 691 1
152 716 1
152 737 1
152 739 1
152 764 1
153 18 1
153 19 1
153 21 1
153 22 1
153 67 1
153 93 1
153 94 1
153 113 1
153 114 1
153 137 1
153 163 1
153 187 1
153 233 1
153 238 1
153 260 1
153 261 1
153 283 1
153 285 1
153 286 1
153 692 1
153 693 1
153 718 1
153 739 1
153 741 1
153 766 1
154 20 1
154 21 1
154 23 1
154 24 1
154 69 1
154 95 1
154 96 1
154 115 1
154 116 1
154 139 1
154 165 1
154 189 1
154 235 1
154 240 1
154 262 1
154 263 1
154 285 1
154 287 1
154 288 1
154 694 1
154 695 1
154 720 1
154 741 1
154 743 1
154 768 1
155 1 1
155 2 1
155 22 1
155 23 1
155 25 1
155 26 1
155 71 1
155 117 1
155 118 1
155 141 1
155 167 1
155 191 1
155 193 1
155 194 1
155 237 1
155 242 1
155 264 1
155 265 1
155 287 1
155 674 1
155 696 1
155 697 1
155 722 1
155 743 1
155 745 1
156 3 1
156 4 1
156 24 1
156 25 1
156 27 1
156 28 1
156 73 1
156 97 1
156 119 1
156 120 1
156 143 1
156 169 1
156 193 1
156 195 1
156 196 1
156 239 1
156 244 1
156 266 1
156 267 1
156 676 1
156 698 1
156 699 1
156 724 1
156 745 1
156 747 1
157 5 1
157 6 1
157 26 1
157 27 1
157 29 1
157 30 1
157 75 1
157 99 1
157 121 1
157 122 1
157 145 1
157 171 1
157 195 1
157 197 1
157 198 1
157 241 1
157 246 1
157 268 1
157 269 1
157 678 1
157 700 1
157 701 1
157 726 1
157 747 1
157 749 1
158 7 1
158 8 1
158 28 1
158 29 1
158 31 1
158 32 1
158 77 1
158 101 1
158 123 1
158 124 1
158 147 1
158 173 1
158 197 1
158 199 1
158 200 1
158 243 1
158 248 1
158 270 1
158 271 1
158 680 1
158 702 1
158 703 1
158 728 1
158 749 1
158 751 1
159 9 1
159 10 1
159 30 1
159 31 1
159 33 1
159 34 1
159 79 1
159 103 1
159 125 1
159 126 1
159 149 1
159 175 1
159 199 1
159 201 1
159 202 1
159 245 1
159 250 1
159 272 1
159 273 1
159 682 1
159 704 1
159 705 1
159 730 1
159 751 1
159 753 1
160 11 1
160 12 1
160 32 1
160 33 1
160 35 1
160 36 1
160 81 1
160 105 1
160 127 1
160 128 1
160 151 1
160 177 1
160 201 1
160 203 1
160 204 1
160 247 1
160 252 1
160 274 1
160 275 1
160 684 1
160 706 1
160 707 1
160 732 1
160 753 1
160 755 1
161 13 1
161 14 1
161 34 1
161 35 1
161 37 1
161 38 1
161 83 1
161 107 1
161 129 1
161 130 1
161 153 1
161 179 1
161 203 1
161 205 1
161 206 1
161 249 1
161 254 1
161 276 1
161 277 1
161 686 1
161 708 1
161 709 1
161 734 1
161 755 1
161 757 1
162 15 1
162 16 1
162 36 1
162 37 1
162 39 1
162 40 1
162 85 1
162 109 1
162 131 1
162 132 1
162 155 1
162 181 1
162 205 1
162 207 1
162 208 1
162 251 1
162 256 1
162 278 1
162 279 1
162 688 1
162 710 1
162 711 1
162 736 1
162 757 1
162 759 1
163 17 1
163 18 1
163 38 1
163 39 1
163 41 1
163 42 1
163 87 1
163 111 1
163 133 1
163 134 1
163 157 1
163 183 1
163 207 1
163 209 1
163 210 1
163 253 1
163 258 1
163 280 1
163 281 1
163 690 1
163 712 1
163 713 1
163 738 1
163 759 1
163 761 1
164 19 1
164 20 1
164 40 1
164 41 1
164 43 1
164 44 1
164 89 1
164 113 1
164 135 1
164 136 1
164 159 1
164 185 1
164 209 1
164 211 1
164 212 1
164 255 1
164 260 1
164 282 1
164 283 1
164 692 1
164 714 1
164 715 1
164 740 1
164 761 1
164 763 1
165 21 1
165 22 1
165 42 1
165 43 1
165 45 1
165 46 1
165 91 1
165 115 1
165 137 1
165 138 1
165 161 1
165 187 1
165 211 1
165 213 1
165 214 1
165 257 1
165 262 1
165 284 1
165 285 1
165 694 1
165 716 1
165 717 1
165 742 1
165 763 1
165 765 1
166 23 1
166 24 1
166 44 1
166 45 1
166 47 1
166 48 1
166 93 1
166 117 1
166 139 1
166 140 1
166 163 1
166 189 1
166 213 1
166 215 1
166 216 1
166 259 1
166 264 1
166 286 1
166 287 1
166 696 1
166 718 1
166 719 1
166 744 1
166 765 1
166 767 1
167 25 1
167 26 1
167 46 1
167 47 1
167 49 1
167 50 1
167 95 1
167 119 1
167 141 1
167 142 1
167 165 1
167 191 1
167 193 1
167 215 1
167 217 1
167 218 1
167 261 1
167 266 1
167 288 1
167 673 1
167 698 1
167 720 1
167 721 1
167 746 1
167 767 1
168 1 1
168 27 1
168 28 1
168 48 1
168 49 1
168 51 1
168 52 1
168 97 1
168 121 1
168 143 1
168 144 1
168 167 1
168 194 1
168 195 1
168 217 1
168 219 1
168 220 1
168 263 1
168 268 1
168 673 1
168 675 1
168 700 1
168 722 1
168 723 1
168 748 1
169 3 1
169 29 1
169 30 1
169 50 1
169 51 1
169 53 1
169 54 1
169 99 1
169 123 1
169 145 1
169 146 1
169 169 1
169 196 1
169 197 1
169 219 1
169 221 1
169 222 1
169 265 1
169 270 1
169 675 1
169 677 1
169 702 1
169 724 1
169 725 1
169 750 1
170 5 1
170 31 1
170 32 1
170 52 1
170 53 1
170 55 1
170 56 1
170 101 1
170 125 1
170 147 1
170 148 1
170 171 1
170 198 1
170 199 1
170 221 1
170 223 1
170 224 1
170 267 1
170 272 1
170 677 1
170 679 1
170 704 1
170 726 1
170 727 1
170 752 1
171 7 1
171 33 1
171 34 1
171 54 1
171 55 1
171 57 1
171 58 1
171 103 1
171 127 1
171 149 1
171 150 1
171 173 1
171 200 1
171 201 1
171 223 1
171 225 1
171 226 1
171 269 1
171 274 1
171 679 1
171 681 1
171 706 1
171 728 1
171 729 1
171 754 1
172 9 1
172 35 1
172 36 1
172 56 1
172 57 1
172 59 1
172 60 1
172 105 1
172 129 1
172 151 1
172 152 1
172 175 1
172 202 1
172 203 1
172 225 1
172 227 1
172 228 1
172 271 1
172 276 1
172 681 1
172 683 1
172 708 1
172 730 1
172 731 1
172 756 1
173 11 1
173 37 1
173 38 1
173 58 1
173 59 1
173 61 1
173 62 1
173 107 1
173 131 1
173 153 1
173 154 1
173 177 1
173 204 1
173 205 1
173 227 1
173 229 1
173 230 1
173 273 1
173 278 1
173 683 1
173 685 1
173 710 1
173 732 1
173 733 1
173 758 1
174 13 1
174 39 1
174 40 1
174 60 1
174 61 1
174 63 1
174 64 1
174 109 1
174 133 1
174 155 1
174 156 1
174 179 1
174 206 1
174 207 1
174 229 1
174 231 1
174 232 1
174 275 1
174 280 1
174 685 1
174 687 1
174 712 1
174 734 1
174 735 1
174 760 1
175 15 1
175 41 1
175 42 1
175 62 1
175 63 1
175 65 1
175 66 1
175 111 1
175 135 1
175 157 1
175 158 1
175 181 1
175 208 1
175 209 1
175 231 1
175 233 1
175 234 1
175 277 1
175 282 1
175 687 1
175 689 1
175 714 1
175 736 1
175 737 1
175 762 1
176 17 1
176 43 1
176 44 1
176 64 1
176 65 1
176 67 1
176 68 1
176 113 1
176 137 1
176 159 1
176 160 1
176 183 1
176 210 1
176 211 1
176 233 1
176 235 1
176 236 1
176 279 1
176 284 1
176 689 1
176 691 1
176 716 1
176 738 1
176 739 1
176 764 1
177 19 1
177 45 1
177 46 1
177 66 1
177 67 1
177 69 1
177 70 1
177 115 1
177 139 1
177 161 1
177 162 1
177 185 1
177 212 1
177 213 1
177 235 1
177 237 1
177 238 1
177 281 1
177 286 1
177 691 1
177 693 1
177 718 1
177 740 1
177 741 1
177 766 1
178 21 1
178 47 1
178 48 1
178 68 1
178 69 1
178 71 1
178 72 1
178 117 1
178 141 1
178 163 1
178 164 1
178 187 1
178 214 1
178 215 1
178 237 1
178 239 1
178 240 1
178 283 1
178 288 1
178 693 1
178 695 1
178 720 1
178 742 1
178 743 1
178 768 1
179 23 1
179 49 1
179 50 1
179 70 1
179 71 1
179 73 1
179 74 1
179 119 1
179 143 1
179 165 1
179 166 1
179 189 1
179 194 1
179 216 1
179 217 1
179 239 1
179 241 1
179 242 1
179 285 1
179 674 1
179 695 1
179 697 1
179 722 1
179 744 1
179 745 1
180 25 1
180 51 1
180 52 1
180 72 1
180 73 1
180 75 1
180 76 1
180 121 1
180 145 1
180 167 1
180 168 1
180 191 1
180 196 1
180 218 1
180 219 1
180 241 1
180 243 1
180 244 1
180 287 1
180 676 1
180 697 1
180 699 1
180 724 1
180 746 1
180 747 1
181 27 1
181 53 1
181 54 1
181 74 1
181 75 1
181 77 1
181 78 1
181 97 1
181 123 1
181 147 1
181 169 1
181 170 1
181 193 1
181 198 1
181 220 1
181 221 1
181 243 1
181 245 1
181 246 1
181 678 1
181 699 1
181 701 1
181 726 1
181 748 1
181 749 1
182 29 1
182 55 1
182 56 1
182 76 1
182 77 1
182 79 1
182 80 1
182 99 1
182 125 1
182 149 1
182 171 1
182 172 1
182 195 1
182 200 1
182 222 1
182 223 1
182 245 1
182 247 1
182 248 1
182 680 1
182 701 1
182 703 1
182 728 1
182 750 1
182 751 1
183 31 1
183 57 1
183 58 1
183 78 1
183 79 1
183 81 1
183 82 1
183 101 1
183 127 1
183 151 1
183 173 1
183 174 1
183 197 1
183 202 1
183 224 1
183 225 1
183 247 1
183 249 1
183 250 1
183 682 1
183 703 1
183 705 1
183 730 1
183 752 1
183 753 1
184 33 1
184 59 1
184 60 1
184 80 1
184 81 1
184 83 1
184 84 1
184 103 1
184 129 1
184 153 1
184 175 1
184 176 1
184 199 1
184 204 1
184 226 1
184 227 1
184 249 1
184 251 1
184 252 1
184 684 1
184 705 1
184 707 1
184 732 1
184 754 1
184 755 1
185 35 1
185 61 1
185 62 1
185 82 1
185 83 1
185 85 1
185 86 1
185 105 1
185 131 1
185 155 1
185 177 1
185 178 1
185 201 1
185 206 1
185 228 1
185 229 1
185 251 1
185 253 1
185 254 1
185 686 1
185 707 1
185 709 1
185 734 1
185 756 1
185 757 1
186 37 1
186 63 1
186 64 1
186 84 1
186 85 1
186 87 1
186 88 1
186 107 1
186 133 1
186 157 1
186 179 1
186 180 1
186 203 1
186 208 1
186 230 1
186 231 1
186 253 1
186 255 1
186 256 1
186 688 1
186 709 1
186 711 1
186 736 1
186 758 1
186 759 1
187 39 1
187 65 1
187 66 1
187 86 1
187 87 1
187 89 1
187 90 1
187 109 1
187 135 1
187 159 1
187 181 1
187 182 1
187 205 1
187 210 1
187 232 1
187 233 1
187 255 1
187 257 1
187 258 1
187 690 1
187 711 1
187 713 1
187 738 1
187 760 1
187 761 1
188 41 1
188 67 1
188 68 1
188 88 1
188 89 1
188 91 1
188 92 1
188 111 1
188 137 1
188 161 1
188 183 1
188 184 1
188 207 1
188 212 1
188 234 1
188 235 1
188 257 1
188 259 1
188 260 1
188 692 1
188 713 1
188 715 1
188 740 1
188 762 1
188 763 1
189 43 1
189 69 1
189 70 1
189 90 1
189 91 1
189 93 1
189 94 1
189 113 1
189 139 1
189 163 1
189 185 1
189 186 1
189 209 1
189 214 1
189 236 1
189 237 1
189 259 1
189 261 1
189 262 1
189 694 1
189 715 1
189 717 1
189 742 1
189 764 1
189 765 1
190 45 1
190 71 1
190 72 1
190 92 1
190 93 1
190 95 1
190 96 1
190 115 1
190 141 1
190 165 1
190 187 1
190 188 1
190 211 1
190 216 1
190 238 1
190 239 1
190 261 1
190 263 1
190 264 1
190 696 1
190 717 1
190 719 1
190 744 1
190 766 1
190 767 1
191 1 1
191 2 1
191 47 1
191 73 1
191 74 1
191 94 1
191 95 1
191 117 1
191 143 1
191 167 1
191 189 1
191 190 1
191 213 1
191 218 1
191 240 1
191 241 1
191 263 1
191 265 1
191 266 1
191 673 1
191 698 1
191 719 1
191 721 1
191 746 1
191 768 1
192 1 1
192 3 1
192 4 1
192 49 1
192 75 1
192 76 1
192 96 1
192 119 1
192 145 1
192 169 1
192 191 1
192 192 1
192 215 1
192 220 1
192 242 1
192 243 1
192 265 1
192 267 1
192 268 1
192 674 1
192 675 1
192 700 1
192 721 1
192 723 1
192 748 1
