%%MatrixMarket matrix coordinate integer general
% GF(4) labels 0,1,2=omega,3=omega+1; arithmetic is NOT integer arithmetic.
% Coordinate indices are 1-based; omitted entries are zero.
96 384 2160
1 3 3
1 6 2
1 14 1
1 17 1
1 37 2
1 39 1
1 49 1
1 50 2
1 53 1
1 65 2
1 74 1
1 85 3
1 97 1
1 101 1
1 102 3
1 110 2
1 111 2
1 123 1
1 146 2
1 147 1
1 159 2
1 170 1
1 171 1
1 183 2
2 4 3
2 7 2
2 15 1
2 18 1
2 38 2
2 40 1
2 50 1
2 51 2
2 54 1
2 66 2
2 75 1
2 86 3
2 98 1
2 102 1
2 103 3
2 111 2
2 112 2
2 124 1
2 147 2
2 148 1
2 160 2
2 171 1
2 172 1
2 184 2
3 5 3
3 8 2
3 16 1
3 19 1
3 39 2
3 41 1
3 51 1
3 52 2
3 55 1
3 67 2
3 76 1
3 87 3
3 99 1
3 103 1
3 104 3
3 112 2
3 113 2
3 125 1
3 148 2
3 149 1
3 161 2
3 172 1
3 173 1
3 185 2
4 6 3
4 9 2
4 17 1
4 20 1
4 40 2
4 42 1
4 52 1
4 53 2
4 56 1
4 68 2
4 77 1
4 88 3
4 100 1
4 104 1
4 105 3
4 113 2
4 114 2
4 126 1
4 149 2
4 150 1
4 162 2
4 173 1
4 174 1
4 186 2
5 7 3
5 10 2
5 18 1
5 21 1
5 41 2
5 43 1
5 53 1
5 54 2
5 57 1
5 69 2
5 78 1
5 89 3
5 101 1
5 105 1
5 106 3
5 114 2
5 115 2
5 127 1
5 150 2
5 151 1
5 163 2
5 174 1
5 175 1
5 187 2
6 8 3
6 11 2
6 19 1
6 22 1
6 42 2
6 44 1
6 54 1
6 55 2
6 58 1
6 70 2
6 79 1
6 90 3
6 102 1
6 106 1
6 107 3
6 115 2
6 116 2
6 128 1
6 151 2
6 152 1
6 164 2
6 175 1
6 176 1
6 188 2
7 9 3
7 12 2
7 20 1
7 23 1
7 43 2
7 45 1
7 55 1
7 56 2
7 59 1
7 71 2
7 80 1
7 91 3
7 103 1
7 107 1
7 108 3
7 116 2
7 117 2
7 129 1
7 152 2
7 153 1
7 165 2
7 176 1
7 177 1
7 189 2
8 10 3
8 13 2
8 21 1
8 24 1
8 44 2
8 46 1
8 56 1
8 57 2
8 60 1
8 72 2
8 81 1
8 92 3
8 104 1
8 108 1
8 109 3
8 117 2
8 118 2
8 130 1
8 153 2
8 154 1
8 166 2
8 177 1
8 178 1
8 190 2
9 11 3
9 14 2
9 22 1
9 25 1
9 45 2
9 47 1
9 57 1
9 58 2
9 61 1
9 73 2
9 82 1
9 93 3
9 105 1
9 109 1
9 110 3
9 118 2
9 119 2
9 131 1
9 154 2
9 155 1
9 167 2
9 178 1
9 179 1
9 191 2
10 12 3
10 15 2
10 23 1
10 26 1
10 46 2
10 48 1
10 58 1
10 59 2
10 62 1
10 74 2
10 83 1
10 94 3
10 106 1
10 110 1
10 111 3
10 119 2
10 120 2
10 132 1
10 155 2
10 156 1
10 168 2
10 179 1
10 180 1
10 192 2
11 1 1
11 13 3
11 16 2
11 24 1
11 27 1
11 47 2
11 59 1
11 60 2
11 63 1
11 75 2
11 84 1
11 95 3
11 107 1
11 111 1
11 112 3
11 120 2
11 121 2
11 133 1
11 145 2
11 156 2
11 157 1
11 169 2
11 180 1
11 181 1
12 2 1
12 14 3
12 17 2
12 25 1
12 28 1
12 48 2
12 60 1
12 61 2
12 64 1
12 76 2
12 85 1
12 96 3
12 108 1
12 112 1
12 113 3
12 121 2
12 122 2
12 134 1
12 146 2
12 157 2
12 158 1
12 170 2
12 181 1
12 182 1
13 1 2
13 3 1
13 15 3
13 18 2
13 26 1
13 29 1
13 49 3
13 61 1
13 62 2
13 65 1
13 77 2
13 86 1
13 109 1
13 113 1
13 114 3
13 122 2
13 123 2
13 135 1
13 147 2
13 158 2
13 159 1
13 171 2
13 182 1
13 183 1
14 2 2
14 4 1
14 16 3
14 19 2
14 27 1
14 30 1
14 50 3
14 62 1
14 63 2
14 66 1
14 78 2
14 87 1
14 110 1
14 114 1
14 115 3
14 123 2
14 124 2
14 136 1
14 148 2
14 159 2
14 160 1
14 172 2
14 183 1
14 184 1
15 3 2
15 5 1
15 17 3
15 20 2
15 28 1
15 31 1
15 51 3
15 63 1
15 64 2
15 67 1
15 79 2
15 88 1
15 111 1
15 115 1
15 116 3
15 124 2
15 125 2
15 137 1
15 149 2
15 160 2
15 161 1
15 173 2
15 184 1
15 185 1
16 4 2
16 6 1
16 18 3
16 21 2
16 29 1
16 32 1
16 52 3
16 64 1
16 65 2
16 68 1
16 80 2
16 89 1
16 112 1
16 116 1
16 117 3
16 125 2
16 126 2
16 138 1
16 150 2
16 161 2
16 162 1
16 174 2
16 185 1
16 186 1
17 5 2
17 7 1
17 19 3
17 22 2
17 30 1
17 33 1
17 53 3
17 65 1
17 66 2
17 69 1
17 81 2
17 90 1
17 113 1
17 117 1
17 118 3
17 126 2
17 127 2
17 139 1
17 151 2
17 162 2
17 163 1
17 175 2
17 186 1
17 187 1
18 6 2
18 8 1
18 20 3
18 23 2
18 31 1
18 34 1
18 54 3
18 66 1
18 67 2
18 70 1
18 82 2
18 91 1
18 114 1
18 118 1
18 119 3
18 127 2
18 128 2
18 140 1
18 152 2
18 163 2
18 164 1
18 176 2
18 187 1
18 188 1
19 7 2
19 9 1
19 21 3
19 24 2
19 32 1
19 35 1
19 55 3
19 67 1
19 68 2
19 71 1
19 83 2
19 92 1
19 115 1
19 119 1
19 120 3
19 128 2
19 129 2
19 141 1
19 153 2
19 164 2
19 165 1
19 177 2
19 188 1
19 189 1
20 8 2
20 10 1
20 22 3
20 25 2
20 33 1
20 36 1
20 56 3
20 68 1
20 69 2
20 72 1
20 84 2
20 93 1
20 116 1
20 120 1
20 121 3
20 129 2
20 130 2
20 142 1
20 154 2
20 165 2
20 166 1
20 178 2
20 189 1
20 190 1
21 9 2
21 11 1
21 23 3
21 26 2
21 34 1
21 37 1
21 57 3
21 69 1
21 70 2
21 73 1
21 85 2
21 94 1
21 117 1
21 121 1
21 122 3
21 130 2
21 131 2
21 143 1
21 155 2
21 166 2
21 167 1
21 179 2
21 190 1
21 191 1
22 10 2
22 12 1
22 24 3
22 27 2
22 35 1
22 38 1
22 58 3
22 70 1
22 71 2
22 74 1
22 86 2
22 95 1
22 118 1
22 122 1
22 123 3
22 131 2
22 132 2
22 144 1
22 156 2
22 167 2
22 168 1
22 180 2
22 191 1
22 192 1
23 11 2
23 13 1
23 25 3
23 28 2
23 36 1
23 39 1
23 59 3
23 71 1
23 72 2
23 75 1
23 87 2
23 96 1
23 97 1
23 119 1
23 123 1
23 124 3
23 132 2
23 133 2
23 145 1
23 157 2
23 168 2
23 169 1
23 181 2
23 192 1
24 12 2
24 14 1
24 26 3
24 29 2
24 37 1
24 40 1
24 49 1
24 60 3
24 72 1
24 73 2
24 76 1
24 88 2
24 98 1
24 120 1
24 124 1
24 125 3
24 133 2
24 134 2
24 145 1
24 146 1
24 158 2
24 169 2
24 170 1
24 182 2
25 13 2
25 15 1
25 27 3
25 30 2
25 38 1
25 41 1
25 50 1
25 61 3
25 73 1
25 74 2
25 77 1
25 89 2
25 99 1
25 121 1
25 125 1
25 126 3
25 134 2
25 135 2
25 146 1
25 147 1
25 159 2
25 170 2
25 171 1
25 183 2
26 14 2
26 16 1
26 28 3
26 31 2
26 39 1
26 42 1
26 51 1
26 62 3
26 74 1
26 75 2
26 78 1
26 90 2
26 100 1
26 122 1
26 126 1
26 127 3
26 135 2
26 136 2
26 147 1
26 148 1
26 160 2
26 171 2
26 172 1
26 184 2
27 15 2
27 17 1
27 29 3
27 32 2
27 40 1
27 43 1
27 52 1
27 63 3
27 75 1
27 76 2
27 79 1
27 91 2
27 101 1
27 123 1
27 127 1
27 128 3
27 136 2
27 137 2
27 148 1
27 149 1
27 161 2
27 172 2
27 173 1
27 185 2
28 16 2
28 18 1
28 30 3
28 33 2
28 41 1
28 44 1
28 53 1
28 64 3
28 76 1
28 77 2
28 80 1
28 92 2
28 102 1
28 124 1
28 128 1
28 129 3
28 137 2
28 138 2
28 149 1
28 150 1
28 162 2
28 173 2
28 174 1
28 186 2
29 17 2
29 19 1
29 31 3
29 34 2
29 42 1
29 45 1
29 54 1
29 65 3
29 77 1
29 78 2
29 81 1
29 93 2
29 103 1
29 125 1
29 129 1
29 130 3
29 138 2
29 139 2
29 150 1
29 151 1
29 163 2
29 174 2
29 175 1
29 187 2
30 18 2
30 20 1
30 32 3
30 35 2
30 43 1
30 46 1
30 55 1
30 66 3
30 78 1
30 79 2
30 82 1
30 94 2
30 104 1
30 126 1
30 130 1
30 131 3
30 139 2
30 140 2
30 151 1
30 152 1
30 164 2
30 175 2
30 176 1
30 188 2
31 19 2
31 21 1
31 33 3
31 36 2
31 44 1
31 47 1
31 56 1
31 67 3
31 79 1
31 80 2
31 83 1
31 95 2
31 105 1
31 127 1
31 131 1
31 132 3
31 140 2
31 141 2
31 152 1
31 153 1
31 165 2
31 176 2
31 177 1
31 189 2
32 20 2
32 22 1
32 34 3
32 37 2
32 45 1
32 48 1
32 57 1
32 68 3
32 80 1
32 81 2
32 84 1
32 96 2
32 106 1
32 128 1
32 132 1
32 133 3
32 141 2
32 142 2
32 153 1
32 154 1
32 166 2
32 177 2
32 178 1
32 190 2
33 1 1
33 21 2
33 23 1
33 35 3
33 38 2
33 46 1
33 49 2
33 58 1
33 69 3
33 81 1
33 82 2
33 85 1
33 107 1
33 129 1
33 133 1
33 134 3
33 142 2
33 143 2
33 154 1
33 155 1
33 167 2
33 178 2
33 179 1
33 191 2
34 2 1
34 22 2
34 24 1
34 36 3
34 39 2
34 47 1
34 50 2
34 59 1
34 70 3
34 82 1
34 83 2
34 86 1
34 108 1
34 130 1
34 134 1
34 135 3
34 143 2
34 144 2
34 155 1
34 156 1
34 168 2
34 179 2
34 180 1
34 192 2
35 3 1
35 23 2
35 25 1
35 37 3
35 40 2
35 48 1
35 51 2
35 60 1
35 71 3
35 83 1
35 84 2
35 87 1
35 97 2
35 109 1
35 131 1
35 135 1
35 136 3
35 144 2
35 145 2
35 156 1
35 157 1
35 169 2
35 180 2
35 181 1
36 1 1
36 4 1
36 24 2
36 26 1
36 38 3
36 41 2
36 52 2
36 61 1
36 72 3
36 84 1
36 85 2
36 88 1
36 97 2
36 98 2
36 110 1
36 132 1
36 136 1
36 137 3
36 146 2
36 157 1
36 158 1
36 170 2
36 181 2
36 182 1
37 2 1
37 5 1
37 25 2
37 27 1
37 39 3
37 42 2
37 53 2
37 62 1
37 73 3
37 85 1
37 86 2
37 89 1
37 98 2
37 99 2
37 111 1
37 133 1
37 137 1
37 138 3
37 147 2
37 158 1
37 159 1
37 171 2
37 182 2
37 183 1
38 3 1
38 6 1
38 26 2
38 28 1
38 40 3
38 43 2
38 54 2
38 63 1
38 74 3
38 86 1
38 87 2
38 90 1
38 99 2
38 100 2
38 112 1
38 134 1
38 138 1
38 139 3
38 148 2
38 159 1
38 160 1
38 172 2
38 183 2
38 184 1
39 4 1
39 7 1
39 27 2
39 29 1
39 41 3
39 44 2
39 55 2
39 64 1
39 75 3
39 87 1
39 88 2
39 91 1
39 100 2
39 101 2
39 113 1
39 135 1
39 139 1
39 140 3
39 149 2
39 160 1
39 161 1
39 173 2
39 184 2
39 185 1
40 5 1
40 8 1
40 28 2
40 30 1
40 42 3
40 45 2
40 56 2
40 65 1
40 76 3
40 88 1
40 89 2
40 92 1
40 101 2
40 102 2
40 114 1
40 136 1
40 140 1
40 141 3
40 150 2
40 161 1
40 162 1
40 174 2
40 185 2
40 186 1
41 6 1
41 9 1
41 29 2
41 31 1
41 43 3
41 46 2
41 57 2
41 66 1
41 77 3
41 89 1
41 90 2
41 93 1
41 102 2
41 103 2
41 115 1
41 137 1
41 141 1
41 142 3
41 151 2
41 162 1
41 163 1
41 175 2
41 186 2
41 187 1
42 7 1
42 10 1
42 30 2
42 32 1
42 44 3
42 47 2
42 58 2
42 67 1
42 78 3
42 90 1
42 91 2
42 94 1
42 103 2
42 104 2
42 116 1
42 138 1
42 142 1
42 143 3
42 152 2
42 163 1
42 164 1
42 176 2
42 187 2
42 188 1
43 8 1
43 11 1
43 31 2
43 33 1
43 45 3
43 48 2
43 59 2
43 68 1
43 79 3
43 91 1
43 92 2
43 95 1
43 104 2
43 105 2
43 117 1
43 139 1
43 143 1
43 144 3
43 153 2
43 164 1
43 165 1
43 177 2
43 188 2
43 189 1
44 1 2
44 9 1
44 12 1
44 32 2
44 34 1
44 46 3
44 60 2
44 69 1
44 80 3
44 92 1
44 93 2
44 96 1
44 97 3
44 105 2
44 106 2
44 118 1
44 140 1
44 144 1
44 154 2
44 165 1
44 166 1
44 178 2
44 189 2
44 190 1
45 2 2
45 10 1
45 13 1
45 33 2
45 35 1
45 47 3
45 49 1
45 61 2
45 70 1
45 81 3
45 93 1
45 94 2
45 97 1
45 98 3
45 106 2
45 107 2
45 119 1
45 141 1
45 155 2
45 166 1
45 167 1
45 179 2
45 190 2
45 191 1
46 3 2
46 11 1
46 14 1
46 34 2
46 36 1
46 48 3
46 50 1
46 62 2
46 71 1
46 82 3
46 94 1
46 95 2
46 98 1
46 99 3
46 107 2
46 108 2
46 120 1
46 142 1
46 156 2
46 167 1
46 168 1
46 180 2
46 191 2
46 192 1
47 1 3
47 4 2
47 12 1
47 15 1
47 35 2
47 37 1
47 51 1
47 63 2
47 72 1
47 83 3
47 95 1
47 96 2
47 99 1
47 100 3
47 108 2
47 109 2
47 121 1
47 143 1
47 145 1
47 157 2
47 168 1
47 169 1
47 181 2
47 192 2
48 2 3
48 5 2
48 13 1
48 16 1
48 36 2
48 38 1
48 49 2
48 52 1
48 64 2
48 73 1
48 84 3
48 96 1
48 100 1
48 101 3
48 109 2
48 110 2
48 122 1
48 144 1
48 145 2
48 146 1
48 158 2
48 169 1
48 170 1
48 182 2
49 1 1
49 2 3
49 3 2
49 26 3
49 39 2
49 49 2
49 61 3
49 74 3
49 86 3
49 109 3
49 111 1
49 122 1
49 123 3
49 134 3
49 135 2
49 338 1
49 339 3
49 351 1
49 362 3
49 363 3
49 375 1
50 2 1
50 3 3
50 4 2
50 27 3
50 40 2
50 50 2
50 62 3
50 75 3
50 87 3
50 110 3
50 112 1
50 123 1
50 124 3
50 135 3
50 136 2
50 339 1
50 340 3
50 352 1
50 363 3
50 364 3
50 376 1
51 3 1
51 4 3
51 5 2
51 28 3
51 41 2
51 51 2
51 63 3
51 76 3
51 88 3
51 111 3
51 113 1
51 124 1
51 125 3
51 136 3
51 137 2
51 340 1
51 341 3
51 353 1
51 364 3
51 365 3
51 377 1
52 4 1
52 5 3
52 6 2
52 29 3
52 42 2
52 52 2
52 64 3
52 77 3
52 89 3
52 112 3
52 114 1
52 125 1
52 126 3
52 137 3
52 138 2
52 341 1
52 342 3
52 354 1
52 365 3
52 366 3
52 378 1
53 5 1
53 6 3
53 7 2
53 30 3
53 43 2
53 53 2
53 65 3
53 78 3
53 90 3
53 113 3
53 115 1
53 126 1
53 127 3
53 138 3
53 139 2
53 342 1
53 343 3
53 355 1
53 366 3
53 367 3
53 379 1
54 6 1
54 7 3
54 8 2
54 31 3
54 44 2
54 54 2
54 66 3
54 79 3
54 91 3
54 114 3
54 116 1
54 127 1
54 128 3
54 139 3
54 140 2
54 343 1
54 344 3
54 356 1
54 367 3
54 368 3
54 380 1
55 7 1
55 8 3
55 9 2
55 32 3
55 45 2
55 55 2
55 67 3
55 80 3
55 92 3
55 115 3
55 117 1
55 128 1
55 129 3
55 140 3
55 141 2
55 344 1
55 345 3
55 357 1
55 368 3
55 369 3
55 381 1
56 8 1
56 9 3
56 10 2
56 33 3
56 46 2
56 56 2
56 68 3
56 81 3
56 93 3
56 116 3
56 118 1
56 129 1
56 130 3
56 141 3
56 142 2
56 345 1
56 346 3
56 358 1
56 369 3
56 370 3
56 382 1
57 9 1
57 10 3
57 11 2
57 34 3
57 47 2
57 57 2
57 69 3
57 82 3
57 94 3
57 117 3
57 119 1
57 130 1
57 131 3
57 142 3
57 143 2
57 346 1
57 347 3
57 359 1
57 370 3
57 371 3
57 383 1
58 10 1
58 11 3
58 12 2
58 35 3
58 48 2
58 58 2
58 70 3
58 83 3
58 95 3
58 118 3
58 120 1
58 131 1
58 132 3
58 143 3
58 144 2
58 347 1
58 348 3
58 360 1
58 371 3
58 372 3
58 384 1
59 1 2
59 11 1
59 12 3
59 13 2
59 36 3
59 59 2
59 71 3
59 84 3
59 96 3
59 97 2
59 119 3
59 121 1
59 132 1
59 133 3
59 144 3
59 337 1
59 348 1
59 349 3
59 361 1
59 372 3
59 373 3
60 2 2
60 12 1
60 13 3
60 14 2
60 37 3
60 49 3
60 60 2
60 72 3
60 85 3
60 97 3
60 98 2
60 120 3
60 122 1
60 133 1
60 134 3
60 338 1
60 349 1
60 350 3
60 362 1
60 373 3
60 374 3
61 3 2
61 13 1
61 14 3
61 15 2
61 38 3
61 50 3
61 61 2
61 73 3
61 86 3
61 98 3
61 99 2
61 121 3
61 123 1
61 134 1
61 135 3
61 339 1
61 350 1
61 351 3
61 363 1
61 374 3
61 375 3
62 4 2
62 14 1
62 15 3
62 16 2
62 39 3
62 51 3
62 62 2
62 74 3
62 87 3
62 99 3
62 100 2
62 122 3
62 124 1
62 135 1
62 136 3
62 340 1
62 351 1
62 352 3
62 364 1
62 375 3
62 376 3
63 5 2
63 15 1
63 16 3
63 17 2
63 40 3
63 52 3
63 63 2
63 75 3
63 88 3
63 100 3
63 101 2
63 123 3
63 125 1
63 136 1
63 137 3
63 341 1
63 352 1
63 353 3
63 365 1
63 376 3
63 377 3
64 6 2
64 16 1
64 17 3
64 18 2
64 41 3
64 53 3
64 64 2
64 76 3
64 89 3
64 101 3
64 102 2
64 124 3
64 126 1
64 137 1
64 138 3
64 342 1
64 353 1
64 354 3
64 366 1
64 377 3
64 378 3
65 7 2
65 17 1
65 18 3
65 19 2
65 42 3
65 54 3
65 65 2
65 77 3
65 90 3
65 102 3
65 103 2
65 125 3
65 127 1
65 138 1
65 139 3
65 343 1
65 354 1
65 355 3
65 367 1
65 378 3
65 379 3
66 8 2
66 18 1
66 19 3
66 20 2
66 43 3
66 55 3
66 66 2
66 78 3
66 91 3
66 103 3
66 104 2
66 126 3
66 128 1
66 139 1
66 140 3
66 344 1
66 355 1
66 356 3
66 368 1
66 379 3
66 380 3
67 9 2
67 19 1
67 20 3
67 21 2
67 44 3
67 56 3
67 67 2
67 79 3
67 92 3
67 104 3
67 105 2
67 127 3
67 129 1
67 140 1
67 141 3
67 345 1
67 356 1
67 357 3
67 369 1
67 380 3
67 381 3
68 10 2
68 20 1
68 21 3
68 22 2
68 45 3
68 57 3
68 68 2
68 80 3
68 93 3
68 105 3
68 106 2
68 128 3
68 130 1
68 141 1
68 142 3
68 346 1
68 357 1
68 358 3
68 370 1
68 381 3
68 382 3
69 11 2
69 21 1
69 22 3
69 23 2
69 46 3
69 58 3
69 69 2
69 81 3
69 94 3
69 106 3
69 107 2
69 129 3
69 131 1
69 142 1
69 143 3
69 347 1
69 358 1
69 359 3
69 371 1
69 382 3
69 383 3
70 12 2
70 22 1
70 23 3
70 24 2
70 47 3
70 59 3
70 70 2
70 82 3
70 95 3
70 107 3
70 108 2
70 130 3
70 132 1
70 143 1
70 144 3
70 348 1
70 359 1
70 360 3
70 372 1
70 383 3
70 384 3
71 13 2
71 23 1
71 24 3
71 25 2
71 48 3
71 60 3
71 71 2
71 83 3
71 96 3
71 97 3
71 108 3
71 109 2
71 131 3
71 133 1
71 144 1
71 337 3
71 349 1
71 360 1
71 361 3
71 373 1
71 384 3
72 1 3
72 14 2
72 24 1
72 25 3
72 26 2
72 49 3
72 61 3
72 72 2
72 84 3
72 97 1
72 98 3
72 109 3
72 110 2
72 132 3
72 134 1
72 337 3
72 338 3
72 350 1
72 361 1
72 362 3
72 374 1
73 2 3
73 15 2
73 25 1
73 26 3
73 27 2
73 50 3
73 62 3
73 73 2
73 85 3
73 98 1
73 99 3
73 110 3
73 111 2
73 133 3
73 135 1
73 338 3
73 339 3
73 351 1
73 362 1
73 363 3
73 375 1
74 3 3
74 16 2
74 26 1
74 27 3
74 28 2
74 51 3
74 63 3
74 74 2
74 86 3
74 99 1
74 100 3
74 111 3
74 112 2
74 134 3
74 136 1
74 339 3
74 340 3
74 352 1
74 363 1
74 364 3
74 376 1
75 4 3
75 17 2
75 27 1
75 28 3
75 29 2
75 52 3
75 64 3
75 75 2
75 87 3
75 100 1
75 101 3
75 112 3
75 113 2
75 135 3
75 137 1
75 340 3
75 341 3
75 353 1
75 364 1
75 365 3
75 377 1
76 5 3
76 18 2
76 28 1
76 29 3
76 30 2
76 53 3
76 65 3
76 76 2
76 88 3
76 101 1
76 102 3
76 113 3
76 114 2
76 136 3
76 138 1
76 341 3
76 342 3
76 354 1
76 365 1
76 366 3
76 378 1
77 6 3
77 19 2
77 29 1
77 30 3
77 31 2
77 54 3
77 66 3
77 77 2
77 89 3
77 102 1
77 103 3
77 114 3
77 115 2
77 137 3
77 139 1
77 342 3
77 343 3
77 355 1
77 366 1
77 367 3
77 379 1
78 7 3
78 20 2
78 30 1
78 31 3
78 32 2
78 55 3
78 67 3
78 78 2
78 90 3
78 103 1
78 104 3
78 115 3
78 116 2
78 138 3
78 140 1
78 343 3
78 344 3
78 356 1
78 367 1
78 368 3
78 380 1
79 8 3
79 21 2
79 31 1
79 32 3
79 33 2
79 56 3
79 68 3
79 79 2
79 91 3
79 104 1
79 105 3
79 116 3
79 117 2
79 139 3
79 141 1
79 344 3
79 345 3
79 357 1
79 368 1
79 369 3
79 381 1
80 9 3
80 22 2
80 32 1
80 33 3
80 34 2
80 57 3
80 69 3
80 80 2
80 92 3
80 105 1
80 106 3
80 117 3
80 118 2
80 140 3
80 142 1
80 345 3
80 346 3
80 358 1
80 369 1
80 370 3
80 382 1
81 10 3
81 23 2
81 33 1
81 34 3
81 35 2
81 58 3
81 70 3
81 81 2
81 93 3
81 106 1
81 107 3
81 118 3
81 119 2
81 141 3
81 143 1
81 346 3
81 347 3
81 359 1
81 370 1
81 371 3
81 383 1
82 11 3
82 24 2
82 34 1
82 35 3
82 36 2
82 59 3
82 71 3
82 82 2
82 94 3
82 107 1
82 108 3
82 119 3
82 120 2
82 142 3
82 144 1
82 347 3
82 348 3
82 360 1
82 371 1
82 372 3
82 384 1
83 12 3
83 25 2
83 35 1
83 36 3
83 37 2
83 60 3
83 72 3
83 83 2
83 95 3
83 97 1
83 108 1
83 109 3
83 120 3
83 121 2
83 143 3
83 337 1
83 348 3
83 349 3
83 361 1
83 372 1
83 373 3
84 13 3
84 26 2
84 36 1
84 37 3
84 38 2
84 61 3
84 73 3
84 84 2
84 96 3
84 98 1
84 109 1
84 110 3
84 121 3
84 122 2
84 144 3
84 338 1
84 349 3
84 350 3
84 362 1
84 373 1
84 374 3
85 14 3
85 27 2
85 37 1
85 38 3
85 39 2
85 49 3
85 62 3
85 74 3
85 85 2
85 97 3
85 99 1
85 110 1
85 111 3
85 122 3
85 123 2
85 339 1
85 350 3
85 351 3
85 363 1
85 374 1
85 375 3
86 15 3
86 28 2
86 38 1
86 39 3
86 40 2
86 50 3
86 63 3
86 75 3
86 86 2
86 98 3
86 100 1
86 111 1
86 112 3
86 123 3
86 124 2
86 340 1
86 351 3
86 352 3
86 364 1
86 375 1
86 376 3
87 16 3
87 29 2
87 39 1
87 40 3
87 41 2
87 51 3
87 64 3
87 76 3
87 87 2
87 99 3
87 101 1
87 112 1
87 113 3
87 124 3
87 125 2
87 341 1
87 352 3
87 353 3
87 365 1
87 376 1
87 377 3
88 17 3
88 30 2
88 40 1
88 41 3
88 42 2
88 52 3
88 65 3
88 77 3
88 88 2
88 100 3
88 102 1
88 113 1
88 114 3
88 125 3
88 126 2
88 342 1
88 353 3
88 354 3
88 366 1
88 377 1
88 378 3
89 18 3
89 31 2
89 41 1
89 42 3
89 43 2
89 53 3
89 66 3
89 78 3
89 89 2
89 101 3
89 103 1
89 114 1
89 115 3
89 126 3
89 127 2
89 343 1
89 354 3
89 355 3
89 367 1
89 378 1
89 379 3
90 19 3
90 32 2
90 42 1
90 43 3
90 44 2
90 54 3
90 67 3
90 79 3
90 90 2
90 102 3
90 104 1
90 115 1
90 116 3
90 127 3
90 128 2
90 344 1
90 355 3
90 356 3
90 368 1
90 379 1
90 380 3
91 20 3
91 33 2
91 43 1
91 44 3
91 45 2
91 55 3
91 68 3
91 80 3
91 91 2
91 103 3
91 105 1
91 116 1
91 117 3
91 128 3
91 129 2
91 345 1
91 356 3
91 357 3
91 369 1
91 380 1
91 381 3
92 21 3
92 34 2
92 44 1
92 45 3
92 46 2
92 56 3
92 69 3
92 81 3
92 92 2
92 104 3
92 106 1
92 117 1
92 118 3
92 129 3
92 130 2
92 346 1
92 357 3
92 358 3
92 370 1
92 381 1
92 382 3
93 22 3
93 35 2
93 45 1
93 46 3
93 47 2
93 57 3
93 70 3
93 82 3
93 93 2
93 105 3
93 107 1
93 118 1
93 119 3
93 130 3
93 131 2
93 347 1
93 358 3
93 359 3
93 371 1
93 382 1
93 383 3
94 23 3
94 36 2
94 46 1
94 47 3
94 48 2
94 58 3
94 71 3
94 83 3
94 94 2
94 106 3
94 108 1
94 119 1
94 120 3
94 131 3
94 132 2
94 348 1
94 359 3
94 360 3
94 372 1
94 383 1
94 384 3
95 1 2
95 24 3
95 37 2
95 47 1
95 48 3
95 59 3
95 72 3
95 84 3
95 95 2
95 107 3
95 109 1
95 120 1
95 121 3
95 132 3
95 133 2
95 337 3
95 349 1
95 360 3
95 361 3
95 373 1
95 384 1
96 1 3
96 2 2
96 25 3
96 38 2
96 48 1
96 60 3
96 73 3
96 85 3
96 96 2
96 108 3
96 110 1
96 121 1
96 122 3
96 133 3
96 134 2
96 337 1
96 338 3
96 350 1
96 361 3
96 362 3
96 374 1
